BEGIN IONS
RTINSECONDS=370.123993
CHARGE=1-
MSLEVEL=2
SMILES=CC(C)C[C@H](NC(=O)c1ccccc1)C(=O)OC[C@@H](NC(=O)c1ccccc1)Cc1ccccc1
INCHI=InChI=1S/C29H32N2O4/c1-21(2)18-26(31-28(33)24-16-10-5-11-17-24)29(34)35-20-25(19-22-12-6-3-7-13-22)30-27(32)23-14-8-4-9-15-23/h3-17,21,25-26H,18-20H2,1-2H3,(H,30,32)(H,31,33)/t25-,26-/m0/s1
INCHIKEY=JOOSAYNHLJGJCN-UIOOFZCWSA-N
CLASS=N-Containing Compounds
ADDUCT=[M-H+HCOOH]-
INSTRUMENT=Agilent Q-ToF 6530
PRECURSOR_MZ=517.2339
COMPOUND_NAME=Hypothallin
ION_MODE=negative
FORMULA=C29H32N2O4
106.322525 129.755142 
117.120125 150.382355 
120.043846 3972.987305 
120.107513 152.230774 
121.048653 652.878906 
190.123413 21759.808594 
191.126358 6223.412598 
234.11377 1469922.875 
235.116943 563290.0625 
236.118805 48328.472656 
254.11792 35685.257812 
255.121735 17470.556641 
319.684875 166.640961 
323.73291 243.837021 
350.128021 134.066177 
364.491608 156.284088 
387.719574 162.001862 
402.883942 412.397064 
406.217041 185.0 
471.229218 556893.25 
472.23288 899221.3125 
473.234894 149941.9375 
577.550415 126.25 
614.887329 136.800003 
619.350647 124.258064 
639.397156 200.939438 
669.026123 174.647064 
706.374695 118.084015 
717.25946 112.516129 
765.064087 188.666672 
768.060547 173.148804 
771.189331 105.735001 
772.684509 105.360001 
820.446777 172.097595 
827.325806 103.520164 
839.195496 87.191177 
846.756653 98.336113 
848.420166 108.125 
874.694092 115.002121 
911.154724 145.222565 
912.682007 162.13298 
945.854187 181.240051 
947.11145 115.257141 
952.596802 109.045456 
974.344421 128.183441 
1006.375793 155.013885 
1022.565247 166.557693 
1058.287354 139.050003 
1060.46167 104.844299 
1063.101562 143.34964 
1078.917603 107.905487 
1107.801514 116.692307 
1126.932861 110.270271 
1149.747803 114.001923 
1163.746704 154.421722 
1171.740112 109.809998 
1178.263306 76.431122 
1184.737549 181.371948 
1232.464233 210.024994 
1252.534546 131.274353 
1266.797363 131.85141 
1267.15564 157.173782 
1283.53186 144.243896 
1286.019775 311.571442 
1343.261353 95.003052 
1359.468018 145.363632 
1386.175659 121.116379 
1391.248779 216.667679 
1415.785034 127.150002 
1429.926514 131.09375 
1439.815308 115.102272 
1450.102783 164.20166 
1450.340942 113.023254 
1491.633545 69.875 
1507.157227 63.142242 
1509.735474 65.889282 
1510.98645 79.777779 
1511.281372 83.938828 
1563.971436 91.14286 
1576.990601 154.8125 
1587.014038 69.4879 
1591.501709 61.440216 
1591.964722 87.120094 
1594.554688 111.4375 
1644.984253 172.11171 
1650.671997 134.384613 
1663.468262 115.440002 
1667.19165 113.009262 
1673.36377 116.032143 
1684.620117 100.01136 
END IONS

BEGIN IONS
RTINSECONDS=428.406006
CHARGE=1-
MSLEVEL=2
SMILES=OC(=O)c1c(OC)cc(cc1CCCCC)OC(=O)c1c(CCCCC)cc(OC)cc1OC
INCHI=InChI=1S/C27H36O7/c1-6-8-10-12-18-15-21(17-22(32-4)24(18)26(28)29)34-27(30)25-19(13-11-9-7-2)14-20(31-3)16-23(25)33-5/h14-17H,6-13H2,1-5H3,(H,28,29)
INCHIKEY=FNJKTDQIJKLZGZ-UHFFFAOYSA-N
CLASS=Depsides (Didepsides)
ADDUCT=[2M-H]-
INSTRUMENT=Agilent Q-ToF 6530
PRECURSOR_MZ=943.4844
COMPOUND_NAME=Planaic acid
ION_MODE=negative
FORMULA=C27H36O7
110.779266 163.564651 
122.035873 547.817871 
178.101364 525.126648 
193.123184 28121.105469 
193.247009 712.723328 
194.126297 10572.761719 
195.130081 921.877808 
251.127335 1786.742432 
252.130386 993.630615 
337.143127 798.804932 
339.157806 1148.146484 
340.161713 979.464844 
365.210022 2272.367188 
366.216095 1999.253784 
395.22171 10563.701172 
396.224792 9916.96582 
471.238647 644731.0 
472.242126 757844.0 
473.244202 162108.796875 
474.246613 19968.482422 
534.58313 185.810974 
538.957642 126.80278 
539.96106 150.848083 
540.236694 161.633774 
568.119019 115.080132 
616.179077 174.755432 
622.847351 110.141304 
635.266785 114.102272 
638.94397 99.14959 
664.270874 117.247948 
668.236389 137.111847 
711.595947 130.399994 
727.652283 63.120369 
736.898132 47.142242 
741.547119 39.140625 
749.581787 60.18182 
813.489014 129.039993 
815.232117 137.662231 
843.48175 106.0625 
848.567139 98.347221 
861.055237 124.615387 
868.497009 174.555771 
1028.217651 148.906586 
1036.286377 216.92308 
1043.68811 113.693962 
1090.153198 129.407608 
1101.832764 155.306244 
1104.438965 147.340912 
1112.908447 172.917175 
1118.063232 147.966949 
1135.321533 119.917374 
1176.750854 109.697784 
1178.525391 114.360291 
1198.224731 94.793602 
1203.475098 112.408333 
1208.869873 97.266129 
1235.530762 93.408333 
1243.156738 111.129036 
1273.648193 104.102272 
1293.820923 110.480072 
1294.66333 146.01973 
1300.640991 110.368423 
1343.860229 85.440475 
1358.855591 99.166664 
1361.217407 93.782608 
1368.431885 163.001236 
1424.354492 90.185608 
1430.432251 45.39674 
1436.44165 136.533234 
1459.502319 105.314102 
1460.574097 108.133331 
1466.628052 80.493851 
1482.704102 66.011902 
1512.715088 88.595337 
1547.220581 92.065788 
1567.956177 120.414215 
1569.974121 145.177948 
1572.787964 82.875 
1576.761841 105.456818 
1581.016724 87.054825 
1638.606445 149.703705 
1643.072998 100.653984 
1654.125 111.764709 
1669.69519 164.222824 
1682.907837 81.227272 
1693.868286 57.852272 
1697.490479 98.017311 
END IONS

BEGIN IONS
RTINSECONDS=317.247009
CHARGE=1-
MSLEVEL=2
SMILES=O=C1c2c(C)cc(O)c(C)c2Oc2c(O1)cc(c(c2C)C(=O)O)O
INCHI=InChI=1S/C17H14O7/c1-6-4-9(18)7(2)15-12(6)17(22)23-11-5-10(19)13(16(20)21)8(3)14(11)24-15/h4-5,18-19H,1-3H3,(H,20,21)
INCHIKEY=HETZRHDDRHBPKX-UHFFFAOYSA-N
CLASS=Depsidones
ADDUCT=[2M-H]-
INSTRUMENT=Agilent Q-ToF 6530
PRECURSOR_MZ=659.1401
COMPOUND_NAME=Nornotatic acid
ION_MODE=negative
FORMULA=C17H14O7
119.050682 1645.780029 
120.054932 1121.210327 
217.084351 38342.414062 
218.088303 21772.126953 
241.084274 477319.625 
242.087524 310010.78125 
243.070236 83836.664062 
244.066742 51063.914062 
285.072784 128163.890625 
329.062347 1400347.125 
330.065857 1171245.875 
331.067322 174980.640625 
403.270325 86.112503 
407.64035 121.625 
423.792114 154.160721 
432.640106 91.370369 
455.186035 87.583336 
477.522827 97.260872 
484.131134 90.685974 
488.000244 78.556816 
536.63501 130.457138 
543.569397 92.065788 
544.861816 85.782608 
581.999512 98.77594 
587.192139 112.355392 
606.722473 127.402779 
710.783203 117.125 
715.688721 130.726654 
718.989075 96.25798 
728.405945 104.166664 
744.921143 96.150002 
760.342041 117.407608 
812.656738 109.340912 
817.535645 94.537788 
834.489319 68.227272 
841.037659 232.429764 
855.841431 97.04348 
874.569031 89.157051 
897.164978 102.336113 
898.886536 87.125 
904.732544 120.76136 
905.951477 94.694229 
935.800537 81.580643 
964.271545 96.030403 
1000.782715 125.800003 
1003.756348 77.571426 
1020.435669 129.288269 
1023.293823 104.0625 
1037.407959 104.384094 
1076.566284 96.005951 
1101.56604 66.315788 
1109.658936 96.963234 
1110.790894 81.112068 
1143.221802 155.330704 
1171.220337 121.267403 
1173.119507 113.440002 
1194.130859 124.051231 
1202.593018 135.002914 
1210.800049 111.886627 
1274.082642 139.507904 
1277.157959 119.408333 
1289.439087 145.307693 
1294.207397 75.925003 
1324.723145 95.84375 
1355.984253 70.852272 
1369.806396 98.493851 
1383.526489 138.107452 
1384.437134 135.508926 
1402.343262 63.05357 
1435.205078 53.640152 
1451.638672 111.045212 
1466.3927 154.134995 
1466.802002 112.880104 
1514.473511 96.75 
1518.994385 192.122482 
1538.80603 108.069443 
1549.093628 95.008926 
1550.073975 103.023933 
1594.814209 140.089996 
1603.072632 140.235291 
1610.297241 157.041672 
1630.943604 133.049606 
1648.128662 73.285713 
1660.09021 54.666668 
1690.84436 83.633331 
END IONS

BEGIN IONS
RTINSECONDS=394.509003
CHARGE=1-
MSLEVEL=2
SMILES=Cc1c2c(Oc3c(OC2=O)c(c(c(c3C)Cl)OC)C)c(C=O)c(O)c1Cl
INCHI=InChI=1S/C18H14Cl2O6/c1-6-10-17(9(5-21)13(22)11(6)19)25-15-7(2)12(20)14(24-4)8(3)16(15)26-18(10)23/h5,22H,1-4H3
INCHIKEY=SNNDIPJEAQAKTJ-UHFFFAOYSA-N
CLASS=Depsidones
ADDUCT=[M-H+CH3OH]-
INSTRUMENT=Agilent Q-ToF 6530
PRECURSOR_MZ=427.0351
COMPOUND_NAME=Argopsin
ION_MODE=negative
FORMULA=C18H14Cl2O6
138.995209 983.046875 
169.00441 1015.903992 
182.985672 2130.722412 
184.997559 1705.794922 
208.052338 2107.338623 
244.028442 6124.532227 
276.018219 8339.300781 
291.043243 12031.617188 
308.001434 16770.923828 
309.997589 11149.549805 
316.014496 13649.486328 
331.037415 19577.830078 
367.014435 93800.757812 
368.01828 23803.207031 
369.011963 62053.359375 
399.040131 24000.761719 
482.73587 107.431122 
490.220764 95.537788 
513.278015 118.03511 
542.819336 112.00219 
543.140259 101.111839 
564.057068 89.151123 
567.557617 122.141891 
581.882202 89.633621 
596.281921 84.678574 
610.552979 81.077583 
647.476501 48.003571 
661.217224 51.680557 
673.736023 52.326614 
702.722717 56.0 
716.84375 68.695656 
724.3974 59.18182 
735.504395 62.132355 
735.912903 262.346252 
739.829956 62.0 
797.110962 77.23214 
844.84259 140.001587 
853.067261 87.59375 
857.520447 86.595589 
880.453979 75.721153 
897.512573 84.007355 
920.65509 95.002777 
930.868225 77.041664 
955.642883 73.633774 
957.947449 91.125 
970.868591 69.385635 
996.399719 70.199997 
1014.84082 87.240387 
1017.358521 66.103813 
1031.602295 78.284088 
1036.143066 67.355392 
1068.94812 85.114288 
1092.704224 70.346153 
1105.242798 72.367645 
1134.656006 111.001808 
1149.289917 104.285713 
1179.411865 63.444443 
1194.549194 101.001984 
1204.696777 63.432144 
1242.784302 56.021225 
1243.207275 59.076218 
1248.285156 86.140625 
1307.595703 77.291664 
1323.567749 57.102272 
1349.401978 87.917557 
1384.943359 87.570656 
1436.032227 54.015625 
1438.487305 125.321808 
1444.775146 90.699997 
1447.63208 103.802635 
1467.815552 61.099998 
1498.706055 72.880432 
1519.155151 150.091415 
1537.325439 72.129036 
1547.911865 157.035919 
1550.862793 122.28125 
1594.551758 73.84375 
1605.453735 70.230766 
1608.739258 126.735291 
1646.51416 112.086266 
1653.141357 81.070312 
1665.108521 108.456894 
1682.612305 136.160263 
1689.663696 82.625 
END IONS

BEGIN IONS
RTINSECONDS=392.434998
CHARGE=1-
MSLEVEL=2
SMILES=O=C1c2c(CC(=O)CCCCC)cc(O)c(O)c2Oc2c(O1)cc(c(c2CCCCC)C(=O)O)O
INCHI=InChI=1S/C26H30O9/c1-3-5-7-9-15(27)11-14-12-18(29)22(30)24-20(14)26(33)34-19-13-17(28)21(25(31)32)16(23(19)35-24)10-8-6-4-2/h12-13,28-30H,3-11H2,1-2H3,(H,31,32)
INCHIKEY=BQHHNAPTXQOPBW-UHFFFAOYSA-N
CLASS=Depsidones
ADDUCT=[2M-H]-
INSTRUMENT=Agilent Q-ToF 6530
PRECURSOR_MZ=971.3701
COMPOUND_NAME=3-Hydroxyphysodic acid
ION_MODE=negative
FORMULA=C26H30O9
109.02829 201.021271 
111.009102 123.80278 
137.02243 1552.592285 
137.092926 202.781601 
138.026001 318.107269 
179.106705 870.081299 
223.093369 4786.084473 
235.093674 17303.166016 
236.097305 6970.228516 
249.073624 2837.553711 
261.072449 13185.541992 
262.076294 6339.25 
328.089447 2949.797119 
329.09314 2114.007812 
343.109924 1525.731445 
397.194061 9479.679688 
399.173431 32589.90625 
400.176453 28067.722656 
441.182343 84283.734375 
442.185791 87426.148438 
485.172058 495505.59375 
486.175415 552392.75 
487.177094 129008.609375 
559.497009 141.125 
569.090393 120.05896 
616.969849 98.160004 
617.884338 92.14286 
628.310913 72.227272 
631.199646 146.309067 
685.389221 80.01136 
696.964661 122.382042 
697.90802 80.521736 
699.042969 86.14286 
710.409424 82.16346 
736.722107 85.458336 
748.776184 90.01786 
790.697021 152.57341 
792.095215 91.68145 
797.303284 100.558823 
797.43219 104.367645 
835.134827 142.406647 
840.919006 141.952698 
850.70929 108.925003 
855.541199 143.698273 
867.771362 123.242645 
904.344543 97.881096 
919.484192 215.001312 
1049.619141 111.705246 
1086.597656 77.410255 
1087.666138 70.032143 
1088.990601 66.153847 
1100.622681 81.761902 
1102.329712 82.449074 
1167.285889 142.521545 
1181.050293 82.440216 
1188.778198 75.939514 
1201.285034 75.471153 
1211.197754 74.148811 
1241.238525 120.225746 
1264.382935 103.013885 
1267.675903 90.321808 
1279.491577 101.236839 
1288.404663 76.964287 
1299.128906 69.559998 
1331.841797 71.026161 
1358.326904 103.061272 
1368.886841 71.680557 
1373.984985 108.3153 
1384.931396 108.491379 
1425.424316 85.656815 
1448.407837 77.223686 
1473.614746 98.115562 
1483.626831 75.307205 
1486.553955 113.160088 
1497.052124 80.089996 
1510.521606 75.727272 
1548.343262 68.066666 
1564.472656 90.001808 
1594.370728 92.680557 
1605.366821 91.019066 
1615.019165 74.964287 
1653.663086 111.047417 
1666.098877 71.53186 
1668.710083 211.822372 
1683.987671 63.778847 
1689.150757 69.556816 
1696.564819 72.291664 
END IONS

BEGIN IONS
RTINSECONDS=461.134003
CHARGE=1-
MSLEVEL=2
SMILES=O=C1Oc2c(c(CC(=O)CCCCC)c(C(=O)O)c(O)c2)Oc2c1c(cc(c2)O)CC(=O)CCCCC
INCHI=InChI=1S/C28H32O9/c1-3-5-7-9-17(29)11-16-12-19(31)14-22-24(16)28(35)37-23-15-21(32)25(27(33)34)20(26(23)36-22)13-18(30)10-8-6-4-2/h12,14-15,31-32H,3-11,13H2,1-2H3,(H,33,34)
INCHIKEY=ZDIOCINAHISORH-UHFFFAOYSA-N
CLASS=Depsidones
ADDUCT=[2M-H]-
INSTRUMENT=Agilent Q-ToF 6530
PRECURSOR_MZ=1023.4014
COMPOUND_NAME=Alpha-Alectoronic acid
ION_MODE=negative
FORMULA=C28H32O9
106.525002 92.571426 
107.132324 164.066177 
123.045105 144.601669 
149.02034 213.202332 
163.033417 131.266129 
173.057343 173.07753 
219.10054 877.495972 
220.099991 617.213989 
247.094711 3404.07251 
248.096085 1413.434082 
249.095398 304.885925 
271.051788 266.008331 
301.139771 678.208069 
325.14212 805.10376 
368.119537 1573.114014 
369.127045 8282.014648 
370.130096 6730.986328 
371.134735 901.927429 
423.209534 3537.270508 
425.191589 5755.538574 
426.192017 5190.62793 
467.198456 74601.164062 
468.201996 80707.617188 
469.20462 17168.976562 
511.188019 249368.515625 
512.191528 294530.03125 
513.19342 72700.601562 
587.641113 82.165321 
616.452454 165.429764 
620.214233 108.028572 
625.841797 97.321808 
679.200073 72.185608 
680.977356 87.720589 
691.354797 89.556816 
698.722595 78.893517 
700.852234 96.520271 
721.555298 83.224998 
744.297607 108.00219 
760.721863 165.927475 
764.753967 66.529411 
773.916748 91.565216 
794.125183 84.574997 
815.747314 83.25 
824.235107 93.047623 
831.186157 67.625 
846.900513 90.086861 
865.191223 105.98349 
889.166321 105.592102 
914.697754 84.455643 
919.937988 68.265625 
922.961487 76.100609 
937.406067 85.778061 
957.908875 97.612503 
1100.846436 51.666668 
1112.566284 163.71875 
1118.706055 49.388889 
1140.427734 137.355392 
1155.830444 49.272728 
1163.806763 60.595589 
1172.913574 48.224998 
1190.466553 49.142857 
1205.875488 87.11364 
1210.227539 48.026161 
1227.869385 46.18182 
1229.766113 97.571426 
1233.553711 46.246952 
1311.149658 59.226852 
1319.027832 90.165817 
1336.884888 102.236839 
1360.609741 81.063774 
1373.918945 80.19104 
1383.216919 84.160713 
1406.340576 119.633774 
1417.971191 113.23156 
1443.80957 122.63269 
1446.88501 88.841217 
1471.491943 162.160095 
1476.547119 95.654068 
1500.021973 77.125 
1513.757446 79.360291 
1565.324707 75.084457 
1569.4552 118.63636 
1579.865234 200.277023 
1591.048462 78.939514 
1625.528564 117.573982 
1628.178223 55.449074 
1631.376587 108.801666 
1680.443848 60.04348 
1680.94043 69.017311 
END IONS

BEGIN IONS
RTINSECONDS=450.291992
CHARGE=1-
MSLEVEL=2
SMILES=Cc1c(c(C(=O)C)c(c2c1OC1=CC(=C(C(=O)C21C)C(=O)C)O)O)O
INCHI=InChI=1S/C18H16O7/c1-6-14(22)12(8(3)20)15(23)13-16(6)25-10-5-9(21)11(7(2)19)17(24)18(10,13)4/h5,21-23H,1-4H3
INCHIKEY=GRIDHCOCFJSWSY-UHFFFAOYSA-N
CLASS=Dibenzofuranes
ADDUCT=[2M-2H+Na]-
INSTRUMENT=Agilent Q-ToF 6530
PRECURSOR_MZ=709.1533
COMPOUND_NAME=Isousnic acid
ION_MODE=negative
FORMULA=C18H16O7
101.149658 111.103813 
113.040413 85.454544 
155.935776 121.508926 
187.069626 126.028847 
231.062454 1930.04248 
232.065887 1022.579285 
233.072876 294.214905 
259.057434 5201.651367 
260.060394 3190.830322 
328.052887 59500.421875 
329.05603 47092.925781 
330.057129 7937.441895 
343.075745 123910.226562 
344.07901 111419.40625 
345.080933 16498.064453 
432.481323 99.28125 
455.464111 84.041664 
458.709015 67.941177 
469.986176 90.0 
472.165649 68.136108 
511.606018 88.240082 
525.607666 70.4879 
531.184326 71.959999 
538.133728 95.240387 
571.397766 70.445656 
596.316467 89.408333 
609.70459 89.408897 
629.853394 96.011902 
631.907043 97.63269 
635.358154 126.35601 
774.627441 74.698273 
782.869385 185.180557 
791.528748 79.828575 
803.895325 100.307205 
807.110229 75.29657 
811.323486 94.693962 
866.920654 53.625 
872.501587 214.561996 
878.634705 46.066666 
886.646912 87.18409 
901.097412 107.53125 
905.677002 80.0 
967.05365 81.125 
967.340027 81.545456 
969.105469 113.015846 
981.778015 75.45153 
987.836548 87.097824 
1024.127319 99.945312 
1038.264893 66.235291 
1059.873657 107.960106 
1075.713257 74.692307 
1117.814331 66.223686 
1123.09082 82.571426 
1136.794556 79.670456 
1157.557739 124.595337 
1170.573242 82.458336 
1187.077515 133.321808 
1206.006348 84.764832 
1224.126709 82.510414 
1224.553467 102.10714 
1254.174316 89.083336 
1260.917114 90.764832 
1298.845581 67.349136 
1316.236938 87.003204 
1333.488403 110.986938 
1350.290894 70.889999 
1359.981812 150.06897 
1369.314697 72.818184 
1371.222412 70.592102 
1381.102173 101.05896 
1434.86499 39.75 
1437.36792 131.34964 
1460.368896 46.059212 
1482.573486 85.151123 
1504.874512 59.55682 
1530.184692 64.160713 
1541.632446 91.019737 
1546.167358 60.119186 
1557.893799 62.454544 
1558.651733 67.011902 
1570.232056 61.720589 
1610.89624 96.007355 
1625.731934 72.778847 
1631.315186 103.612289 
1638.986572 84.881096 
1657.745605 59.44643 
1663.390137 67.25 
1689.490479 43.674999 
1698.622314 54.333332 
END IONS

BEGIN IONS
RTINSECONDS=331.45401
CHARGE=1-
MSLEVEL=2
SMILES=O=C(OC)/C(=C\1/OC(=O)C(=C1O)c1ccccc1)/c1c(OC)cccc1
INCHI=InChI=1S/C20H16O6/c1-24-14-11-7-6-10-13(14)16(19(22)25-2)18-17(21)15(20(23)26-18)12-8-4-3-5-9-12/h3-11,21H,1-2H3/b18-16+
INCHIKEY=IWYVMUDIEOXASM-FBMGVBCBSA-N
CLASS=Pulvinic Acid Derivatives
ADDUCT=[M-H+CH3OH]-
INSTRUMENT=Agilent Q-ToF 6530
PRECURSOR_MZ=383.1131
COMPOUND_NAME=Leprapinic acid
ION_MODE=negative
FORMULA=C20H16O6
101.038635 907.741577 
117.03389 17619.720703 
118.036522 2197.591309 
132.019836 1212.197266 
149.059692 7957.255371 
150.063049 1007.195801 
179.070938 695.511169 
193.064636 756.555603 
231.083405 1313.685059 
263.109253 1375.236938 
291.065125 1507.945068 
292.073883 1677.129395 
307.096344 6471.006348 
308.099701 1673.116821 
351.088867 1011.816833 
439.648071 50.666668 
443.321136 91.33654 
448.573761 82.346153 
456.016876 52.115742 
498.225891 109.367424 
503.346863 43.799999 
514.080444 59.599998 
534.283386 102.001984 
555.433777 117.111366 
566.514893 60.206635 
569.408325 107.801666 
580.502808 103.141304 
626.03656 63.235294 
650.423157 64.720589 
661.147034 51.375 
704.071533 112.285446 
712.643372 64.027779 
719.416809 82.920921 
724.091003 57.166668 
725.47113 68.083336 
769.408752 153.769226 
779.921021 82.698273 
807.309998 41.204544 
831.375549 35.222828 
839.943909 91.125 
841.447693 41.076923 
868.317078 50.367424 
870.959656 43.133064 
900.498962 49.0 
901.615479 39.0 
905.425232 53.41346 
928.681946 40.013889 
963.827271 45.164474 
993.423584 44.55682 
999.545654 91.491379 
1005.383484 63.094696 
1038.354126 56.625 
1054.747803 52.875 
1066.54187 82.510414 
1066.995117 80.290001 
1080.915649 54.003048 
1118.267456 45.349136 
1138.28186 87.695511 
1146.56604 57.969826 
1154.161011 115.003784 
1191.388184 85.89286 
1217.322998 46.30682 
1217.801636 50.038792 
1265.900391 113.01786 
1270.855835 150.780487 
1291.441772 110.555725 
1310.59021 85.875 
1329.30249 60.041668 
1353.218872 64.014709 
1368.729248 50.30682 
1380.325684 112.008926 
1384.387695 89.307693 
1403.44397 41.160713 
1425.743652 109.641029 
1428.042847 35.778847 
1460.162964 63.041668 
1484.994263 65.069443 
1489.77002 124.020454 
1508.351807 100.25 
1525.72998 190.173615 
1534.68396 82.907257 
1537.861938 99.925003 
1571.793335 60.125 
1578.726196 74.020454 
1597.269897 154.777985 
1609.605957 58.598404 
1625.663818 42.142857 
1626.786011 90.578949 
1678.31958 30.004999 
1681.581665 51.28125 
1689.471313 21.035715 
1689.548706 25.28125 
1693.335327 20.0 
END IONS

BEGIN IONS
RTINSECONDS=314.454987
CHARGE=1-
MSLEVEL=2
SMILES=O=C1Oc2c(c(C)c(C(=O)O)c(O)c2COC)Oc2c(C=O)c(O)cc(C)c12
INCHI=InChI=1S/C19H16O9/c1-7-4-11(21)9(5-20)16-12(7)19(25)28-17-10(6-26-3)14(22)13(18(23)24)8(2)15(17)27-16/h4-5,21-22H,6H2,1-3H3,(H,23,24)
INCHIKEY=IJJZZLYYFYYEHT-UHFFFAOYSA-N
CLASS=Depsidones
ADDUCT=[M-H+CH3OH]-
INSTRUMENT=Agilent Q-ToF 6530
PRECURSOR_MZ=419.0978
COMPOUND_NAME=9'-methylprotocetraric acid
ION_MODE=negative
FORMULA=C19H16O9
105.034248 5141.052734 
135.043976 4053.440918 
149.02388 13752.941406 
151.03952 4334.373047 
165.055481 8292.151367 
207.029541 5379.779297 
209.047409 6410.891602 
239.07048 13481.286133 
267.065277 22375.199219 
268.068146 5638.585938 
283.059723 11833.505859 
311.055023 18201.447266 
312.058411 6364.840332 
343.081085 8767.371094 
387.070984 159254.5625 
388.074768 53096.363281 
389.075287 6356.523438 
483.212402 86.440002 
489.28299 75.440475 
509.556122 62.52174 
530.328064 72.85714 
534.921997 95.041664 
552.430664 103.125 
561.877808 73.760414 
582.095276 93.494865 
594.820801 114.25 
599.050781 82.840118 
618.362915 85.845001 
637.067078 256.163635 
653.924988 94.384094 
657.859253 136.53125 
694.642212 91.032143 
717.881287 95.3153 
725.458252 83.560188 
730.851013 104.285446 
732.373352 144.648529 
740.11676 68.284088 
793.414001 96.260414 
795.105652 64.166664 
820.267944 98.551468 
825.053955 98.14286 
838.210571 72.816864 
842.920044 87.0 
904.657166 99.01844 
914.327209 97.14286 
921.333069 128.177948 
921.520081 126.041664 
936.275208 109.0 
941.512207 140.605194 
986.522949 107.905487 
998.688782 184.113632 
1018.644531 81.199997 
1025.70459 59.005001 
1027.171021 113.814812 
1032.380981 74.791664 
1087.427002 106.445312 
1102.700806 81.351746 
1129.589355 103.714287 
1130.19873 75.387817 
1136.555298 96.716835 
1140.825806 77.680557 
1184.384399 88.324997 
1192.274292 79.185608 
1232.649414 105.107758 
1239.552124 45.272728 
1254.02124 79.118423 
1269.502686 53.901318 
1291.758301 58.219593 
1315.38269 51.414215 
1321.931274 71.012497 
1335.209351 84.556816 
1344.493286 48.737244 
1399.30896 90.889282 
1415.554688 72.391129 
1426.120483 94.076218 
1432.293335 73.79348 
1447.992188 76.351746 
1455.958862 64.066666 
1471.848755 74.625 
1495.293823 63.111843 
1506.816162 157.330704 
1530.234619 60.888889 
1561.551025 53.125 
1562.650513 75.471153 
1569.965332 82.639999 
1581.57959 63.960526 
1583.234741 77.5 
1620.905273 71.685974 
1643.817871 75.066177 
1655.189697 82.714287 
1668.107666 67.375 
1680.043823 131.213242 
1689.357178 79.960106 
END IONS

BEGIN IONS
RTINSECONDS=582.447998
CHARGE=1-
MSLEVEL=2
SMILES=c1ccc(cc1)C1=C(C(=C2c3ccccc3OC2=O)OC1=O)O
INCHI=InChI=1S/C18H10O5/c19-15-13(10-6-2-1-3-7-10)17(20)23-16(15)14-11-8-4-5-9-12(11)22-18(14)21/h1-9,19H
INCHIKEY=CGRCGRBHNKRILW-UHFFFAOYSA-N
CLASS=Pulvinic Acid Derivatives
ADDUCT=[M-H+CH3OH]-
INSTRUMENT=Agilent Q-ToF 6530
PRECURSOR_MZ=337.0712
COMPOUND_NAME=Calycin
ION_MODE=negative
FORMULA=C18H10O5
117.03418 65268.921875 
118.037361 6252.338867 
125.038971 16337.351562 
133.029205 70846.210938 
134.032501 6796.553711 
149.060349 11046.025391 
177.070084 13458.320312 
205.065369 29165.755859 
206.071014 9870.9375 
233.06012 238704.234375 
234.063583 46724.925781 
250.064011 5128.676758 
278.057098 6411.555664 
305.044403 29820.453125 
306.047913 6974.152344 
436.983978 200.560608 
453.960541 132.388153 
456.701569 178.983414 
468.485565 119.922752 
502.20636 116.691902 
502.455231 102.240387 
518.052429 81.695511 
527.19928 204.007141 
540.139526 72.669441 
579.077881 149.093018 
595.289612 101.130432 
605.705078 114.045288 
614.842285 98.3125 
645.596924 164.173843 
647.839783 167.380951 
676.558777 255.437912 
691.025574 118.361115 
701.819519 104.778572 
709.809937 109.29657 
723.871277 144.467468 
762.733704 105.6129 
787.840576 118.125 
797.934326 149.805328 
803.304993 95.970589 
815.282593 154.675674 
841.992065 93.449997 
870.749329 93.227272 
872.741028 90.260872 
899.799927 137.372192 
903.884888 113.551727 
916.654846 93.360291 
932.838257 103.115387 
940.827637 93.321808 
1008.350708 93.223213 
1009.535767 74.107452 
1024.139771 130.028564 
1053.881592 109.905487 
1060.060669 115.133331 
1066.700073 105.4375 
1069.501831 132.2258 
1075.026978 121.270271 
1118.087524 120.76136 
1128.375488 161.044998 
1134.223389 110.248291 
1150.45874 111.368423 
1166.793457 100.081665 
1193.730225 92.555771 
1215.13855 83.595589 
1224.328491 117.142609 
1227.837036 90.045212 
1230.805664 95.77594 
1277.788086 122.016304 
1282.407715 92.0625 
1287.124878 97.462837 
1291.484985 68.041664 
1334.193359 86.89286 
1343.564941 104.723358 
1366.211914 96.275002 
1384.286377 76.461067 
1401.47229 153.455887 
1417.471313 113.175003 
1419.663574 76.125 
1420.791504 85.001984 
1439.054077 78.428574 
1474.403076 79.118423 
1475.979736 61.080128 
1497.991577 98.223686 
1516.811401 71.063774 
1528.495972 93.654068 
1539.973877 103.284088 
1568.05835 73.769234 
1586.911499 147.347229 
1587.390381 154.020004 
1614.474243 164.40741 
1625.873047 108.444443 
1637.067017 129.840912 
1651.364624 128.25 
1668.307129 85.125 
1668.524658 97.006943 
1680.818359 77.160713 
END IONS

BEGIN IONS
RTINSECONDS=273.329987
CHARGE=1-
MSLEVEL=2
SMILES=O=C1OCc2c1c(cc1c2c2c(C)cc(O)cc2o1)O
INCHI=InChI=1S/C15H10O5/c1-6-2-7(16)3-10-12(6)14-8-5-19-15(18)13(8)9(17)4-11(14)20-10/h2-4,16-17H,5H2,1H3
INCHIKEY=OOXFLIUVCWLPKE-UHFFFAOYSA-N
CLASS=Dibenzofuranes
ADDUCT=[2M-H]-
INSTRUMENT=Agilent Q-ToF 6530
PRECURSOR_MZ=539.0978
COMPOUND_NAME=Strepsilin
ION_MODE=negative
FORMULA=C15H10O5
141.070007 1263.842285 
169.063934 3816.357422 
197.057877 48252.097656 
198.060944 16144.333984 
225.051804 72611.28125 
226.05545 28009.365234 
269.041107 343094.5 
270.04425 161253.3125 
271.046295 17574.021484 
334.140625 72.003204 
351.01535 205.686981 
352.022125 660.480774 
353.022308 179.796051 
380.01593 140.010422 
407.246582 99.25798 
413.095062 135.149597 
434.383881 82.058823 
444.99881 169.778564 
446.012726 154.052628 
447.004059 168.59259 
555.389282 129.001343 
594.135681 91.598686 
617.837036 89.119186 
637.700317 96.094696 
638.430603 89.367424 
655.546265 116.506248 
661.713928 155.867264 
679.993652 79.598686 
680.646973 96.387932 
696.034973 78.387817 
740.724243 76.719337 
740.941101 115.778847 
746.646667 124.300003 
749.781311 104.579224 
775.09906 70.681816 
802.133179 85.573982 
851.703552 87.25 
859.985718 101.532898 
860.080078 72.157051 
863.880981 119.680557 
877.797852 90.368904 
915.464355 84.111366 
926.368286 65.047623 
938.015686 110.125 
938.488281 61.120369 
970.789734 67.875 
1005.615723 103.198769 
1006.064941 142.165695 
1009.273682 127.061272 
1011.193176 89.120369 
1028.393066 72.083336 
1067.014648 106.703949 
1079.508789 64.120094 
1081.295166 90.246948 
1097.646118 111.290321 
1103.678833 85.440475 
1146.099731 86.146736 
1159.008301 120.325584 
1170.791748 105.809998 
1174.394531 75.875 
1206.926514 77.736115 
1247.141479 114.406647 
1253.091797 152.001343 
1254.653076 90.045288 
1259.960327 96.008926 
1263.273682 96.224998 
1301.286377 89.645546 
1331.972656 62.245689 
1351.432007 102.714287 
1370.089478 74.289284 
1376.010864 61.875 
1408.770264 69.390625 
1428.816162 70.002907 
1448.89209 71.432144 
1462.516602 61.779411 
1464.410156 142.086273 
1469.0 90.840912 
1498.171143 93.480072 
1523.337524 96.564812 
1535.122803 94.480637 
1542.916748 75.01136 
1543.203003 96.800003 
1585.521118 66.130318 
1598.340576 90.695312 
1622.393066 76.720589 
1641.300537 74.489868 
1642.343506 112.716835 
1653.791138 98.699997 
1655.776611 86.941177 
1680.490234 58.666668 
1693.808228 55.5 
END IONS

BEGIN IONS
RTINSECONDS=405.747986
CHARGE=1-
MSLEVEL=2
SMILES=O=C(OC)/C(=C\1/OC(=O)C(=C1O)c1ccccc1)/c1c(OC)cccc1
INCHI=InChI=1S/C20H16O6/c1-24-14-11-7-6-10-13(14)16(19(22)25-2)18-17(21)15(20(23)26-18)12-8-4-3-5-9-12/h3-11,21H,1-2H3/b18-16+
INCHIKEY=IWYVMUDIEOXASM-FBMGVBCBSA-N
CLASS=Pulvinic Acid Derivatives
ADDUCT=[2M-2H+Na]-
INSTRUMENT=Agilent Q-ToF 6530
PRECURSOR_MZ=725.1635
COMPOUND_NAME=Leprapinic acid
ION_MODE=negative
FORMULA=C20H16O6
101.039734 1093.302002 
117.034767 465.883392 
118.037537 310.0 
132.021057 245.840057 
147.044922 301.252747 
191.034409 788.528198 
231.082291 2089.099365 
232.083298 1653.223389 
279.102509 10328.12207 
280.105499 7778.110352 
292.07373 5743.432129 
293.07605 4330.363281 
351.087372 90915.320312 
352.090546 96223.367188 
353.092865 15475.112305 
354.096039 1526.509399 
408.067535 89.761902 
416.565308 80.882355 
432.486572 80.175003 
443.957794 84.431122 
469.127197 71.355392 
488.084106 66.24662 
489.170166 85.385635 
504.410767 62.241379 
533.081055 136.355392 
547.950745 134.28006 
557.637146 114.462837 
578.760986 86.51136 
591.772461 93.002777 
600.366211 77.115738 
634.922607 203.367432 
672.050049 83.3125 
804.981262 77.107758 
820.161682 113.285713 
822.542358 138.49324 
848.266602 105.209908 
873.656982 106.240082 
890.320557 172.805557 
905.359131 68.574997 
920.752319 157.155212 
947.887695 77.791664 
957.538574 71.0 
963.242615 62.00338 
967.313843 75.14286 
1019.804016 62.133064 
1019.945984 54.75 
1058.335083 54.222828 
1065.70459 78.133064 
1088.279053 54.560184 
1114.418823 73.050003 
1145.405884 53.090908 
1174.425293 105.01786 
1175.101807 83.049416 
1206.97876 115.414215 
1207.689087 111.240082 
1213.647339 91.272728 
1271.442993 109.375 
1284.635376 106.58036 
1292.658325 77.009262 
1294.417725 78.598404 
1330.231323 86.086861 
1345.394287 76.909088 
1360.30127 112.088768 
1376.12207 45.485294 
1398.090088 75.516129 
1428.594238 67.680557 
1432.555298 58.570652 
1437.703735 99.01844 
1448.70752 143.399994 
1461.293213 64.071426 
1500.066406 96.014709 
1508.577393 59.166668 
1533.884644 128.925919 
1534.263672 57.013889 
1559.072998 56.285713 
1572.04126 113.490387 
1581.148315 107.173782 
1600.550049 65.30867 
1621.13501 88.0 
1622.458984 71.026161 
1651.012329 99.960106 
1654.252441 71.920456 
1666.586304 88.025002 
1690.996094 62.055557 
1692.905029 101.209908 
END IONS

BEGIN IONS
RTINSECONDS=435.865997
CHARGE=1-
MSLEVEL=2
SMILES=O=C1c2c(CC(=O)CCCCC)cc(O)cc2Oc2c(O1)cc(c(c2CCCCC)C(=O)O)O
INCHI=InChI=1S/C26H30O8/c1-3-5-7-9-16(27)11-15-12-17(28)13-20-22(15)26(32)34-21-14-19(29)23(25(30)31)18(24(21)33-20)10-8-6-4-2/h12-14,28-29H,3-11H2,1-2H3,(H,30,31)
INCHIKEY=KVTYWHGIZSCFLG-UHFFFAOYSA-N
CLASS=Depsidones
ADDUCT=[2M-H]-
INSTRUMENT=Agilent Q-ToF 6530
PRECURSOR_MZ=939.3803
COMPOUND_NAME=Physodic acid
ION_MODE=negative
FORMULA=C26H30O8
123.043587 271.595581 
133.101257 1148.983398 
134.102844 300.680542 
149.023499 1263.793579 
226.060425 1281.016724 
247.092697 4443.175781 
248.096573 1409.432007 
283.128632 8082.268555 
284.131989 5620.736816 
310.116455 6017.591797 
324.13089 3554.516113 
327.118469 3447.474365 
381.198822 59484.914062 
382.202576 51917.339844 
383.180634 77448.0 
384.182739 67427.585938 
425.188538 235414.046875 
426.192139 240699.703125 
469.178223 907046.1875 
470.181763 1037622.5 
471.183502 228421.4375 
555.858093 117.449471 
576.935486 127.0 
585.689209 114.247643 
591.971497 113.125 
629.902649 117.071426 
640.368896 143.678574 
665.794434 166.173615 
667.942139 134.6465 
673.230103 164.242645 
732.16864 118.563354 
749.085083 172.799316 
749.194641 109.900864 
756.671387 136.967102 
766.171997 129.035721 
795.44812 113.446426 
808.279541 126.408783 
857.205688 115.877663 
858.948608 136.199997 
859.736755 98.533333 
873.36322 116.049606 
886.007019 115.0 
1002.627441 140.360001 
1014.845947 87.051231 
1026.478638 115.197578 
1065.309204 140.26651 
1078.363525 156.11557 
1089.223267 101.900002 
1105.093628 148.0 
1123.140381 118.01136 
1124.924194 107.737244 
1142.616333 117.102272 
1156.729126 113.421051 
1172.622925 105.729729 
1173.84314 99.215515 
1216.781982 113.310349 
1244.957153 95.230766 
1248.1521 83.805 
1266.760376 119.695511 
1275.246582 115.245689 
1275.68396 111.685974 
1316.247803 110.06649 
1316.275146 119.778847 
1317.045898 79.118423 
1332.387451 76.259613 
1344.470093 119.625 
1419.275635 80.578949 
1454.423462 143.6875 
1456.944824 114.028572 
1464.672974 116.002449 
1473.757324 147.313721 
1484.648682 137.199997 
1494.7146 130.25 
1516.896851 87.681816 
1538.827881 66.532608 
1542.380005 128.583328 
1556.214722 73.625 
1584.042969 110.0 
1591.779053 115.53186 
1622.526978 76.889153 
1627.113037 198.204544 
1681.070557 84.409088 
1688.801392 62.888889 
1691.341553 110.71196 
1691.429443 116.0 
END IONS

BEGIN IONS
RTINSECONDS=339.868988
CHARGE=1-
MSLEVEL=2
SMILES=Cc1c(C(=O)OC)c(OC)cc2c1c1c(cc(c(C(=O)O)c1o2)C)OC
INCHI=InChI=1S/C19H18O7/c1-8-6-10(23-3)16-14-9(2)15(19(22)25-5)11(24-4)7-12(14)26-17(16)13(8)18(20)21/h6-7H,1-5H3,(H,20,21)
INCHIKEY=WBIQYHZEYQDKCL-UHFFFAOYSA-N
CLASS=Dibenzofuranes
ADDUCT=[2M-H]-
INSTRUMENT=Agilent Q-ToF 6530
PRECURSOR_MZ=715.2027
COMPOUND_NAME=Schizopeltic acid
ION_MODE=negative
FORMULA=C19H18O7
101.674561 191.004623 
105.381294 114.049606 
116.450111 112.310349 
116.807953 113.737244 
134.164688 133.833328 
188.033615 129.24324 
195.043564 139.006577 
197.047714 98.112503 
224.040634 140.375 
283.054535 5748.860352 
298.078735 19693.052734 
299.082245 12912.424805 
313.101776 98852.921875 
314.105103 73705.484375 
357.090363 98675.273438 
358.093689 89959.742188 
359.095917 14864.334961 
424.68692 98.320122 
462.175171 70.375 
480.51709 99.355392 
502.573792 216.254547 
506.815491 97.493423 
517.852051 149.022964 
527.295532 88.926285 
530.79187 85.539177 
531.016357 84.346153 
583.72052 111.28167 
591.400146 107.818184 
604.486328 122.775536 
612.052246 98.133331 
621.60614 96.0 
637.303223 109.680557 
763.305481 104.257812 
777.764404 140.666672 
829.289795 52.266304 
832.130249 91.083336 
837.91925 63.81818 
839.51886 56.840115 
858.007263 77.456818 
861.406555 74.785713 
889.887817 50.0 
910.959351 49.333332 
925.089783 42.289288 
926.0271 44.339287 
943.134949 61.387821 
963.2229 84.037041 
984.205383 57.599998 
1008.521301 52.969826 
1029.228271 72.002548 
1032.323608 78.0 
1035.01062 61.047619 
1077.230469 94.758621 
1077.373169 62.235294 
1107.325195 74.13636 
1118.229248 75.022728 
1142.972046 56.532894 
1156.424316 54.720238 
1166.441895 80.265625 
1195.473022 70.004311 
1215.30481 73.449997 
1248.365479 70.009613 
1279.689209 131.162628 
1283.017334 105.236839 
1288.548584 86.604454 
1304.034302 79.333336 
1348.497559 76.041664 
1349.347168 53.654068 
1354.630249 62.052631 
1383.447632 65.769234 
1412.760742 99.555855 
1432.533081 48.56818 
1439.427368 96.68145 
1441.237061 67.349998 
1455.163818 43.470589 
1480.471191 40.205002 
1484.944824 81.11364 
1534.454468 70.321426 
1543.516724 58.375 
1560.411255 50.080128 
1567.578003 73.41346 
1571.979736 76.375 
1574.44519 70.449997 
1627.447876 86.349487 
1636.674438 60.469444 
1643.379639 67.333336 
1651.544312 47.066666 
1662.744507 50.375 
1670.511719 135.133331 
1680.057983 46.142857 
END IONS

BEGIN IONS
RTINSECONDS=405.744995
CHARGE=1-
MSLEVEL=2
SMILES=CC(=O)CCCCCCCCCCCCC[C@H]1OC(=O)C(=C1C(=O)O)C
INCHI=InChI=1S/C21H34O5/c1-16(22)14-12-10-8-6-4-3-5-7-9-11-13-15-18-19(20(23)24)17(2)21(25)26-18/h18H,3-15H2,1-2H3,(H,23,24)/t18-/m1/s1
INCHIKEY=KYSXDEQQOVVLIN-GOSISDBHSA-N
CLASS=Paraconic acids
ADDUCT=[2M-H]-
INSTRUMENT=Agilent Q-ToF 6530
PRECURSOR_MZ=731.4734
COMPOUND_NAME=Isomuronic acid
ION_MODE=negative
FORMULA=C21H34O5
109.066551 955.370056 
113.026619 196.5 
123.08284 643.498291 
155.143036 1075.388184 
169.16008 11077.714844 
170.163773 5379.512695 
183.175613 5209.383789 
184.178635 2080.574219 
207.211914 3085.57666 
208.215515 2605.528809 
223.206223 1574.571167 
261.223846 1463.590454 
277.255096 713267.0 
278.258423 632309.5 
279.261078 65127.996094 
321.244965 245598.203125 
365.235657 2050202.375 
366.239197 2201242.0 
367.241608 331195.65625 
438.273041 167.763885 
450.793396 141.024384 
467.192322 143.035721 
481.462677 123.184212 
490.385834 123.889709 
517.092773 167.819214 
525.630066 110.097565 
598.202087 82.0 
598.815308 86.400002 
608.318115 105.025002 
611.259033 194.521744 
630.587463 87.917374 
642.579956 107.01136 
649.194092 126.483025 
668.097351 66.097824 
673.428528 88.094696 
685.228027 217.372803 
753.236206 81.111366 
767.350281 119.63269 
804.977051 139.60556 
806.533752 86.01786 
850.942688 83.809998 
854.89801 115.884804 
874.983521 80.195312 
881.482544 80.222458 
891.612183 96.361115 
895.589172 83.002274 
961.756592 95.011902 
963.935486 128.010422 
982.902893 165.735001 
995.840698 112.30616 
1002.150818 132.796051 
1008.498108 131.285446 
1020.930847 128.083328 
1085.329468 159.578568 
1089.185425 191.88942 
1099.64917 135.04808 
1102.007935 108.444771 
1120.24585 94.333336 
1163.237671 98.391304 
1182.527588 82.071426 
1187.520996 55.149391 
1189.235229 111.570656 
1202.623779 93.022957 
1214.640747 70.125 
1240.4375 114.240082 
1245.5 40.125 
1248.590698 40.125 
1249.583252 37.361111 
1300.94104 80.669121 
1309.586914 116.63636 
1311.005737 73.390625 
1341.830811 92.033333 
1343.478516 87.191177 
1357.476562 97.265625 
1364.230591 101.833336 
1419.364136 80.236702 
1431.697998 115.242645 
1455.252075 135.081665 
1464.022339 144.893066 
1473.588501 66.349136 
1486.543457 80.01136 
1498.745239 44.004631 
1519.272949 57.6875 
1560.209839 45.266304 
1561.845337 55.222828 
1568.628174 73.656815 
1570.354248 121.347221 
1582.779175 111.476692 
1621.330322 72.960526 
1655.975342 189.760559 
1664.969727 24.066668 
1669.241821 190.444443 
1672.674438 24.560184 
1678.696899 23.728449 
1686.080811 28.568182 
END IONS

BEGIN IONS
RTINSECONDS=350.518005
CHARGE=1-
MSLEVEL=2
SMILES=CC[C@@H](C)[C@H](NC(=O)c1ccccc1)C(=O)OC[C@@H](NC(=O)c1ccccc1)C(C)C
INCHI=InChI=1S/C25H32N2O4/c1-5-18(4)22(27-24(29)20-14-10-7-11-15-20)25(30)31-16-21(17(2)3)26-23(28)19-12-8-6-9-13-19/h6-15,17-18,21-22H,5,16H2,1-4H3,(H,26,28)(H,27,29)/t18-,21-,22+/m1/s1
INCHIKEY=YYJRAGPDSYXARF-QIJUGHKUSA-N
CLASS=N-Containing Compounds
ADDUCT=[M-H+HCOOH]-
INSTRUMENT=Agilent Q-ToF 6530
PRECURSOR_MZ=469.2339
COMPOUND_NAME=Arthonin
ION_MODE=negative
FORMULA=C25H32N2O4
112.983223 80.63636 
119.672516 96.360291 
120.044418 199.002457 
130.045944 257.079102 
190.123108 28378.429688 
206.117935 44395.097656 
234.113174 1906511.875 
234.249008 107388.359375 
235.116302 455707.03125 
236.118256 34282.0 
290.904114 252.778412 
324.866791 1065.240234 
326.864655 540.721985 
334.896942 1550.408203 
344.419678 171.284088 
356.942505 147.160004 
402.883423 632.22229 
423.228271 1224850.125 
424.231384 672005.625 
425.233337 90971.804688 
524.604492 105.089996 
550.216492 83.83696 
554.513916 61.520832 
587.838806 133.735001 
609.248352 52.722221 
610.899048 139.406647 
627.750854 106.578949 
640.856873 53.512501 
650.323853 60.512501 
663.499695 59.671295 
671.537415 90.757576 
727.579346 155.007812 
731.857422 100.36364 
745.490784 92.235291 
758.171326 90.764832 
772.629578 101.900864 
795.461548 83.714287 
815.141113 232.290329 
842.249817 170.3992 
848.054749 145.449631 
853.91156 57.339287 
863.333191 58.0 
878.820129 133.61731 
917.414917 112.446426 
924.285767 58.027779 
929.242188 65.445656 
950.054565 66.08696 
969.812805 58.892857 
992.400452 112.612503 
999.55127 62.003204 
1020.590393 56.224998 
1050.364502 95.25 
1061.811279 75.640152 
1061.841064 86.08036 
1074.579224 142.084015 
1078.019287 144.740936 
1128.94165 66.080132 
1129.478027 68.449074 
1134.849243 41.89352 
1138.215332 54.211208 
1143.867798 62.852272 
1169.624634 89.555855 
1194.878784 104.102272 
1200.141113 97.160713 
1216.646362 75.333336 
1233.522827 71.666664 
1246.147705 70.08696 
1260.594116 142.574326 
1266.651123 82.07692 
1301.29895 67.125 
1329.806641 173.120407 
1334.947388 61.174999 
1337.403687 90.6129 
1341.304443 58.900002 
1351.823242 70.841217 
1393.879395 73.654068 
1399.826904 135.25 
1406.085083 61.657608 
1435.671509 79.800003 
1439.339355 148.382812 
1441.675781 58.765625 
1493.841431 97.83696 
1496.324951 163.120193 
1499.87854 266.308167 
1502.472656 74.68145 
1530.398438 69.802635 
1581.203003 85.923912 
1592.073608 82.53186 
1593.27002 75.142242 
1600.086914 73.247948 
1637.225342 77.431122 
1655.339233 110.903168 
1658.316772 48.605 
1667.924316 56.007355 
1675.008789 54.450001 
1687.944214 61.05357 
END IONS

BEGIN IONS
RTINSECONDS=343.096985
CHARGE=1-
MSLEVEL=2
SMILES=O=C1c2c(C)cc(O)c(C)c2Oc2c(O1)c(c(c(c2C)C(=O)O)O)C
INCHI=InChI=1S/C18H16O7/c1-6-5-10(19)7(2)14-11(6)18(23)25-16-9(4)13(20)12(17(21)22)8(3)15(16)24-14/h5,19-20H,1-4H3,(H,21,22)
INCHIKEY=CFPLLTGKDKZLIH-UHFFFAOYSA-N
CLASS=Depsidones
ADDUCT=[2M-H]-
INSTRUMENT=Agilent Q-ToF 6530
PRECURSOR_MZ=687.1714
COMPOUND_NAME=Hypoprotocetraric acid
ION_MODE=negative
FORMULA=C18H16O7
119.049652 5090.560547 
120.053589 1260.05896 
137.061081 4147.753418 
163.039642 10948.708008 
227.106995 17340.193359 
243.065353 26847.814453 
244.068832 15166.107422 
255.102051 273632.71875 
256.105316 178958.109375 
257.107574 19753.994141 
299.091675 68041.789062 
343.082489 879629.875 
344.085907 779202.75 
345.087372 118486.984375 
346.089508 7301.256836 
420.309998 105.694443 
453.963684 103.723213 
457.029999 97.555771 
460.447906 104.925926 
472.268158 83.002274 
523.033813 116.583336 
529.794556 90.202271 
533.788025 96.285713 
543.110291 74.923912 
549.657349 66.625 
576.73291 94.787163 
611.454407 149.017303 
622.187195 78.071426 
642.082397 107.055557 
730.442139 94.027435 
736.814331 106.29657 
747.785889 87.449623 
780.938293 76.46154 
817.041931 75.592102 
828.269287 139.9375 
842.675415 88.336113 
843.85553 69.960526 
856.539734 184.507019 
901.757812 122.001808 
916.053284 125.0 
931.597961 265.375 
942.049988 161.654419 
963.567444 125.274353 
981.529846 178.044571 
991.30011 108.320656 
1014.755798 69.941177 
1028.344727 106.227272 
1058.776978 177.975616 
1080.758545 74.367424 
1082.436523 102.441177 
1087.154053 69.003571 
1098.264282 97.160713 
1106.687622 93.284485 
1152.274658 106.893517 
1163.204224 98.778847 
1189.551636 99.669441 
1190.605225 184.001083 
1211.733521 103.565216 
1240.684448 109.469444 
1281.978516 111.449997 
1287.498291 137.013885 
1296.416626 107.043106 
1324.809326 89.756149 
1358.067505 138.446426 
1377.038208 89.115562 
1382.05249 65.076218 
1383.528931 67.099998 
1394.619751 67.013885 
1453.912476 71.875 
1466.1698 74.004997 
1476.667114 61.961956 
1480.92981 115.963234 
1526.532104 95.0 
1548.162354 102.138702 
1550.265991 103.402779 
1570.915039 146.259613 
1593.735229 90.041664 
1602.982178 91.959999 
1640.280029 115.382355 
1645.577271 157.828568 
1661.52417 222.275757 
1665.686401 80.408333 
1673.913818 76.375 
1682.941528 105.001663 
END IONS

BEGIN IONS
RTINSECONDS=416.622009
CHARGE=1-
MSLEVEL=2
SMILES=Oc1c(C(=O)C)c2OC3(C(C)(C(=O)C(=C(C3)O)C(=O)C)c2c(O)c1C)OC
INCHI=InChI=1S/C19H20O8/c1-7-14(23)12(9(3)21)16-13(15(7)24)18(4)17(25)11(8(2)20)10(22)6-19(18,26-5)27-16/h22-24H,6H2,1-5H3
INCHIKEY=WWSUFZCWOJULTK-UHFFFAOYSA-N
CLASS=Dibenzofuranes
ADDUCT=[2M-2H+Na]-
INSTRUMENT=Agilent Q-ToF 6530
PRECURSOR_MZ=773.2058
COMPOUND_NAME=Pseudoplacodiolic acid
ION_MODE=negative
FORMULA=C19H20O8
109.023621 69.768616 
113.290077 74.25 
123.289734 84.002663 
141.823517 97.297623 
163.630188 144.222458 
175.1642 123.605263 
180.038239 439.733948 
181.039062 158.883469 
231.052338 168.65097 
235.0504 200.152771 
260.051086 366.658234 
291.070679 312.228668 
299.074646 1369.830322 
300.076385 1155.880615 
301.056732 1389.102661 
302.053314 967.342407 
344.052277 2997.800537 
375.073822 37212.984375 
375.100494 19454.775391 
376.076752 34502.636719 
376.103729 16994.818359 
377.079468 6344.904785 
466.998138 89.490387 
476.259583 69.013885 
508.251007 78.441177 
526.77002 62.002193 
538.946045 65.408333 
548.10144 78.210526 
561.445618 64.556816 
579.675415 58.165539 
591.645569 58.455647 
624.329224 76.003784 
631.924744 76.130318 
637.778076 61.002777 
646.775757 59.49128 
657.965515 84.01136 
661.10498 110.473686 
704.651733 137.858337 
710.847107 57.0 
717.171997 61.555557 
843.3125 94.574997 
859.016479 80.032143 
883.400391 58.5 
884.36377 80.787163 
908.450928 116.066177 
933.326233 113.153847 
949.967529 119.257141 
963.059692 86.414215 
970.837769 51.926281 
998.078064 79.848076 
1006.269836 61.115742 
1025.745972 37.339287 
1039.609741 49.841217 
1069.361694 47.244999 
1083.66333 67.160713 
1091.141113 68.025002 
1091.612305 61.612804 
1116.879028 64.045456 
1141.383667 67.654411 
1145.846191 91.51136 
1145.918701 78.32692 
1152.71521 62.612904 
1189.337158 66.786766 
1209.313965 92.454544 
1233.069824 59.939518 
1238.371338 61.083332 
1243.061279 65.297623 
1246.665161 60.164474 
1285.967529 87.25 
1301.87915 57.714287 
1304.839722 83.63636 
1317.452148 45.25 
1329.109619 49.328949 
1350.696167 51.890625 
1377.289062 42.032143 
1385.314209 105.53125 
1391.28125 77.840118 
1402.060669 41.892857 
1424.504395 76.138512 
1427.692017 63.679054 
1452.895386 63.551472 
1475.006714 37.942307 
1493.669434 81.055557 
1516.958618 137.236771 
1528.242432 107.382355 
1548.032593 71.222565 
1551.775757 74.603569 
1584.724487 70.583336 
1587.217773 113.41021 
1601.953369 53.136364 
1642.5625 141.222397 
1651.723267 64.0 
1666.659302 87.367424 
1690.652222 64.140625 
1691.547607 67.315788 
1693.4646 107.002907 
END IONS

BEGIN IONS
RTINSECONDS=469.601013
CHARGE=1-
MSLEVEL=2
SMILES=CCCCCCCCCCCCCC1C(C(=C)C(=O)O1)C(=O)O
INCHI=InChI=1S/C19H32O4/c1-3-4-5-6-7-8-9-10-11-12-13-14-16-17(18(20)21)15(2)19(22)23-16/h16-17H,2-14H2,1H3,(H,20,21)
INCHIKEY=WZYZDHVPSZCEEP-UHFFFAOYSA-N
CLASS=Paraconic acids
ADDUCT=[2M-H]-
INSTRUMENT=Agilent Q-ToF 6530
PRECURSOR_MZ=647.4523
COMPOUND_NAME=Protolichesterinic acid
ION_MODE=negative
FORMULA=C19H32O4
100.355286 178.152771 
109.123535 101.112503 
113.02388 103.111839 
113.053665 95.265625 
133.405853 205.472061 
177.152924 97.6875 
178.056305 183.125 
179.555557 104.149391 
235.241791 42297.648438 
236.24501 31003.425781 
279.232086 773700.125 
280.235413 635988.5 
323.22171 3388140.25 
324.225006 3267214.0 
324.380981 208731.84375 
325.227875 400166.03125 
414.324188 122.445 
416.68692 97.08654 
418.870544 88.011902 
430.851624 192.980774 
431.032257 127.047874 
447.251373 102.880432 
487.004242 108.10714 
488.378021 180.840271 
503.088715 177.163467 
523.245422 179.04245 
534.225708 164.063782 
554.370544 109.941177 
558.602966 179.129028 
594.010071 128.642044 
696.188782 85.04348 
730.559998 73.280174 
736.516724 66.85714 
745.003784 180.044998 
746.985718 93.25 
785.601929 84.859695 
796.516479 61.469444 
800.750549 69.002449 
820.684021 222.485291 
842.075867 169.675003 
884.483521 73.784088 
895.815552 134.485291 
915.453247 68.041664 
924.563354 100.964287 
929.480103 53.100609 
954.407837 74.273651 
961.052734 51.29657 
988.298767 45.5 
1006.586609 43.035713 
1042.410522 133.40834 
1046.38855 51.75 
1068.302856 88.398582 
1073.785767 69.333336 
1074.540405 75.347824 
1083.681641 54.072674 
1128.375977 77.089287 
1146.895508 88.901314 
1188.606079 46.570946 
1203.612305 166.941177 
1210.576294 59.002777 
1218.055786 47.408333 
1252.056763 118.298782 
1256.773804 62.0 
1264.851929 104.778847 
1272.697266 140.986938 
1300.621704 89.92308 
1335.32019 99.384094 
1353.355957 156.818176 
1372.706665 92.692307 
1374.507812 88.875 
1395.36377 122.18409 
1403.862793 86.002777 
1428.763916 163.010712 
1449.478638 67.11364 
1503.554688 90.959999 
1512.230225 134.633331 
1515.311768 80.529411 
1534.312988 86.288269 
1542.460083 126.939392 
1560.960938 180.098831 
1587.933716 72.929878 
1613.391113 101.083336 
1616.336182 83.446426 
1621.034424 48.458332 
1654.240601 52.875 
1671.892578 52.328949 
1672.92334 51.25 
1686.780029 38.008335 
1690.585938 38.400002 
1695.48999 42.344513 
END IONS

BEGIN IONS
RTINSECONDS=202.619995
CHARGE=1-
MSLEVEL=2
SMILES=Cc1c(C(=O)OC)c(OC)cc2c1c1c(cc(c(C(=O)O)c1o2)C)OC
INCHI=InChI=1S/C19H18O7/c1-8-6-10(23-3)16-14-9(2)15(19(22)25-5)11(24-4)7-12(14)26-17(16)13(8)18(20)21/h6-7H,1-5H3,(H,20,21)
INCHIKEY=WBIQYHZEYQDKCL-UHFFFAOYSA-N
CLASS=Dibenzofuranes
ADDUCT=[2M-H]-
INSTRUMENT=Thermo Q-Exactive Focus
PRECURSOR_MZ=715.2027
COMPOUND_NAME=Schizopeltic acid
ION_MODE=negative
FORMULA=C19H18O7
52.770962 212581.171875 
65.349747 225991.46875 
69.332726 215661.78125 
70.833603 279531.34375 
100.214233 227904.890625 
105.355751 296607.96875 
123.064789 207089.359375 
142.957275 224024.390625 
159.693436 116873.9375 
176.85495 136006.75 
185.775665 130884.15625 
226.064224 148821.75 
235.822693 291055.46875 
251.035583 717602.4375 
271.061737 912612.5 
283.061676 11681667.0 
298.084991 7839941.5 
313.108765 25874404.0 
315.052124 5821340.5 
315.088409 1752715.0 
357.098297 3462287.0 
379.74826 265255.53125 
411.130646 3639.874756 
413.747498 4065.365967 
437.46286 236463.15625 
458.124207 249063.3125 
507.394897 267237.5 
516.444336 145684.328125 
526.346558 22717.445312 
528.03894 19849.3125 
540.420837 3989.084717 
582.486938 3486.751221 
584.994812 256359.0 
629.333069 130390.953125 
641.6698 167782.25 
658.325256 10338.655273 
END IONS

BEGIN IONS
RTINSECONDS=282.147003
CHARGE=1-
MSLEVEL=2
SMILES=CCCCCc1cc(cc(c1C(=O)Oc1cc(c(c(c1)CCCCC)C(=O)O)O)O)O
INCHI=InChI=1S/C24H30O7/c1-3-5-7-9-15-11-17(25)13-19(26)22(15)24(30)31-18-12-16(10-8-6-4-2)21(23(28)29)20(27)14-18/h11-14,25-27H,3-10H2,1-2H3,(H,28,29)
INCHIKEY=BEFYPHLCGVCBFF-UHFFFAOYSA-N
CLASS=Depsides (Didepsides)
ADDUCT=[2M-H]-
INSTRUMENT=Thermo Q-Exactive Focus
PRECURSOR_MZ=859.3905
COMPOUND_NAME=Anziaic acid
ION_MODE=negative
FORMULA=C24H30O7
60.054264 196981.875 
73.854645 208898.1875 
84.258377 235465.078125 
91.017502 300537.21875 
91.992065 228674.09375 
135.116653 666468.9375 
137.095932 480168.09375 
161.095963 554552.125 
163.622498 235627.125 
179.106613 13799649.0 
205.086334 5005790.5 
213.737076 130416.507812 
223.096954 37063008.0 
224.150665 76213.679688 
245.752884 260441.96875 
268.794159 71445.054688 
273.465485 74198.648438 
278.908936 63640.328125 
331.043274 67644.492188 
367.257324 158024.65625 
379.505096 71637.53125 
381.019562 83593.59375 
409.621765 59640.921875 
429.192139 2406716.25 
430.416351 71001.1875 
463.981537 85109.585938 
535.197205 50397.484375 
562.590149 23590.53125 
566.399292 164827.125 
621.875244 12382.179688 
670.815186 89311.15625 
683.075623 84254.078125 
692.164551 307174.0625 
692.885498 22566.919922 
701.193237 62277.601562 
709.64325 95535.382812 
750.418396 160312.515625 
764.385681 51317.417969 
782.601624 55237.230469 
END IONS

BEGIN IONS
RTINSECONDS=115.597
CHARGE=1-
MSLEVEL=2
SMILES=O=C(O)c1c(C)c(Cl)c(O)c(Cl)c1O
INCHI=InChI=1S/C8H6Cl2O4/c1-2-3(8(13)14)6(11)5(10)7(12)4(2)9/h11-12H,1H3,(H,13,14)
INCHIKEY=QZKUNAATQJYHIC-UHFFFAOYSA-N
CLASS=Cleavage Products of Depsides and Depsidones
ADDUCT=[M-H]-
INSTRUMENT=Thermo Q-Exactive Focus
PRECURSOR_MZ=234.9565
COMPOUND_NAME="N 3,5-Dichlororsellinic acid"
ION_MODE=negative
FORMULA=C8H6Cl2O4
91.017845 5015314.5 
119.01297 4628708.0 
126.994583 88568232.0 
143.56546 964821.125 
154.989822 22963186.0 
173.000687 7634677.5 
190.967224 60630648.0 
END IONS

BEGIN IONS
RTINSECONDS=149.164001
CHARGE=1-
MSLEVEL=2
SMILES=O=C1c2c(C)cc(OC)c(C=O)c2Oc2c(O1)c(c(c1c2C(O)OC1=O)O)C
INCHI=InChI=1S/C19H14O9/c1-6-4-9(25-3)8(5-20)15-10(6)17(22)27-14-7(2)13(21)11-12(16(14)26-15)19(24)28-18(11)23/h4-5,19,21,24H,1-3H3
INCHIKEY=SKCUFZLDTAYNBZ-UHFFFAOYSA-N
CLASS=Depsidones
ADDUCT=[M-H]-
INSTRUMENT=Thermo Q-Exactive Focus
PRECURSOR_MZ=385.056
COMPOUND_NAME=Stictic acid
ION_MODE=negative
FORMULA=C19H14O9
55.017658 897715.375 
91.976402 1300968.5 
148.016022 19408.746094 
149.023804 650096.875 
197.060516 1870349.5 
209.060669 3053036.5 
210.068512 1991048.125 
225.055038 2988494.75 
226.063263 2768562.0 
254.058319 6827209.5 
267.03009 8181685.0 
282.053497 2889257.25 
297.077698 3223002.25 
341.066864 3437063.75 
END IONS

BEGIN IONS
RTINSECONDS=254.628006
CHARGE=1-
MSLEVEL=2
SMILES=O=C1Oc2c(c(C)c(Cl)c(OC)c2)Oc2c(Cl)c(O)c(Cl)c(C)c12
INCHI=InChI=1S/C16H11Cl3O5/c1-5-9-15(12(19)13(20)11(5)18)24-14-6(2)10(17)7(22-3)4-8(14)23-16(9)21/h4,20H,1-3H3
INCHIKEY=XEDMLQPKKYHCKK-UHFFFAOYSA-N
CLASS=Depsidones
ADDUCT=[M-H+CH3OH]-
INSTRUMENT=Thermo Q-Exactive Focus
PRECURSOR_MZ=418.9856
COMPOUND_NAME=Dechlorodiploicin
ION_MODE=negative
FORMULA=C16H11Cl3O5
76.327904 480019.34375 
88.081955 495131.34375 
91.747505 413331.59375 
94.985329 481907.21875 
95.259811 485524.46875 
111.848198 419423.125 
151.52002 38221.632812 
194.331085 14500.396484 
194.557495 510263.21875 
204.947433 7038.919922 
256.999481 619527.875 
291.971344 845363.4375 
295.965088 846387.5625 
307.965515 1451777.875 
327.946808 7679493.0 
335.960327 3349456.5 
350.983826 2864635.0 
386.960144 7532679.5 
END IONS

BEGIN IONS
RTINSECONDS=199.835007
CHARGE=1-
MSLEVEL=2
SMILES=c1ccc(cc1)C1=C(C(=O)C(=C(C1=O)O)c1ccccc1)O
INCHI=InChI=1S/C18H12O4/c19-15-13(11-7-3-1-4-8-11)16(20)18(22)14(17(15)21)12-9-5-2-6-10-12/h1-10,19,22H
INCHIKEY=HZKFHDXTSAYOSN-UHFFFAOYSA-N
CLASS=Quinones
ADDUCT=[2M-2H+Na]-
INSTRUMENT=Thermo Q-Exactive Focus
PRECURSOR_MZ=605.1212
COMPOUND_NAME=Polyporic acid
ION_MODE=negative
FORMULA=C18H12O4
64.930199 73009.085938 
67.468323 69693.703125 
78.07132 58426.761719 
78.144661 65187.773438 
98.101837 64019.777344 
117.033417 682336.3125 
131.037521 66590.109375 
131.681915 29598.271484 
155.798553 23310.123047 
160.937424 23406.101562 
173.023758 19177.75 
191.086456 211003.953125 
219.08107 17419.509766 
247.076447 66556.039062 
262.064667 12084.068359 
263.072052 2523104.0 
269.356201 64172.160156 
291.067291 9780870.0 
323.781921 10035.799805 
333.320007 7997.843262 
357.447418 6921.444824 
365.032867 6842.565918 
373.09375 67233.351562 
373.461487 8873.632812 
429.492249 7235.277832 
436.762207 25512.597656 
440.862457 11330.435547 
447.291382 65359.167969 
472.097687 25766.466797 
484.778137 29833.595703 
503.076935 8410.875 
537.19165 28853.691406 
551.409668 29121.335938 
620.730408 12500.035156 
END IONS

BEGIN IONS
RTINSECONDS=78.212097
CHARGE=1-
MSLEVEL=2
SMILES=Cc1cc(cc(c1C(=O)O)O)O
INCHI=InChI=1S/C8H8O4/c1-4-2-5(9)3-6(10)7(4)8(11)12/h2-3,9-10H,1H3,(H,11,12)
INCHIKEY=AMKYESDOVDKZKV-UHFFFAOYSA-N
CLASS=Cleavage Products of Depsides and Depsidones
ADDUCT=[2M-2H+Na]-
INSTRUMENT=Thermo Q-Exactive Focus
PRECURSOR_MZ=357.0586
COMPOUND_NAME=Orsellinic acid
ION_MODE=negative
FORMULA=C8H8O4
55.58728 44543.523438 
66.365311 51630.847656 
79.054047 285834.5 
81.033394 156470.0 
82.701912 48594.136719 
91.98278 129524.3125 
123.044044 2480057.5 
167.034286 5127466.5 
END IONS

BEGIN IONS
RTINSECONDS=169.268997
CHARGE=1-
MSLEVEL=2
SMILES=O=C1c2c(C)cc(O)c(C=O)c2Oc2c(O1)c(c(cc2C(=O)O)OC)C
INCHI=InChI=1S/C18H14O8/c1-7-4-11(20)10(6-19)15-13(7)18(23)26-14-8(2)12(24-3)5-9(17(21)22)16(14)25-15/h4-6,20H,1-3H3,(H,21,22)
INCHIKEY=FUCWJKJZOHOLEO-UHFFFAOYSA-N
CLASS=Depsidones
ADDUCT=[M-H+CH3OH]-
INSTRUMENT=Thermo Q-Exactive Focus
PRECURSOR_MZ=389.0873
COMPOUND_NAME=Psoromic acid
ION_MODE=negative
FORMULA=C18H14O8
68.99707 95792.460938 
91.976486 73564.960938 
105.033501 76448.1875 
149.023895 251298.921875 
177.018539 267436.875 
181.057892 273660.03125 
209.04805 1363424.625 
225.05542 399879.9375 
226.063477 384864.375 
237.055725 283071.9375 
253.051056 242521.296875 
254.058502 427435.0 
270.053925 228565.984375 
281.046051 102126.5625 
313.073395 132169.828125 
331.082886 533092.125 
357.062347 307705.46875 
END IONS

BEGIN IONS
RTINSECONDS=275.59201
CHARGE=1-
MSLEVEL=2
SMILES=CCCCCCCCCC[C@H]1C[C@H]([C@@H](C(=O)O1)C)C(=O)O
INCHI=InChI=1S/C17H30O4/c1-3-4-5-6-7-8-9-10-11-14-12-15(16(18)19)13(2)17(20)21-14/h13-15H,3-12H2,1-2H3,(H,18,19)/t13-,14-,15+/m0/s1
INCHIKEY=SRMPRRDLILJEAW-SOUVJXGZSA-N
CLASS=Acids
ADDUCT=[M-H+CH3OH]-
INSTRUMENT=Thermo Q-Exactive Focus
PRECURSOR_MZ=329.2328
COMPOUND_NAME=Acaranoic acid
ION_MODE=negative
FORMULA=C17H30O4
56.38369 831063.25 
57.033375 1259040.5 
65.42054 1083454.5 
72.194916 875318.625 
75.451218 962105.3125 
80.630493 1071443.75 
133.845291 1211606.125 
137.008301 1445261.125 
167.095551 493461.40625 
169.159973 1682719.375 
183.175522 2520224.0 
192.960281 1555316.375 
221.927841 61678.996094 
253.217819 9802452.0 
274.49704 5215.565918 
278.424622 273868.6875 
297.208099 22393500.0 
297.239838 391422.4375 
298.363495 432023.5 
350.07428 5822.05127 
END IONS

BEGIN IONS
RTINSECONDS=188.975006
CHARGE=1-
MSLEVEL=2
SMILES=O=C1c2c(C)cc(OC)c(C)c2Oc2c(O1)cc(c(c2C)C(=O)O)O
INCHI=InChI=1S/C18H16O7/c1-7-5-11(23-4)8(2)16-13(7)18(22)24-12-6-10(19)14(17(20)21)9(3)15(12)25-16/h5-6,19H,1-4H3,(H,20,21)
INCHIKEY=IXEVSIMCIWOSQO-UHFFFAOYSA-N
CLASS=Depsidones
ADDUCT=[2M-H]-
INSTRUMENT=Thermo Q-Exactive Focus
PRECURSOR_MZ=687.1714
COMPOUND_NAME=Notatic acid
ION_MODE=negative
FORMULA=C18H16O7
79.054108 209103.1875 
91.053932 1419596.125 
91.981972 754574.8125 
119.048866 1488444.125 
137.059662 751292.6875 
149.059967 508940.9375 
163.039001 2067741.5 
197.060349 1805802.625 
227.107376 3921484.25 
231.1026 2216469.5 
240.078903 23179052.0 
243.066208 1974953.25 
255.102615 16799482.0 
257.081696 3879890.75 
299.092682 5059879.0 
325.072144 422158.15625 
343.08255 14041204.0 
END IONS

BEGIN IONS
RTINSECONDS=341.510986
CHARGE=1-
MSLEVEL=2
SMILES=CC(C)(C)CCCCCCCCCC1C(C(=O)O)C(C(=O)O1)C
INCHI=InChI=1S/C19H34O4/c1-14-16(17(20)21)15(23-18(14)22)12-10-8-6-5-7-9-11-13-19(2,3)4/h14-16H,5-13H2,1-4H3,(H,20,21)
INCHIKEY=NRFWTRPHJATQOB-UHFFFAOYSA-N
CLASS=Paraconic acids
ADDUCT=[2M-H]-
INSTRUMENT=Thermo Q-Exactive Focus
PRECURSOR_MZ=651.4836
COMPOUND_NAME=Neodihydroprotolichesterinic acid
ION_MODE=negative
FORMULA=C19H34O4
91.977562 9519319.0 
113.023567 3102924.5 
281.221283 4215615.0 
281.249359 42788356.0 
325.23938 52187068.0 
END IONS

BEGIN IONS
RTINSECONDS=333.494995
CHARGE=1-
MSLEVEL=2
SMILES=O=C(O)C[C@@H]([C@H](CCCCCCCCCCCCCC)C(=O)O)C(=O)OC
INCHI=InChI=1S/C21H38O6/c1-3-4-5-6-7-8-9-10-11-12-13-14-15-17(20(24)25)18(16-19(22)23)21(26)27-2/h17-18H,3-16H2,1-2H3,(H,22,23)(H,24,25)/t17-,18-/m0/s1
INCHIKEY=MZWQZYDNVSKPPF-ROUUACIJSA-N
CLASS=Acids
ADDUCT=[2M-H]-
INSTRUMENT=Thermo Q-Exactive Focus
PRECURSOR_MZ=771.5259
COMPOUND_NAME=Isorangiformic acid
ION_MODE=negative
FORMULA=C21H38O6
59.012589 1111306.0 
71.012772 935913.6875 
71.049026 277142.65625 
73.485382 269975.40625 
87.902321 299924.65625 
115.002907 315871.09375 
133.136078 284461.0 
133.992691 266115.0625 
150.169205 296242.59375 
161.669724 172664.453125 
212.891479 46275.683594 
225.991867 169809.71875 
249.582855 285520.125 
255.233643 953925.0 
265.254333 15005745.0 
267.233765 308544.375 
293.213074 2433144.5 
309.245392 1839330.5 
351.998688 284552.78125 
353.234283 18123842.0 
369.172638 42490.835938 
385.261169 209776.796875 
388.355927 38248.652344 
436.111023 143538.203125 
437.164764 17029.013672 
461.268982 8929.22168 
508.730377 8824.238281 
510.004333 20014.492188 
519.664856 19469.533203 
562.942566 159838.375 
624.121704 20273.689453 
643.733337 96409.773438 
647.479187 9083.234375 
686.619507 9679.193359 
699.173645 278163.78125 
704.535767 8882.623047 
712.690308 18171.408203 
END IONS

BEGIN IONS
RTINSECONDS=235.212997
CHARGE=1-
MSLEVEL=2
SMILES=O=C1c2c(C)c(Cl)c(O)c(Cl)c2Oc2c(O1)cc(c(c2C)C(=O)OC)OC
INCHI=InChI=1S/C18H14Cl2O7/c1-6-11-16(13(20)14(21)12(6)19)27-15-7(2)10(17(22)25-4)8(24-3)5-9(15)26-18(11)23/h5,21H,1-4H3
INCHIKEY=RPHAAJGBADUATP-UHFFFAOYSA-N
CLASS=Depsidones
ADDUCT=[M-H]-
INSTRUMENT=Thermo Q-Exactive Focus
PRECURSOR_MZ=411.0038
COMPOUND_NAME=Gangaleoidin
ION_MODE=negative
FORMULA=C18H14Cl2O7
91.982086 3713456.75 
293.986053 10211792.0 
301.999786 3167278.5 
306.994812 3118707.0 
308.001892 5939681.0 
351.99118 9619216.0 
360.004883 4534819.0 
367.015381 7749032.5 
375.028229 9091175.0 
END IONS

BEGIN IONS
RTINSECONDS=195.755005
CHARGE=1-
MSLEVEL=2
SMILES=O=C1c2c(C)cc(O)c(C=O)c2Oc2c(O1)c(c(c(c2C)C(=O)O)O)COC(=O)C
INCHI=InChI=1S/C20H16O10/c1-7-4-12(23)10(5-21)17-13(7)20(27)30-18-11(6-28-9(3)22)15(24)14(19(25)26)8(2)16(18)29-17/h4-5,23-24H,6H2,1-3H3,(H,25,26)
INCHIKEY=SKXNIRUDASOCCN-UHFFFAOYSA-N
CLASS=Depsidones
ADDUCT=[2M-2H+Na]-
INSTRUMENT=Thermo Q-Exactive Focus
PRECURSOR_MZ=853.1228
COMPOUND_NAME=Physodalic acid
ION_MODE=negative
FORMULA=C20H16O10
64.571587 10581.859375 
64.981102 11770.466797 
68.996819 173136.921875 
91.983093 20162.365234 
107.012604 31238.394531 
149.023819 35197.289062 
151.039307 22127.822266 
203.034637 107797.898438 
211.07637 43434.351562 
213.055588 19825.154297 
239.07106 183765.171875 
241.05072 194414.671875 
255.066025 56711.285156 
267.066406 60647.460938 
283.061371 181078.15625 
311.056519 994089.3125 
333.0383 156766.109375 
337.036499 41647.75 
355.046387 283404.3125 
377.02829 76938.429688 
396.86969 10028.964844 
404.892609 9680.651367 
415.067627 116392.117188 
436.613373 10460.213867 
493.022888 11991.22168 
493.999817 9258.365234 
497.068848 9583.71875 
525.309448 17438.921875 
536.757385 11815.006836 
558.421204 10176.00293 
624.792297 9549.920898 
643.634888 6149.152344 
645.104431 18572.287109 
649.695435 6756.974609 
681.01947 12317.342773 
689.091675 73968.265625 
712.597656 10482.038086 
720.059204 4007.030518 
733.083862 63560.898438 
733.202637 12866.151367 
793.106018 37576.097656 
801.112061 10201.973633 
END IONS

BEGIN IONS
RTINSECONDS=276.654999
CHARGE=1-
MSLEVEL=2
SMILES=CC(=O)CCCCCCCCCCCCC[C@@H]1C(C(=O)O)C(=C)C(=O)O1
INCHI=InChI=1S/C21H34O5/c1-16(22)14-12-10-8-6-4-3-5-7-9-11-13-15-18-19(20(23)24)17(2)21(25)26-18/h18-19H,2-15H2,1H3,(H,23,24)/t18-,19?/m1/s1
INCHIKEY=SKQHRBRVCRUFSX-MRTLOADZSA-N
CLASS=Paraconic acids
ADDUCT=[2M-2H+Na]-
INSTRUMENT=Thermo Q-Exactive Focus
PRECURSOR_MZ=753.4554
COMPOUND_NAME=Muronic acid
ION_MODE=negative
FORMULA=C21H34O5
57.032795 173553.984375 
69.033356 47713.3125 
89.415504 28888.375 
91.983421 52958.175781 
93.558777 28607.773438 
96.170586 28290.808594 
166.45108 26694.296875 
169.159256 45096.375 
183.175476 31866.800781 
188.687042 25859.775391 
202.262985 28034.207031 
236.146439 20524.015625 
243.804825 31322.140625 
247.022308 17578.792969 
267.383453 22528.294922 
277.254364 1396608.125 
297.221008 46140.476562 
299.236877 41610.492188 
321.244476 1274599.125 
343.226593 152070.578125 
355.901337 17682.921875 
365.234497 324062.15625 
387.218018 13735.162109 
401.687073 8694.94043 
413.597443 3759.242188 
413.699982 10524.524414 
492.046967 20966.779297 
509.941193 8463.896484 
524.506165 9761.986328 
525.134827 3867.401123 
596.160583 4644.376953 
603.560608 8362.446289 
608.104065 14065.598633 
615.781372 3823.105957 
629.574585 26929.673828 
665.479736 108745.554688 
709.467957 126575.4375 
715.603027 27813.515625 
719.328003 15111.416016 
719.509277 33132.777344 
END IONS

BEGIN IONS
RTINSECONDS=276.302002
CHARGE=1-
MSLEVEL=2
SMILES=O=C(Oc1c(O)cc(CCCCC)c(C(=O)O)c1O)c1c(CCC)cc(OC)cc1OC
INCHI=InChI=1S/C24H30O8/c1-5-7-8-10-15-12-17(25)22(21(26)20(15)23(27)28)32-24(29)19-14(9-6-2)11-16(30-3)13-18(19)31-4/h11-13,25-26H,5-10H2,1-4H3,(H,27,28)
INCHIKEY=AAKHGLJWUOZNTQ-UHFFFAOYSA-N
CLASS=Depsides (Didepsides)
ADDUCT=[M-H]-
INSTRUMENT=Thermo Q-Exactive Focus
PRECURSOR_MZ=445.1862
COMPOUND_NAME=Merochlorophaeic acid
ION_MODE=negative
FORMULA=C24H30O8
51.989307 262646.6875 
91.983353 1145527.875 
93.03347 3592956.0 
137.023102 2178642.25 
138.030945 12115159.0 
147.080215 1524100.5 
177.090424 1668276.375 
194.093948 16404074.0 
195.101868 92607256.0 
209.117783 2585023.5 
238.084 2878288.0 
239.091721 1856458.75 
263.092987 690495.25 
300.100586 143815.6875 
311.093842 148413.296875 
315.120728 152435.3125 
351.160675 389319.75 
369.173004 662144.0 
383.187561 761134.1875 
401.197083 531932.9375 
427.175598 2626559.75 
END IONS

BEGIN IONS
RTINSECONDS=310.483002
CHARGE=1-
MSLEVEL=2
SMILES=Cc1c2c(Oc3c(OC2=O)c(c(c(c3C)Cl)OC)C)c(C=O)c(O)c1Cl
INCHI=InChI=1S/C18H14Cl2O6/c1-6-10-17(9(5-21)13(22)11(6)19)25-15-7(2)12(20)14(24-4)8(3)16(15)26-18(10)23/h5,22H,1-4H3
INCHIKEY=SNNDIPJEAQAKTJ-UHFFFAOYSA-N
CLASS=Depsidones
ADDUCT=[M-H]-
INSTRUMENT=Thermo Q-Exactive Focus
PRECURSOR_MZ=395.0089
COMPOUND_NAME=Argopsin
ION_MODE=negative
FORMULA=C18H14Cl2O6
53.218708 5950.943359 
68.996826 6942712.0 
91.976517 626573.9375 
138.994629 477029.84375 
170.01329 1063380.625 
182.984818 1891098.0 
244.0289 966650.9375 
272.025085 1455061.875 
276.019165 1337299.875 
288.019867 1631551.125 
308.001617 3344976.0 
316.014954 3401875.25 
331.038849 1460433.875 
335.99646 3650979.5 
344.009521 1065673.5 
359.032959 3681223.75 
END IONS

BEGIN IONS
RTINSECONDS=260.614014
CHARGE=1-
MSLEVEL=2
SMILES=Cc1cc(c(c(c1C(=O)O)O)C)OC(=O)c1c(c(c(cc1C)OC)C)OC
INCHI=InChI=1S/C20H22O7/c1-9-8-14(11(3)17(21)15(9)19(22)23)27-20(24)16-10(2)7-13(25-5)12(4)18(16)26-6/h7-8,21H,1-6H3,(H,22,23)
INCHIKEY=MIJKZXWOOXIEEU-UHFFFAOYSA-N
CLASS=Depsides (Didepsides)
ADDUCT=[M-H]-
INSTRUMENT=Thermo Q-Exactive Focus
PRECURSOR_MZ=373.1287
COMPOUND_NAME=Diffractaic acid
ION_MODE=negative
FORMULA=C20H22O7
55.592857 16008.880859 
57.383865 14841.941406 
107.048782 2637163.75 
135.080139 13763045.0 
136.051926 335048.21875 
137.05954 5554827.5 
163.075333 421607.78125 
165.090927 5675339.0 
209.080719 13118340.0 
238.099625 327992.15625 
267.066742 3467488.75 
282.09024 4757170.5 
285.149323 3148522.25 
297.112854 11871248.0 
329.140106 7183743.5 
END IONS

BEGIN IONS
RTINSECONDS=311.13501
CHARGE=1-
MSLEVEL=2
SMILES=CCCCCCCCCCCCCC[C@H](C(=O)O)[C@H](C(=O)O)CC(=O)O
INCHI=InChI=1S/C20H36O6/c1-2-3-4-5-6-7-8-9-10-11-12-13-14-16(19(23)24)17(20(25)26)15-18(21)22/h16-17H,2-15H2,1H3,(H,21,22)(H,23,24)(H,25,26)/t16-,17+/m0/s1
INCHIKEY=YBZIIVKQVVKTTD-DLBZAZTESA-N
CLASS=Acids
ADDUCT=[M-H]-
INSTRUMENT=Thermo Q-Exactive Focus
PRECURSOR_MZ=371.2434
COMPOUND_NAME=Norrangiformic acid
ION_MODE=negative
FORMULA=C20H36O6
59.012661 6170046.5 
71.01265 984622.3125 
71.049004 613982.25 
83.049126 32971.925781 
91.981483 269849.28125 
249.223679 256921.59375 
255.233917 6112407.0 
265.254364 76167128.0 
267.234558 2285348.5 
283.264404 6290681.5 
293.213654 8657891.0 
309.243896 10837813.0 
353.234436 61245932.0 
END IONS

BEGIN IONS
RTINSECONDS=202.882996
CHARGE=1-
MSLEVEL=2
SMILES=Cc1c(C(=O)OC)c(OC)cc2c1c1c(cc(c(C(=O)O)c1o2)C)OC
INCHI=InChI=1S/C19H18O7/c1-8-6-10(23-3)16-14-9(2)15(19(22)25-5)11(24-4)7-12(14)26-17(16)13(8)18(20)21/h6-7H,1-5H3,(H,20,21)
INCHIKEY=WBIQYHZEYQDKCL-UHFFFAOYSA-N
CLASS=Dibenzofuranes
ADDUCT=[2M-2H+Na]-
INSTRUMENT=Thermo Q-Exactive Focus
PRECURSOR_MZ=737.1846
COMPOUND_NAME=Schizopeltic acid
ION_MODE=negative
FORMULA=C19H18O7
54.872463 18657.300781 
78.740463 18881.876953 
81.545464 19075.482422 
91.977554 23471.160156 
101.379913 18869.355469 
111.017342 17599.558594 
135.688736 17896.318359 
212.751053 16440.568359 
224.233261 20501.064453 
281.082245 155708.53125 
283.061707 417530.53125 
298.084747 216927.3125 
313.108765 539796.3125 
315.052063 200406.234375 
321.074951 170589.125 
365.064545 90814.257812 
397.09082 409243.96875 
405.056305 6520.068848 
409.056244 13183.344727 
441.080627 82647.8125 
512.163269 7326.865723 
527.602234 5902.740723 
541.566772 6495.54541 
548.24054 7972.049316 
549.863159 5937.884277 
567.786987 19385.15625 
584.363037 6456.480469 
603.336731 20528.951172 
618.836914 6851.613281 
646.441284 4018.952393 
664.844543 7501.042969 
714.319702 5995.770508 
END IONS

BEGIN IONS
RTINSECONDS=123.767998
CHARGE=1-
MSLEVEL=2
SMILES=O[C@H]1[C@H](O)[C@@H](O)[C@H](Oc2c(C)c3oc(C)cc(=O)c3c(O)c2C)O[C@@H]1COC(=O)C
INCHI=InChI=1S/C20H24O10/c1-7-5-11(22)13-14(23)8(2)18(9(3)19(13)28-7)30-20-17(26)16(25)15(24)12(29-20)6-27-10(4)21/h5,12,15-17,20,23-26H,6H2,1-4H3/t12-,15-,16+,17-,20+/m1/s1
INCHIKEY=NJRLDXGREKHXGV-IVABAYMNSA-N
CLASS=Chromanes and Chromones
ADDUCT=[2M-H+HCOOH]-
INSTRUMENT=Thermo Q-Exactive Focus
PRECURSOR_MZ=893.2715
COMPOUND_NAME=Galapagin
ION_MODE=negative
FORMULA=C20H24O10
63.76416 170108.765625 
72.479027 163613.625 
77.443748 80839.304688 
109.450668 179559.34375 
115.987457 90373.046875 
127.964394 186663.15625 
168.251007 87145.71875 
175.074432 89247.210938 
197.669678 178689.46875 
218.036453 93301.875 
218.057617 2691983.25 
219.065659 14636765.0 
261.077026 287544.8125 
276.734344 43720.523438 
281.149292 37701.191406 
296.394073 42701.613281 
298.138733 39551.855469 
318.891998 42602.136719 
339.791321 195463.796875 
363.109039 17949.957031 
372.729126 4382.82373 
391.017822 5259.61377 
398.375519 35011.921875 
423.129547 3381464.0 
428.357422 3936.54248 
469.135315 929155.0625 
483.775879 4507.140137 
496.359711 4913.371582 
596.219238 43801.570312 
685.152466 190174.140625 
769.662048 5882.401367 
END IONS

BEGIN IONS
RTINSECONDS=57.1451
CHARGE=1-
MSLEVEL=2
SMILES=O=C(O)c1c(C)cc(O)cc1OC
INCHI=InChI=1S/C9H10O4/c1-5-3-6(10)4-7(13-2)8(5)9(11)12/h3-4,10H,1-2H3,(H,11,12)
INCHIKEY=HKYUPCAKFRQXJI-UHFFFAOYSA-N
CLASS=Cleavage Products of Depsides and Depsidones
ADDUCT=[M+Cl]-
INSTRUMENT=Thermo Q-Exactive Focus
PRECURSOR_MZ=217.0268
COMPOUND_NAME=Isoevernic acid
ION_MODE=negative
FORMULA=C9H10O4
65.548096 3797.266846 
68.014267 4391.252441 
70.347473 4402.287109 
70.876793 3608.742188 
75.311302 4396.003418 
103.907478 4706.508789 
122.035889 50965.941406 
125.983063 4092.544189 
134.92067 5168.571289 
137.059494 155761.46875 
181.049988 82566.40625 
183.262375 5582.847656 
194.420731 3884.196289 
232.050034 4057.864502 
END IONS

BEGIN IONS
RTINSECONDS=221.128006
CHARGE=1-
MSLEVEL=2
SMILES=Oc1c(C(=O)Oc2c(OC)cc(c(C(=O)O)c2O)CCC)c(CCC)cc(OC)c1
INCHI=InChI=1S/C22H26O8/c1-5-7-12-9-14(28-3)11-15(23)17(12)22(27)30-20-16(29-4)10-13(8-6-2)18(19(20)24)21(25)26/h9-11,23-24H,5-8H2,1-4H3,(H,25,26)
INCHIKEY=CPHXGYQLOSNELY-UHFFFAOYSA-N
CLASS=Depsides (Didepsides)
ADDUCT=[2M-2H+Na]-
INSTRUMENT=Thermo Q-Exactive Focus
PRECURSOR_MZ=857.2997
COMPOUND_NAME=Sekikaic acid
ION_MODE=negative
FORMULA=C22H26O8
59.392273 11532.807617 
65.426399 12355.692383 
91.977013 26561.896484 
110.878082 24082.732422 
150.067566 222897.140625 
165.091034 784851.25 
166.062576 499368.09375 
209.081314 2135436.25 
210.052811 83099.476562 
225.076401 1286982.75 
232.034637 23916.572266 
247.058289 248448.34375 
264.025604 43549.796875 
279.05011 15188.606445 
330.335876 17741.306641 
395.149689 10522.225586 
401.582092 20171.548828 
405.597351 10433.037109 
417.156006 92545.140625 
439.137054 120380.78125 
441.153168 131074.3125 
457.148407 130940.320312 
473.143463 34863.359375 
491.542755 10288.62207 
518.674133 11957.394531 
530.507263 17997.505859 
548.104797 19102.619141 
584.538696 17914.363281 
599.716858 19114.6875 
605.346802 10492.250977 
641.578247 9826.641602 
649.227722 69047.992188 
653.117493 9918.261719 
665.220337 41966.851562 
678.915405 4761.655762 
737.44989 18368.443359 
745.347839 9202.636719 
775.263184 11178.535156 
775.537354 22069.873047 
798.464172 5411.916992 
818.396545 11672.745117 
825.458313 11223.837891 
END IONS

BEGIN IONS
RTINSECONDS=247.367004
CHARGE=1-
MSLEVEL=2
SMILES=O=C1c2c(CC(=O)CCCCC)cc(O)cc2Oc2c(O1)cc(c(c2CCCCC)C(=O)O)O
INCHI=InChI=1S/C26H30O8/c1-3-5-7-9-16(27)11-15-12-17(28)13-20-22(15)26(32)34-21-14-19(29)23(25(30)31)18(24(21)33-20)10-8-6-4-2/h12-14,28-29H,3-11H2,1-2H3,(H,30,31)
INCHIKEY=KVTYWHGIZSCFLG-UHFFFAOYSA-N
CLASS=Depsidones
ADDUCT=[M-H+CH3OH]-
INSTRUMENT=Thermo Q-Exactive Focus
PRECURSOR_MZ=501.2125
COMPOUND_NAME=Physodic acid
ION_MODE=negative
FORMULA=C26H30O8
51.23159 47833.15625 
51.805954 42778.738281 
56.708359 45481.910156 
59.039429 47276.585938 
70.615738 51006.933594 
83.16687 54778.546875 
107.198135 67680.132812 
118.506805 64363.394531 
133.101166 83400.273438 
133.135239 52598.855469 
140.030441 52117.003906 
140.930573 47646.753906 
209.467529 51685.472656 
217.013733 49704.46875 
217.871277 48713.679688 
246.090073 65091.546875 
247.098175 217994.84375 
259.135162 127363.140625 
283.134308 333225.28125 
285.113312 42654.589844 
327.124786 101609.695312 
354.111847 96622.4375 
357.207489 70863.09375 
381.207184 505606.59375 
383.186646 352764.875 
407.186829 1125831.125 
425.19751 670415.6875 
451.178589 74067.875 
469.188629 66526.125 
483.203064 79605.96875 
END IONS

BEGIN IONS
RTINSECONDS=214.895004
CHARGE=1-
MSLEVEL=2
SMILES=O=C1c2c(CC(=O)CCCCC)cc(O)c(O)c2Oc2c(O1)cc(c(c2CCCCC)C(=O)O)O
INCHI=InChI=1S/C26H30O9/c1-3-5-7-9-15(27)11-14-12-18(29)22(30)24-20(14)26(33)34-19-13-17(28)21(25(31)32)16(23(19)35-24)10-8-6-4-2/h12-13,28-30H,3-11H2,1-2H3,(H,31,32)
INCHIKEY=BQHHNAPTXQOPBW-UHFFFAOYSA-N
CLASS=Depsidones
ADDUCT=[M-H]-
INSTRUMENT=Thermo Q-Exactive Focus
PRECURSOR_MZ=485.1812
COMPOUND_NAME=3-Hydroxyphysodic acid
ION_MODE=negative
FORMULA=C26H30O9
65.001846 361969.65625 
91.979233 2243049.75 
109.028358 2558923.5 
137.023407 13099521.0 
137.095993 1917231.125 
179.106995 10312691.0 
205.086777 3700703.0 
207.102478 5998752.5 
233.081696 5554981.0 
235.097412 20468032.0 
261.076935 8504166.0 
271.024994 2754795.75 
277.10849 3752015.75 
300.100372 3272356.0 
301.108154 2360611.5 
324.102203 1914352.375 
328.095367 1813822.375 
342.111145 995099.625 
373.202118 6235370.5 
397.203339 4545774.0 
399.181732 19483094.0 
400.185242 4724981.0 
423.181976 6830695.5 
441.192291 14714947.0 
END IONS

BEGIN IONS
RTINSECONDS=221.587997
CHARGE=1-
MSLEVEL=2
SMILES=Oc1c(C(=O)Oc2c(OC)cc(c(C(=O)O)c2O)CCC)c(CCC)cc(OC)c1
INCHI=InChI=1S/C22H26O8/c1-5-7-12-9-14(28-3)11-15(23)17(12)22(27)30-20-16(29-4)10-13(8-6-2)18(19(20)24)21(25)26/h9-11,23-24H,5-8H2,1-4H3,(H,25,26)
INCHIKEY=CPHXGYQLOSNELY-UHFFFAOYSA-N
CLASS=Depsides (Didepsides)
ADDUCT=[M-H]-
INSTRUMENT=Thermo Q-Exactive Focus
PRECURSOR_MZ=417.1549
COMPOUND_NAME=Sekikaic acid
ION_MODE=negative
FORMULA=C22H26O8
59.858208 513156.625 
122.036301 7261037.5 
137.023453 5168911.0 
150.067734 33379796.0 
165.09108 75950880.0 
166.062546 54153868.0 
209.081345 113562168.0 
210.053131 6808688.5 
225.077393 46701648.0 
END IONS

BEGIN IONS
RTINSECONDS=256.40799
CHARGE=1-
MSLEVEL=2
SMILES=CC(C)C[C@H](NC(=O)c1ccccc1)C(=O)OC[C@@H](NC(=O)c1ccccc1)Cc1ccccc1
INCHI=InChI=1S/C29H32N2O4/c1-21(2)18-26(31-28(33)24-16-10-5-11-17-24)29(34)35-20-25(19-22-12-6-3-7-13-22)30-27(32)23-14-8-4-9-15-23/h3-17,21,25-26H,18-20H2,1-2H3,(H,30,32)(H,31,33)/t25-,26-/m0/s1
INCHIKEY=JOOSAYNHLJGJCN-UIOOFZCWSA-N
CLASS=N-Containing Compounds
ADDUCT=[M-H+HCOOH]-
INSTRUMENT=Thermo Q-Exactive Focus
PRECURSOR_MZ=517.2339
COMPOUND_NAME=Hypothallin
ION_MODE=negative
FORMULA=C29H32N2O4
82.065002 2661484.25 
91.978729 2624697.5 
117.204544 1042935.625 
120.044434 5469145.0 
190.123627 57543592.0 
234.113724 98375448.0 
254.119598 1243711.5 
END IONS

BEGIN IONS
RTINSECONDS=110.941002
CHARGE=1-
MSLEVEL=2
SMILES=Cc1cc(c(c2c1C(=O)Oc1c(O2)c2c(c(c1CO)O)C(=O)OC2O)C=O)OC
INCHI=InChI=1S/C19H14O10/c1-6-3-9(26-2)7(4-20)14-10(6)17(23)28-15-8(5-21)13(22)11-12(16(15)27-14)19(25)29-18(11)24/h3-4,19,21-22,25H,5H2,1-2H3
INCHIKEY=FYPCEUKJORJHDL-UHFFFAOYSA-N
CLASS=Depsidones
ADDUCT=[2M-H]-
INSTRUMENT=Thermo Q-Exactive Focus
PRECURSOR_MZ=803.1096
COMPOUND_NAME=Constictic acid
ION_MODE=negative
FORMULA=C19H14O10
71.012444 96185.554688 
91.982475 74513.5625 
93.03315 78790.09375 
121.028168 629277.8125 
135.007782 187671.015625 
137.059723 99001.039062 
165.055069 199773.3125 
212.047562 274316.90625 
240.042572 1051658.375 
241.050522 116590.929688 
268.037781 807297.6875 
270.053925 285740.4375 
283.061371 946636.1875 
298.049164 204115.15625 
313.071594 256818.53125 
327.050659 269473.5625 
357.062012 1171882.875 
380.536926 7651.61084 
381.533234 21556.998047 
401.05188 1651830.0 
401.100098 14398.189453 
439.605103 38332.648438 
446.0383 7910.942383 
449.559265 9693.917969 
473.093445 23811.308594 
482.804596 3897.769775 
553.479858 3845.180176 
642.304688 8918.249023 
655.408936 23696.650391 
END IONS

BEGIN IONS
RTINSECONDS=289.19101
CHARGE=1-
MSLEVEL=2
SMILES=O=C1c2c(C(=O)CCCC)cc(OC)cc2Oc2c(O1)cc(c(c2CCCCC)C(=O)O)O
INCHI=InChI=1S/C25H28O8/c1-4-6-8-9-15-21(24(28)29)18(27)13-20-23(15)32-19-12-14(31-3)11-16(17(26)10-7-5-2)22(19)25(30)33-20/h11-13,27H,4-10H2,1-3H3,(H,28,29)
INCHIKEY=JHEWMLHQNRHTQX-UHFFFAOYSA-N
CLASS=Depsidones
ADDUCT=[2M-H]-
INSTRUMENT=Thermo Q-Exactive Focus
PRECURSOR_MZ=911.349
COMPOUND_NAME=Lobaric acid
ION_MODE=negative
FORMULA=C25H28O8
101.491287 654599.25 
133.101303 4508543.0 
191.034882 785111.375 
257.081787 1393810.875 
267.103027 3228441.0 
281.082123 35720988.0 
295.09787 10545776.0 
296.105927 8439115.0 
298.08548 3427801.5 
309.113556 14978156.0 
352.168182 17637044.0 
354.14743 3829368.5 
367.19165 27696034.0 
369.170715 8808411.0 
411.181458 19348246.0 
455.171478 26646296.0 
END IONS

BEGIN IONS
RTINSECONDS=142.570007
CHARGE=1-
MSLEVEL=2
SMILES=[C@@H]1(CC(=O)N2[C@H](C(=O)N[C@H](CC(=O)N3[C@@H](C(=O)N1)CCC3)c1ccccc1)CCC2)c1ccccc1
INCHI=InChI=1S/C28H32N4O4/c33-25-17-21(19-9-3-1-4-10-19)29-27(35)23-13-7-16-32(23)26(34)18-22(20-11-5-2-6-12-20)30-28(36)24-14-8-15-31(24)25/h1-6,9-12,21-24H,7-8,13-18H2,(H,29,35)(H,30,36)/t21-,22-,23-,24+/m1/s1
INCHIKEY=PDLPVRYEPINIBU-YCAMKHIRSA-N
CLASS=N-Containing Compounds
ADDUCT=[M-H]-
INSTRUMENT=Thermo Q-Exactive Focus
PRECURSOR_MZ=487.2345
COMPOUND_NAME=Roccanin
ION_MODE=negative
FORMULA=C28H32N4O4
64.953964 32609.792969 
69.267555 35831.472656 
69.463234 32904.039062 
91.976952 133765.5625 
101.977303 73396.476562 
113.071175 347019.40625 
126.796982 79700.460938 
138.055359 108719.203125 
198.092361 430617.8125 
200.108261 476929.71875 
215.118515 137948.921875 
225.103485 114089.335938 
236.06369 88002.304688 
243.114059 3203262.75 
264.401917 79639.0625 
306.813141 33718.242188 
345.701324 5375.463379 
361.605042 6240.882324 
376.02356 38430.398438 
405.789246 6232.994629 
END IONS

BEGIN IONS
RTINSECONDS=261.382996
CHARGE=1-
MSLEVEL=2
SMILES=Oc1c(C(=O)C)c2OC3(C(C)(C(=O)C(=C(C3)O)C(=O)C)c2c(O)c1C)OC
INCHI=InChI=1S/C19H20O8/c1-7-14(23)12(9(3)21)16-13(15(7)24)18(4)17(25)11(8(2)20)10(22)6-19(18,26-5)27-16/h22-24H,6H2,1-5H3
INCHIKEY=WWSUFZCWOJULTK-UHFFFAOYSA-N
CLASS=Dibenzofuranes
ADDUCT=[M-H]-
INSTRUMENT=Thermo Q-Exactive Focus
PRECURSOR_MZ=375.108
COMPOUND_NAME=Pseudoplacodiolic acid
ION_MODE=negative
FORMULA=C19H20O8
74.79995 2288361.25 
83.012535 35973644.0 
91.980377 19242180.0 
95.048965 4559300.0 
139.039261 3171415.0 
180.042282 11479098.0 
229.086868 7322963.5 
231.066391 23098732.0 
255.066666 17209750.0 
259.061523 17452320.0 
286.048889 10748783.0 
299.092896 33532208.0 
301.072357 31598880.0 
315.088074 7701672.5 
343.083069 21820548.0 
END IONS

BEGIN IONS
RTINSECONDS=284.161011
CHARGE=1-
MSLEVEL=2
SMILES=Cc1cc(OC(=O)c2c(O)c(C)c(OC)cc2C)c(C)c(O)c1C(=O)O
INCHI=InChI=1S/C19H20O7/c1-8-7-13(11(4)16(20)14(8)18(22)23)26-19(24)15-9(2)6-12(25-5)10(3)17(15)21/h6-7,20-21H,1-5H3,(H,22,23)
INCHIKEY=NMKBRSYSHBPUPY-UHFFFAOYSA-N
CLASS=Depsides (Didepsides)
ADDUCT=[M-H]-
INSTRUMENT=Thermo Q-Exactive Focus
PRECURSOR_MZ=359.1131
COMPOUND_NAME=Barbatic acid
ION_MODE=negative
FORMULA=C19H20O7
51.996426 113808.265625 
55.605083 23420.572266 
67.106827 529286.5 
90.722702 289564.59375 
93.069695 2450279.75 
111.150002 325153.5 
119.048882 5168517.0 
137.059677 35419952.0 
163.038956 53442248.0 
181.04953 76159208.0 
END IONS

BEGIN IONS
RTINSECONDS=199.634003
CHARGE=1-
MSLEVEL=2
SMILES=c1ccc(cc1)C1=C(C(=O)C(=C(C1=O)O)c1ccccc1)O
INCHI=InChI=1S/C18H12O4/c19-15-13(11-7-3-1-4-8-11)16(20)18(22)14(17(15)21)12-9-5-2-6-10-12/h1-10,19,22H
INCHIKEY=HZKFHDXTSAYOSN-UHFFFAOYSA-N
CLASS=Quinones
ADDUCT=[M-H]-
INSTRUMENT=Thermo Q-Exactive Focus
PRECURSOR_MZ=291.0657
COMPOUND_NAME=Polyporic acid
ION_MODE=negative
FORMULA=C18H12O4
101.038757 283767.46875 
117.0336 12059947.0 
191.086838 3292828.75 
219.082901 917246.9375 
234.06926 186399.84375 
247.07663 592329.9375 
263.072083 26370182.0 
END IONS

BEGIN IONS
RTINSECONDS=221.065002
CHARGE=1-
MSLEVEL=2
SMILES=Cc1cc(c2c(c1)C(=O)C13C4C5C(C1C(=O)C1=C(c6c(cc(cc6C(=O)C51C(C4O)C(=O)C3=C2O)C)O)O)O)O
INCHI=InChI=1S/C30H22O10/c1-7-3-9-13(11(31)5-7)21(33)17-25(37)20-23(35)15-16-24(36)19(29(15,17)27(9)39)26(38)18-22(34)14-10(28(40)30(16,18)20)4-8(2)6-12(14)32/h3-6,15-16,19-20,23-24,31-36H,1-2H3
INCHIKEY=QFDPVUTXKUGISP-UHFFFAOYSA-N
CLASS=Quinones
ADDUCT=[M-2H+Na]-
INSTRUMENT=Thermo Q-Exactive Focus
PRECURSOR_MZ=563.0954
COMPOUND_NAME=Rugulosin
ION_MODE=negative
FORMULA=C30H22O10
201.055542 28943.851562 
225.056046 61042.628906 
253.051163 92469.0 
269.046387 486383.625 
270.054138 146785.640625 
271.062256 150565.875 
291.028442 122400.085938 
END IONS

BEGIN IONS
RTINSECONDS=122.568001
CHARGE=1-
MSLEVEL=2
SMILES=O=C1c2c(C)cc(O)cc2Oc2c(O1)cc1c(c2O)C(=O)OC1
INCHI=InChI=1S/C16H10O7/c1-6-2-8(17)4-9-11(6)16(20)23-10-3-7-5-21-15(19)12(7)13(18)14(10)22-9/h2-4,17-18H,5H2,1H3
INCHIKEY=LPUOVEFMUOQBFV-UHFFFAOYSA-N
CLASS=Depsidones
ADDUCT=[M-H+CH3OH]-
INSTRUMENT=Thermo Q-Exactive Focus
PRECURSOR_MZ=345.061
COMPOUND_NAME=Variolaric acid
ION_MODE=negative
FORMULA=C16H10O7
58.665028 41558.550781 
68.489891 47662.289062 
70.331573 42022.386719 
71.460571 45461.015625 
73.058044 44137.683594 
107.944313 47705.375 
127.798035 44677.871094 
128.809418 44025.082031 
163.002747 83025.242188 
169.06514 47851.789062 
169.180923 44691.527344 
197.060394 475779.625 
213.055725 140337.4375 
225.055573 633795.125 
241.050446 460087.4375 
269.045715 1104899.125 
313.03598 421216.0625 
END IONS

BEGIN IONS
RTINSECONDS=303.63501
CHARGE=1-
MSLEVEL=2
SMILES=CC(C[C@H](NC(=O)/C(=C\1/C(=C(c2ccccc2)C(=O)O1)O)/c1ccccc1)C(=O)O)C
INCHI=InChI=1S/C24H23NO6/c1-14(2)13-17(23(28)29)25-22(27)19(16-11-7-4-8-12-16)21-20(26)18(24(30)31-21)15-9-5-3-6-10-15/h3-12,14,17,26H,13H2,1-2H3,(H,25,27)(H,28,29)/b21-19-/t17-/m0/s1
INCHIKEY=ZQLBONJLBKDOLE-UFVMTTLYSA-N
CLASS=Pulvinic Acid Derivatives
ADDUCT=[M-H]-
INSTRUMENT=Thermo Q-Exactive Focus
PRECURSOR_MZ=420.1447
COMPOUND_NAME=Norepanorin
ION_MODE=negative
FORMULA=C24H23NO6
51.812977 6969.241699 
58.516918 75822.117188 
91.979851 20352.291016 
101.038689 20351.085938 
117.033768 1652017.25 
130.086624 219364.90625 
157.052612 36737.816406 
191.086441 754179.75 
214.124008 368730.28125 
234.069244 107107.03125 
261.079163 24266.181641 
262.065216 41957.933594 
263.072021 6676846.0 
314.156586 16180.100586 
332.16571 49014.488281 
376.155518 502437.65625 
END IONS

BEGIN IONS
RTINSECONDS=256.414001
CHARGE=1-
MSLEVEL=2
SMILES=Oc1cc(OC(=O)c2c(O)cc(O)cc2CC(=O)CCCCC)cc(CCCCC)c1C(=O)O
INCHI=InChI=1S/C26H32O8/c1-3-5-7-9-16-13-20(15-22(30)23(16)25(31)32)34-26(33)24-17(12-19(28)14-21(24)29)11-18(27)10-8-6-4-2/h12-15,28-30H,3-11H2,1-2H3,(H,31,32)
INCHIKEY=VZPLPGICHZXOCQ-UHFFFAOYSA-N
CLASS=Depsides (Didepsides)
ADDUCT=[2M-H]-
INSTRUMENT=Thermo Q-Exactive Focus
PRECURSOR_MZ=943.4116
COMPOUND_NAME=Olivetoric acid
ION_MODE=negative
FORMULA=C26H32O8
66.331558 392723.59375 
80.575569 436912.90625 
81.03302 927560.5 
91.983307 595674.6875 
105.033287 1989559.0 
123.043694 3131795.75 
137.095917 1729912.75 
146.036301 2047977.875 
149.023224 11675435.0 
179.106689 39138028.0 
205.086136 3417763.0 
221.117676 4059835.25 
223.097076 101733472.0 
247.097137 25635692.0 
265.108002 21827764.0 
265.137115 816663.5625 
285.147858 449885.65625 
295.341461 217015.203125 
315.806732 15422.217773 
316.79715 214856.640625 
359.579376 51232.136719 
377.724304 136099.15625 
382.20816 243433.03125 
384.187408 223512.140625 
397.487061 248069.4375 
426.19812 232093.21875 
449.306671 520044.78125 
471.202606 4188624.75 
473.197845 231083.0 
475.270966 489770.5 
501.167084 237101.390625 
526.242126 487957.5625 
546.868347 233662.78125 
573.828735 44292.820312 
584.691833 13461.830078 
584.766174 523781.40625 
587.75238 21757.519531 
698.086792 10405.628906 
722.999329 10793.314453 
743.101135 25152.226562 
747.314392 26140.490234 
771.372375 49923.292969 
780.88855 143333.828125 
782.690857 47334.25 
END IONS

BEGIN IONS
RTINSECONDS=171.968002
CHARGE=1-
MSLEVEL=2
SMILES=O=C1c2c(C)cc(OC)c(C)c2Oc2c(O1)cc(c(c2C)C(=O)O)O
INCHI=InChI=1S/C18H16O7/c1-7-5-11(23-4)8(2)16-13(7)18(22)24-12-6-10(19)14(17(20)21)9(3)15(12)25-16/h5-6,19H,1-4H3,(H,20,21)
INCHIKEY=IXEVSIMCIWOSQO-UHFFFAOYSA-N
CLASS=Depsidones
ADDUCT=[M-H+CH3OH]-
INSTRUMENT=Thermo Q-Exactive Focus
PRECURSOR_MZ=375.108
COMPOUND_NAME=Notatic acid
ION_MODE=negative
FORMULA=C18H16O7
51.769218 6313.436035 
58.99939 8444.620117 
68.565498 6908.875488 
70.528847 7256.178711 
79.82412 7884.907227 
93.697411 7295.891602 
131.299866 9123.048828 
137.024277 9785.873047 
138.031052 59248.992188 
182.021225 75533.609375 
197.060532 59267.71875 
216.078934 75562.460938 
240.078934 646535.75 
242.058792 93409.835938 
255.10257 222923.421875 
257.082031 144800.203125 
284.069031 46224.277344 
299.092957 125849.710938 
315.04953 8005.550293 
343.082672 141001.484375 
348.769592 8044.20166 
END IONS

BEGIN IONS
RTINSECONDS=274.608002
CHARGE=1-
MSLEVEL=2
SMILES=O=C1Oc2c(c(C)c(Cl)c(OC)c2)Oc2c(Cl)c(O)c(Cl)c(C)c12
INCHI=InChI=1S/C16H11Cl3O5/c1-5-9-15(12(19)13(20)11(5)18)24-14-6(2)10(17)7(22-3)4-8(14)23-16(9)21/h4,20H,1-3H3
INCHIKEY=XEDMLQPKKYHCKK-UHFFFAOYSA-N
CLASS=Depsidones
ADDUCT=[2M-H]-
INSTRUMENT=Thermo Q-Exactive Focus
PRECURSOR_MZ=774.9266
COMPOUND_NAME=Dechlorodiploicin
ION_MODE=negative
FORMULA=C16H11Cl3O5
70.41571 196880.890625 
76.143494 63502.273438 
91.979164 166527.125 
185.431091 53572.667969 
243.993179 186757.265625 
257.00177 297719.90625 
291.970947 571952.9375 
292.978607 702063.8125 
307.965546 1381235.375 
327.947052 6995601.0 
335.960175 2931841.25 
336.968689 985258.5625 
350.98349 2983225.75 
386.960358 8867733.0 
END IONS

BEGIN IONS
RTINSECONDS=95.200302
CHARGE=1-
MSLEVEL=2
SMILES=O=C(O)c1c(C)c(Cl)c(O)cc1O
INCHI=InChI=1S/C8H7ClO4/c1-3-6(8(12)13)4(10)2-5(11)7(3)9/h2,10-11H,1H3,(H,12,13)
INCHIKEY=GZQRFGTYUAPOOM-UHFFFAOYSA-N
CLASS=Cleavage Products of Depsides and Depsidones
ADDUCT=[M-H]-
INSTRUMENT=Thermo Q-Exactive Focus
PRECURSOR_MZ=200.9955
COMPOUND_NAME=5-Chloroorsellinic acid
ION_MODE=negative
FORMULA=C8H7ClO4
65.038254 2032412.75 
91.980873 3850749.25 
93.033333 122564848.0 
121.028404 30917690.0 
139.039169 183455.9375 
157.005447 73864720.0 
END IONS

BEGIN IONS
RTINSECONDS=157.876007
CHARGE=1-
MSLEVEL=2
SMILES=O=C1c2c(C)cc(OC)c(C=O)c2Oc2c(O1)c(c(c1c2C(O)OC1=O)O)C
INCHI=InChI=1S/C19H14O9/c1-6-4-9(25-3)8(5-20)15-10(6)17(22)27-14-7(2)13(21)11-12(16(14)26-15)19(24)28-18(11)23/h4-5,19,21,24H,1-3H3
INCHIKEY=SKCUFZLDTAYNBZ-UHFFFAOYSA-N
CLASS=Depsidones
ADDUCT=[2M-2H+Na]-
INSTRUMENT=Thermo Q-Exactive Focus
PRECURSOR_MZ=793.1017
COMPOUND_NAME=Stictic acid
ION_MODE=negative
FORMULA=C19H14O9
55.017708 8909.362305 
62.632198 8426.693359 
79.356506 8583.932617 
86.742073 9732.677734 
91.980118 10988.490234 
110.85791 8934.456055 
136.534454 8840.743164 
141.881714 10758.189453 
149.023727 19734.380859 
209.060669 15778.326172 
210.069077 24228.980469 
226.063965 24634.162109 
238.063721 26948.412109 
254.058594 66993.890625 
267.030182 77659.609375 
282.05365 62713.316406 
297.077118 67438.609375 
341.067627 71072.328125 
362.667175 9861.52832 
385.056885 90617.5 
410.105133 9659.441406 
456.724426 9888.685547 
458.731934 9232.485352 
515.156189 9016.264648 
691.705505 10961.905273 
END IONS

BEGIN IONS
RTINSECONDS=235.328003
CHARGE=1-
MSLEVEL=2
SMILES=CCCCCC1=CC(=O)C=C(OC)C21C(=O)Oc1c2c(c(c(c1)O)C(=O)O)CCCCC
INCHI=InChI=1S/C25H30O7/c1-4-6-8-10-15-12-16(26)13-20(31-3)25(15)22-17(11-9-7-5-2)21(23(28)29)18(27)14-19(22)32-24(25)30/h12-14,27H,4-11H2,1-3H3,(H,28,29)
INCHIKEY=LOGCRVAWKCZXQM-UHFFFAOYSA-N
CLASS=Depsones
ADDUCT=[M-H+CH3OH]-
INSTRUMENT=Thermo Q-Exactive Focus
PRECURSOR_MZ=473.2175
COMPOUND_NAME=Picrolichenic acid
ION_MODE=negative
FORMULA=C25H30O7
60.990726 337959.4375 
65.00193 756203.9375 
75.007355 2618131.5 
91.982742 739683.75 
97.028168 860835.875 
97.99115 308713.0 
149.765884 315962.3125 
153.99202 28581.455078 
170.669434 31253.867188 
173.308258 31923.025391 
174.975601 27575.326172 
210.03067 293866.65625 
267.102783 6314572.5 
281.118134 1103696.75 
282.126495 1814626.625 
287.201996 551799.625 
338.189484 1065311.25 
339.198547 716805.5 
353.211365 301573.25 
397.202698 463804.375 
429.228882 4111299.5 
429.287231 37351.546875 
456.003998 5910.666504 
END IONS

BEGIN IONS
RTINSECONDS=136.041
CHARGE=1-
MSLEVEL=2
SMILES=Cc1cc(O)cc(O)c1C(=O)Oc1cc(O)c(C(=O)OC[C@@H](O)[C@@H](O)CO)c(C)c1
INCHI=InChI=1S/C20H22O10/c1-9-3-11(22)5-13(23)18(9)20(28)30-12-4-10(2)17(14(24)6-12)19(27)29-8-16(26)15(25)7-21/h3-6,15-16,21-26H,7-8H2,1-2H3/t15-,16+/m0/s1
INCHIKEY=BUBBEHCXSMCYNY-JKSUJKDBSA-N
CLASS=Depsides (Didepsides)
ADDUCT=[M-2H+Na]-
INSTRUMENT=Thermo Q-Exactive Focus
PRECURSOR_MZ=443.0954
COMPOUND_NAME=Erythrin
ION_MODE=negative
FORMULA=C20H22O10
57.505768 8104.425293 
58.206192 8331.582031 
70.207726 7987.776367 
79.053909 10869.700195 
105.033226 45608.828125 
107.077705 8458.703125 
123.043678 106011.28125 
149.023331 219677.5 
149.059723 11833.482422 
167.033936 257416.765625 
189.016388 33974.3125 
218.761978 10806.24707 
232.150497 6699.480469 
253.072327 25245.130859 
286.64325 7990.26709 
291.793457 6158.554199 
306.599854 8024.54248 
321.03894 37263.09375 
339.049622 19278.720703 
351.950378 6661.339844 
403.7966 6023.475586 
405.405457 10273.487305 
414.973053 6239.246094 
466.764404 5833.989258 
END IONS

BEGIN IONS
RTINSECONDS=255.871994
CHARGE=1-
MSLEVEL=2
SMILES=Oc1cc(OC(=O)c2c(O)cc(O)cc2CC(=O)CCCCC)cc(CCCCC)c1C(=O)O
INCHI=InChI=1S/C26H32O8/c1-3-5-7-9-16-13-20(15-22(30)23(16)25(31)32)34-26(33)24-17(12-19(28)14-21(24)29)11-18(27)10-8-6-4-2/h12-15,28-30H,3-11H2,1-2H3,(H,31,32)
INCHIKEY=VZPLPGICHZXOCQ-UHFFFAOYSA-N
CLASS=Depsides (Didepsides)
ADDUCT=[M-H]-
INSTRUMENT=Thermo Q-Exactive Focus
PRECURSOR_MZ=471.2019
COMPOUND_NAME=Olivetoric acid
ION_MODE=negative
FORMULA=C26H32O8
81.033127 164864.578125 
91.97953 276947.71875 
105.033127 3431175.25 
123.043785 2623692.5 
135.116791 2672522.0 
137.09584 3982673.5 
146.03653 2763826.0 
149.023315 17168062.0 
179.106461 57716340.0 
205.08609 3647011.25 
223.097107 86621864.0 
224.100449 4313694.5 
247.097214 22788274.0 
265.107788 14204740.0 
END IONS

BEGIN IONS
RTINSECONDS=169.018005
CHARGE=1-
MSLEVEL=2
SMILES=Cc1cc(=O)c2c(o1)c(c(c(c2O)C)O)Cl
INCHI=InChI=1S/C11H9ClO4/c1-4-3-6(13)7-9(14)5(2)10(15)8(12)11(7)16-4/h3,14-15H,1-2H3
INCHIKEY=OFIWISPGMYFUGQ-UHFFFAOYSA-N
CLASS=Chromanes and Chromones
ADDUCT=[M-H]-
INSTRUMENT=Thermo Q-Exactive Focus
PRECURSOR_MZ=239.0111
COMPOUND_NAME=Rupicolin (sordidone)
ION_MODE=negative
FORMULA=C11H9ClO4
54.232853 945501.625 
83.012321 13448850.0 
109.028038 702246.0625 
119.012466 2293793.75 
135.043747 362749.84375 
147.044022 6595495.5 
175.038391 17694778.0 
203.034393 4961661.0 
END IONS

BEGIN IONS
RTINSECONDS=275.31601
CHARGE=1-
MSLEVEL=2
SMILES=Oc1c(C(=O)Oc2cc(O)c(C(=O)O)c(CCCCC)c2)c(CC(=O)CCC)cc(OC)c1
INCHI=InChI=1S/C25H30O8/c1-4-6-7-9-15-11-19(14-20(27)22(15)24(29)30)33-25(31)23-16(10-17(26)8-5-2)12-18(32-3)13-21(23)28/h11-14,27-28H,4-10H2,1-3H3,(H,29,30)
INCHIKEY=PKLMGLZTAHCGBQ-UHFFFAOYSA-N
CLASS=Depsides (Didepsides)
ADDUCT=[2M-2H+Na]-
INSTRUMENT=Thermo Q-Exactive Focus
PRECURSOR_MZ=937.3623
COMPOUND_NAME=Glomelliferic acid
ION_MODE=negative
FORMULA=C25H30O8
91.017319 29152.585938 
91.979942 16918.775391 
96.438103 12988.99707 
135.116638 24511.429688 
137.095779 25861.988281 
161.096085 69769.648438 
179.106491 546078.4375 
205.086243 1559190.375 
223.097 1391682.25 
223.119751 18255.109375 
233.081512 44294.40625 
296.420319 12358.938477 
299.165771 33675.183594 
312.569611 11662.501953 
313.930969 11299.68457 
348.057098 13607.045898 
364.445953 11742.345703 
369.208618 37385.515625 
387.529114 11788.793945 
389.552124 11911.045898 
396.443024 10798.057617 
451.17392 23888.345703 
457.186462 164739.90625 
469.184692 97221.710938 
479.170563 23657.234375 
494.455322 10068.019531 
528.450928 11371.974609 
551.722351 14700.856445 
559.951355 11565.080078 
593.837952 9835.923828 
599.561523 13970.290039 
703.274109 315459.1875 
703.397766 16967.494141 
720.170105 12083.464844 
789.293945 11363.568359 
794.216003 13526.723633 
835.24115 10635.232422 
910.164856 11958.931641 
953.358826 13605.918945 
END IONS

BEGIN IONS
RTINSECONDS=334.541992
CHARGE=1-
MSLEVEL=2
SMILES=CCCCCCCCCCCCC[C@@H]1[C@@H](C(=O)O)[C@H](C)C(=O)O1
INCHI=InChI=1S/C19H34O4/c1-3-4-5-6-7-8-9-10-11-12-13-14-16-17(18(20)21)15(2)19(22)23-16/h15-17H,3-14H2,1-2H3,(H,20,21)/t15-,16+,17-/m0/s1
INCHIKEY=WLGALFYTFVOQPY-BBWFWOEESA-N
CLASS=Paraconic acids
ADDUCT=[2M-H]-
INSTRUMENT=Thermo Q-Exactive Focus
PRECURSOR_MZ=651.4836
COMPOUND_NAME=Roccellaric acid
ION_MODE=negative
FORMULA=C19H34O4
91.977684 1900437.875 
113.023392 5642148.5 
281.249207 26682972.0 
325.239441 33475360.0 
END IONS

BEGIN IONS
RTINSECONDS=254.595001
CHARGE=1-
MSLEVEL=2
SMILES=CCCCCC1=CC(=O)C=C(OC)C21C(=O)Oc1c2c(c(c(c1)O)C(=O)O)CCCCC
INCHI=InChI=1S/C25H30O7/c1-4-6-8-10-15-12-16(26)13-20(31-3)25(15)22-17(11-9-7-5-2)21(23(28)29)18(27)14-19(22)32-24(25)30/h12-14,27H,4-11H2,1-3H3,(H,28,29)
INCHIKEY=LOGCRVAWKCZXQM-UHFFFAOYSA-N
CLASS=Depsones
ADDUCT=[M-H]-
INSTRUMENT=Thermo Q-Exactive Focus
PRECURSOR_MZ=441.1913
COMPOUND_NAME=Picrolichenic acid
ION_MODE=negative
FORMULA=C25H30O7
122.036324 285033.8125 
164.083481 2120126.75 
205.085571 2299288.5 
218.094391 3978421.25 
239.071411 2845228.5 
267.102386 9197682.0 
281.118591 10210701.0 
282.126953 8384725.5 
283.097748 2840700.25 
296.14267 2998083.25 
338.18927 65090064.0 
353.213654 2705624.75 
382.179352 4809954.5 
397.202362 65819940.0 
END IONS

BEGIN IONS
RTINSECONDS=282.817993
CHARGE=1-
MSLEVEL=2
SMILES=CCCCCc1cc(cc(c1C(=O)Oc1cc(c(c(c1)CCCCC)C(=O)O)O)O)O
INCHI=InChI=1S/C24H30O7/c1-3-5-7-9-15-11-17(25)13-19(26)22(15)24(30)31-18-12-16(10-8-6-4-2)21(23(28)29)20(27)14-18/h11-14,25-27H,3-10H2,1-2H3,(H,28,29)
INCHIKEY=BEFYPHLCGVCBFF-UHFFFAOYSA-N
CLASS=Depsides (Didepsides)
ADDUCT=[2M-2H+Na]-
INSTRUMENT=Thermo Q-Exactive Focus
PRECURSOR_MZ=881.3724
COMPOUND_NAME=Anziaic acid
ION_MODE=negative
FORMULA=C24H30O7
62.285229 12703.064453 
63.251945 12401.116211 
71.188263 14737.310547 
78.70179 12312.098633 
91.017365 36366.101562 
101.026009 13670.373047 
135.116745 27626.273438 
137.096039 29968.380859 
161.096146 39303.339844 
179.106628 738286.125 
186.428467 17275.566406 
205.086426 649010.8125 
223.096954 1896732.0 
243.395416 13080.362305 
244.977585 15468.350586 
265.015106 10543.75293 
305.435242 10145.573242 
309.754395 10270.240234 
313.015533 9209.046875 
329.319061 9322.023438 
363.258728 15079.769531 
379.541718 12083.699219 
405.71698 8422.123047 
429.191742 15486.207031 
433.165039 11484.367188 
451.174316 137626.125 
469.183746 196300.84375 
472.623047 11701.145508 
480.346893 8213.924805 
527.475098 14745.114258 
546.685608 9334.108398 
551.480591 10056.773438 
627.675415 15026.322266 
657.269348 28919.509766 
658.951721 9483.453125 
675.278564 227064.53125 
684.610107 16530.964844 
706.487976 9633.283203 
767.001892 10617.575195 
775.427429 10644.446289 
END IONS

BEGIN IONS
RTINSECONDS=275.695007
CHARGE=1-
MSLEVEL=2
SMILES=CC(=O)CCCCCCCCCCCCC[C@@H]1C(C(C)C(=O)O1)C(=O)O
INCHI=InChI=1S/C21H36O5/c1-16(22)14-12-10-8-6-4-3-5-7-9-11-13-15-18-19(20(23)24)17(2)21(25)26-18/h17-19H,3-15H2,1-2H3,(H,23,24)/t17?,18-,19?/m1/s1
INCHIKEY=SPGPUDJMXMJNCU-JLAWEPINSA-N
CLASS=Paraconic acids
ADDUCT=[M-H]-
INSTRUMENT=Thermo Q-Exactive Focus
PRECURSOR_MZ=367.2484
COMPOUND_NAME=Dihydromuronic acid
ION_MODE=negative
FORMULA=C21H36O5
57.033218 3784451.5 
69.033089 655527.5625 
91.976585 3989516.75 
94.103737 53417.355469 
113.022232 1053982.125 
161.201523 228725.25 
279.269073 47131368.0 
323.259064 12430395.0 
END IONS

BEGIN IONS
RTINSECONDS=220.263
CHARGE=1-
MSLEVEL=2
SMILES=Cc1cc(c2c(c1)C(=O)C13C4C5C(C1C(=O)C1=C(c6c(cc(cc6C(=O)C51C(C4O)C(=O)C3=C2O)C)O)O)O)O
INCHI=InChI=1S/C30H22O10/c1-7-3-9-13(11(31)5-7)21(33)17-25(37)20-23(35)15-16-24(36)19(29(15,17)27(9)39)26(38)18-22(34)14-10(28(40)30(16,18)20)4-8(2)6-12(14)32/h3-6,15-16,19-20,23-24,31-36H,1-2H3
INCHIKEY=QFDPVUTXKUGISP-UHFFFAOYSA-N
CLASS=Quinones
ADDUCT=[2M-2H+Na]-
INSTRUMENT=Thermo Q-Exactive Focus
PRECURSOR_MZ=1105.2167
COMPOUND_NAME=Rugulosin
ION_MODE=negative
FORMULA=C30H22O10
81.018066 12290.630859 
89.868103 10951.399414 
91.976059 24915.728516 
101.968414 10740.333984 
125.68618 11779.167969 
127.153122 10658.383789 
201.056015 38046.117188 
225.055908 117898.445312 
253.051132 191203.765625 
254.058823 126721.96875 
269.046356 1263986.5 
270.054047 358637.0625 
271.061981 434723.6875 
291.028534 306558.59375 
309.039124 24574.222656 
345.156769 9115.737305 
360.616058 9740.698242 
375.986908 9103.551758 
403.978149 9772.630859 
426.757843 11712.703125 
435.086823 10285.261719 
457.070709 28031.976562 
475.082001 14183.827148 
483.084625 12967.922852 
493.093018 17913.121094 
496.920288 13826.729492 
519.105469 22327.640625 
535.722656 13942.081055 
549.532349 8640.99707 
554.85907 7099.542969 
563.097839 1936705.0 
727.425537 15051.186523 
744.618591 8997.169922 
849.615417 6993.992676 
882.650818 11988.157227 
END IONS

BEGIN IONS
RTINSECONDS=214.227005
CHARGE=1-
MSLEVEL=2
SMILES=Oc1c(Oc2cc(OC)cc3c2C(=O)OC3(O)CCCC)c(CCCCC)c(c(c1)O)C(=O)O
INCHI=InChI=1S/C25H30O9/c1-4-6-8-9-15-20(23(28)29)17(26)13-18(27)22(15)33-19-12-14(32-3)11-16-21(19)24(30)34-25(16,31)10-7-5-2/h11-13,26-27,31H,4-10H2,1-3H3,(H,28,29)
INCHIKEY=BWRBGHBJBQFFAW-UHFFFAOYSA-N
CLASS=Diphenylethers
ADDUCT=[2M-2H+Na]-
INSTRUMENT=Thermo Q-Exactive Focus
PRECURSOR_MZ=969.3521
COMPOUND_NAME=Lobariolcarboxylic acid (Lobarin)
ION_MODE=negative
FORMULA=C25H30O9
67.305458 8926.685547 
81.728439 10478.043945 
84.331741 11254.060547 
84.812057 9977.526367 
91.980927 22165.3125 
93.958603 9378.787109 
125.072189 11174.261719 
176.084076 13401.957031 
192.079086 25243.492188 
193.086441 54899.390625 
207.102417 145966.953125 
220.074493 21270.451172 
221.082153 87727.796875 
247.095367 16090.829102 
259.059174 20470.101562 
297.077576 13333.820312 
312.100769 17195.667969 
319.095886 21497.431641 
327.124176 60115.410156 
349.107544 26392.109375 
381.135254 30026.115234 
383.187531 32315.59375 
384.194794 42128.417969 
407.184601 87369.710938 
411.181946 295840.5625 
433.164001 854919.0 
451.174683 297565.84375 
473.182739 48797.113281 
477.153809 32070.707031 
495.164795 226987.015625 
578.314392 6573.59668 
783.990112 7962.17334 
793.747253 13288.388672 
894.567261 12012.837891 
898.156067 7156.463379 
935.048035 13398.459961 
END IONS

BEGIN IONS
RTINSECONDS=13.9372
CHARGE=1-
MSLEVEL=2
SMILES=OC[C@@H](O)[C@@H](O)C(O)[C@H](O)[C@H](O)CO
INCHI=InChI=1S/C7H16O7/c8-1-3(10)5(12)7(14)6(13)4(11)2-9/h3-14H,1-2H2/t3-,4-,5-,6-/m1/s1
INCHIKEY=OXQKEKGBFMQTML-KVTDHHQDSA-N
CLASS="Polyols, Monosaccharides, Carbohydrates"
ADDUCT=[M-H]-
INSTRUMENT=Thermo Q-Exactive Focus
PRECURSOR_MZ=211.0818
COMPOUND_NAME=Volemitol
ION_MODE=negative
FORMULA=C7H16O7
59.012371 8801588.0 
71.012321 7000565.5 
73.028114 3029303.25 
85.028122 1762187.75 
89.022942 6918411.0 
101.022835 9226532.0 
113.022827 1411743.25 
131.034073 1149906.125 
180.148758 1047774.875 
193.071091 3731232.25 
END IONS

BEGIN IONS
RTINSECONDS=107.385002
CHARGE=1-
MSLEVEL=2
SMILES=Oc1cc2c(c3c1C(=O)OC3)c1c(O)cc(C)c(C(=O)O)c1o2
INCHI=InChI=1S/C16H10O7/c1-5-2-7(17)13-12-6-4-22-16(21)11(6)8(18)3-9(12)23-14(13)10(5)15(19)20/h2-3,17-18H,4H2,1H3,(H,19,20)
INCHIKEY=QZYZPZAPRHESDA-UHFFFAOYSA-N
CLASS=Dibenzofuranes
ADDUCT=[2M-H]-
INSTRUMENT=Thermo Q-Exactive Focus
PRECURSOR_MZ=627.0775
COMPOUND_NAME=Porphyrilic acid
ION_MODE=negative
FORMULA=C16H10O7
53.639076 298367.34375 
62.513218 184628.96875 
92.692238 355645.875 
93.528679 231219.921875 
103.871857 332451.59375 
124.032906 407096.5625 
130.564651 361009.03125 
144.227142 341020.65625 
165.810104 340580.3125 
182.044495 271703.84375 
197.060455 4601480.0 
212.114059 234694.0 
225.055618 18747030.0 
234.734177 202961.375 
262.186676 204084.125 
269.045929 38046636.0 
286.508545 141788.359375 
292.394318 43094.757812 
313.036011 24961184.0 
358.007812 3193.341064 
374.683746 41227.179688 
434.631317 65669.023438 
442.91156 41374.699219 
464.711273 382098.0 
471.312073 144329.0625 
488.200409 8994.473633 
494.964691 242458.25 
530.403381 8843.09082 
536.064514 3219.97583 
554.803162 191853.09375 
END IONS

BEGIN IONS
RTINSECONDS=126.487999
CHARGE=1-
MSLEVEL=2
SMILES=O=C(O)c1c(CCC)cc(O)cc1O
INCHI=InChI=1S/C10H12O4/c1-2-3-6-4-7(11)5-8(12)9(6)10(13)14/h4-5,11-12H,2-3H2,1H3,(H,13,14)
INCHIKEY=RIVVNGIVVYEIRS-UHFFFAOYSA-N
CLASS=Cleavage Products of Depsides and Depsidones
ADDUCT=[M-H]-
INSTRUMENT=Thermo Q-Exactive Focus
PRECURSOR_MZ=195.0657
COMPOUND_NAME=Divaric acid
ION_MODE=negative
FORMULA=C10H12O4
66.344925 1631849.25 
79.05397 4232852.5 
81.033295 15806009.0 
91.982903 3214049.0 
107.085625 70521984.0 
109.064819 69602528.0 
122.036163 5974748.0 
136.051971 235251.875 
151.075699 478964320.0 
END IONS

BEGIN IONS
RTINSECONDS=234.791
CHARGE=1-
MSLEVEL=2
SMILES=CC(=O)c1c(cc2c(c1O)C(=O)c1c(cc(cc1C2=O)O)O)O
INCHI=InChI=1S/C16H10O7/c1-5(17)11-10(20)4-8-13(15(11)22)16(23)12-7(14(8)21)2-6(18)3-9(12)19/h2-4,18-20,22H,1H3
INCHIKEY=OVWIVSWXKVYPAG-UHFFFAOYSA-N
CLASS=Quinones
ADDUCT=[2M-H]-
INSTRUMENT=Thermo Q-Exactive Focus
PRECURSOR_MZ=627.0775
COMPOUND_NAME=Haematommone
ION_MODE=negative
FORMULA=C16H10O7
54.082638 6684.196777 
55.733768 5920.374023 
57.679928 6262.845703 
86.16066 6821.536621 
93.766335 6606.967773 
96.674606 7883.993164 
106.194115 6887.895996 
110.044243 7537.488281 
144.780518 6656.46582 
157.452835 7672.589355 
200.069733 4610.675781 
242.022507 13170.637695 
269.045929 32656.546875 
270.017639 28097.681641 
285.041779 28994.261719 
295.026459 24303.326172 
297.004913 31714.197266 
313.036469 1604491.875 
333.546936 7836.456055 
360.685638 3305.309082 
477.088287 7779.586914 
519.533875 6897.410645 
END IONS

BEGIN IONS
RTINSECONDS=282.423004
CHARGE=1-
MSLEVEL=2
SMILES=CCCCCCCCCCCC1[C@H](C(=O)O)C(C)C(=O)O1
INCHI=InChI=1S/C17H30O4/c1-3-4-5-6-7-8-9-10-11-12-14-15(16(18)19)13(2)17(20)21-14/h13-15H,3-12H2,1-2H3,(H,18,19)/t13?,14?,15-/m1/s1
INCHIKEY=PKXAQFKGSXYQJX-YMAMQOFZSA-N
CLASS=Paraconic acids
ADDUCT=[M-H+CH3OH]-
INSTRUMENT=Thermo Q-Exactive Focus
PRECURSOR_MZ=329.2328
COMPOUND_NAME=Nephrosteranic acid
ION_MODE=negative
FORMULA=C17H30O4
69.033356 29055.029297 
71.012695 6410.291504 
85.028481 8589.640625 
91.545364 6766.15625 
113.023399 265588.71875 
125.616806 6735.566406 
162.228714 6401.438477 
166.331665 6117.228027 
194.77739 5236.075195 
217.670181 5598.224609 
220.16156 4698.419434 
236.821503 5190.798828 
253.217682 34572.558594 
280.264709 5630.657715 
280.664246 5328.340332 
297.20816 33791.117188 
END IONS

BEGIN IONS
RTINSECONDS=169.610001
CHARGE=1-
MSLEVEL=2
SMILES=Oc1c(C(=O)Oc2cc(C)c(C(=O)O)c(O)c2)c(C)cc(O)c1
INCHI=InChI=1S/C16H14O7/c1-7-3-9(17)5-11(18)14(7)16(22)23-10-4-8(2)13(15(20)21)12(19)6-10/h3-6,17-19H,1-2H3,(H,20,21)
INCHIKEY=HEMSJKZDHNSSEW-UHFFFAOYSA-N
CLASS=Depsides (Didepsides)
ADDUCT=[2M-2H+Na]-
INSTRUMENT=Thermo Q-Exactive Focus
PRECURSOR_MZ=657.122
COMPOUND_NAME=Lecanoric acid
ION_MODE=negative
FORMULA=C16H14O7
52.318069 32483.740234 
77.312164 32555.958984 
79.05381 44509.46875 
91.976028 40887.851562 
105.033241 187273.328125 
123.043533 640686.6875 
144.793472 38840.980469 
149.023254 1224303.0 
167.033905 3961803.75 
188.521484 22675.203125 
210.888199 39309.160156 
235.146027 20896.873047 
241.986267 35201.53125 
256.046997 23817.804688 
282.50528 20175.632812 
287.749512 20282.642578 
317.067078 52736.664062 
333.581207 21815.345703 
339.048798 302300.3125 
342.297882 25888.824219 
357.059174 266145.78125 
387.79538 44173.140625 
391.049774 15497.357422 
392.6604 17136.486328 
394.645508 16733.908203 
445.279572 35637.253906 
452.263153 3363.526855 
469.93866 11798.657227 
489.081665 84643.039062 
504.253418 11093.049805 
507.090607 330086.71875 
559.263855 16842.943359 
636.079041 22677.849609 
637.454773 21271.232422 
673.269531 18818.189453 
END IONS

BEGIN IONS
RTINSECONDS=13.7737
CHARGE=1-
MSLEVEL=2
SMILES=OC[C@@H](O)[C@@H](O)[C@H](O)[C@H](O)CO
INCHI=InChI=1S/C6H14O6/c7-1-3(9)5(11)6(12)4(10)2-8/h3-12H,1-2H2/t3-,4-,5-,6-/m1/s1
INCHIKEY=FBPFZTCFMRRESA-KVTDHHQDSA-N
CLASS="Polyols, Monosaccharides, Carbohydrates"
ADDUCT=[M-H]-
INSTRUMENT=Thermo Q-Exactive Focus
PRECURSOR_MZ=181.0712
COMPOUND_NAME=D-Mannitol
ION_MODE=negative
FORMULA=C6H14O6
59.012566 15049454.0 
71.012627 17528194.0 
73.028275 3916935.25 
85.028328 5293466.5 
89.0233 11848304.0 
101.023247 19969180.0 
131.033829 231239.46875 
163.06044 3985399.0 
END IONS

BEGIN IONS
RTINSECONDS=174.181
CHARGE=1-
MSLEVEL=2
SMILES=CCCCCc1cc(cc(c1C(=O)O)O)O
INCHI=InChI=1S/C12H16O4/c1-2-3-4-5-8-6-9(13)7-10(14)11(8)12(15)16/h6-7,13-14H,2-5H2,1H3,(H,15,16)
INCHIKEY=SXFKFRRXJUJGSS-UHFFFAOYSA-N
CLASS=Cleavage Products of Depsides and Depsidones
ADDUCT=[M-H]-
INSTRUMENT=Thermo Q-Exactive Focus
PRECURSOR_MZ=223.097
COMPOUND_NAME=Olivetolcarboxylic acid
ION_MODE=negative
FORMULA=C12H16O4
50.337902 1923860.375 
79.05394 4166365.5 
81.033287 17523942.0 
91.983086 3590436.0 
122.03624 6193423.5 
135.116943 54899828.0 
137.096222 75921392.0 
179.107086 455012224.0 
END IONS

BEGIN IONS
RTINSECONDS=341.613007
CHARGE=1-
MSLEVEL=2
SMILES=CC(C)(C)CCCCCCCCCC1C(C(=O)O)C(C(=O)O1)C
INCHI=InChI=1S/C19H34O4/c1-14-16(17(20)21)15(23-18(14)22)12-10-8-6-5-7-9-11-13-19(2,3)4/h14-16H,5-13H2,1-4H3,(H,20,21)
INCHIKEY=NRFWTRPHJATQOB-UHFFFAOYSA-N
CLASS=Paraconic acids
ADDUCT=[2M-2H+Na]-
INSTRUMENT=Thermo Q-Exactive Focus
PRECURSOR_MZ=673.4655
COMPOUND_NAME=Neodihydroprotolichesterinic acid
ION_MODE=negative
FORMULA=C19H34O4
52.175022 66799.765625 
58.222763 67939.0 
89.885086 80794.117188 
91.978325 125231.945312 
113.023506 96308.671875 
117.560379 87415.296875 
137.129486 74882.125 
154.095551 81431.632812 
164.882324 74307.9375 
217.6465 68735.78125 
229.019974 50907.441406 
230.78598 69072.6875 
233.194427 75697.976562 
268.010681 74990.546875 
274.522461 79618.460938 
281.24942 1377989.75 
291.0513 67658.523438 
321.800659 67868.484375 
324.643066 60216.65625 
325.239441 887675.9375 
389.552521 73623.476562 
395.819214 71675.453125 
396.354889 10126.994141 
423.063416 72015.117188 
427.259674 83192.0 
453.242249 52381.519531 
461.253235 18200.195312 
470.497498 57744.261719 
482.461548 60180.683594 
488.11441 10241.638672 
526.340027 53963.136719 
557.608276 73039.367188 
566.951477 46156.070312 
584.532959 7894.541016 
585.485046 87998.132812 
598.576416 8212.145508 
629.479431 122411.757812 
693.635925 60254.175781 
701.687134 65129.65625 
END IONS

BEGIN IONS
RTINSECONDS=207.804993
CHARGE=1-
MSLEVEL=2
SMILES=CCCCCCCCCC[C@H]1C[C@H]([C@@H](C(=O)O1)C)C(=O)O
INCHI=InChI=1S/C17H30O4/c1-3-4-5-6-7-8-9-10-11-14-12-15(16(18)19)13(2)17(20)21-14/h13-15H,3-12H2,1-2H3,(H,18,19)/t13-,14-,15+/m0/s1
INCHIKEY=SRMPRRDLILJEAW-SOUVJXGZSA-N
CLASS=Acids
ADDUCT=[M-H+HCOOH]-
INSTRUMENT=Thermo Q-Exactive Focus
PRECURSOR_MZ=343.2121
COMPOUND_NAME=Acaranoic acid
ION_MODE=negative
FORMULA=C17H30O4
51.897743 6221.957031 
71.301613 12653.477539 
85.027817 15790.042969 
112.907242 12456.539062 
112.954956 12836.979492 
113.087227 12741.100586 
117.847801 11607.709961 
172.624359 5418.534668 
191.917679 6687.086426 
223.207291 10181.745117 
253.21785 516321.3125 
267.233948 12164.638672 
297.208038 887481.0 
311.224731 18335.986328 
321.641815 15322.972656 
363.411926 6472.759277 
END IONS

BEGIN IONS
RTINSECONDS=316.19101
CHARGE=1-
MSLEVEL=2
SMILES=CCCCCCCCCCCCCCC(C(=O)O)C(CC(=O)OC)(C(=O)O)O
INCHI=InChI=1S/C21H38O7/c1-3-4-5-6-7-8-9-10-11-12-13-14-15-17(19(23)24)21(27,20(25)26)16-18(22)28-2/h17,27H,3-16H2,1-2H3,(H,23,24)(H,25,26)
INCHIKEY=HMJJWFFZRCLIDN-UHFFFAOYSA-N
CLASS=Acids
ADDUCT=[2M-H]-
INSTRUMENT=Thermo Q-Exactive Focus
PRECURSOR_MZ=803.5157
COMPOUND_NAME=Caperatic acid
ION_MODE=negative
FORMULA=C21H38O7
73.027992 7973961.5 
81.466774 484830.375 
87.007217 2238660.25 
112.986946 1478794.875 
124.015182 3098017.25 
137.714676 426409.34375 
145.013153 2204717.0 
154.666473 519477.53125 
202.06189 396166.59375 
237.221924 1479464.125 
253.253006 17369296.0 
255.233353 1350096.25 
263.238068 4105125.0 
281.249146 1576425.0 
283.22757 20205808.0 
307.227692 46768212.0 
339.254486 1346435.875 
351.218231 145884.125 
369.229065 1270362.75 
384.250885 379975.84375 
401.253906 14236255.0 
405.472595 17685.216797 
413.643311 57366.710938 
451.169006 20533.082031 
456.985138 456748.1875 
587.22345 87378.40625 
590.993835 16309.506836 
626.897278 59732.710938 
632.118103 54439.414062 
652.312195 30521.929688 
695.589233 568387.3125 
752.447632 88066.5625 
782.1698 17432.849609 
END IONS

BEGIN IONS
RTINSECONDS=258.179993
CHARGE=1-
MSLEVEL=2
SMILES=CC(=O)CCCCCCCCCCCCC[C@H]1[C@H](C(C)C(=O)O1)C(=O)O
INCHI=InChI=1S/C21H36O5/c1-16(22)14-12-10-8-6-4-3-5-7-9-11-13-15-18-19(20(23)24)17(2)21(25)26-18/h17-19H,3-15H2,1-2H3,(H,23,24)/t17?,18-,19-/m0/s1
INCHIKEY=SPGPUDJMXMJNCU-MNNMKWMVSA-N
CLASS=Paraconic acids
ADDUCT=[2M-2H+Na]-
INSTRUMENT=Thermo Q-Exactive Focus
PRECURSOR_MZ=757.4867
COMPOUND_NAME=Dihydropertusaric
ION_MODE=negative
FORMULA=C21H36O5
55.69062 20206.849609 
57.617378 14736.561523 
67.560921 15486.024414 
73.207024 20530.802734 
88.69529 18951.072266 
93.498955 17350.263672 
113.023666 52905.433594 
120.252045 16757.144531 
148.017929 7611.192383 
185.194321 8207.976562 
195.197433 18799.851562 
199.613022 19125.232422 
232.950684 17170.980469 
263.239075 23117.333984 
277.254425 38541.148438 
279.270386 158765.3125 
299.235931 35930.957031 
323.260376 330528.03125 
343.226379 158915.09375 
345.243073 93556.304688 
367.250366 301097.15625 
387.215912 29445.050781 
389.232513 97063.398438 
424.566101 18449.03125 
445.949219 17531.830078 
480.108826 26036.017578 
540.065979 10075.237305 
688.553528 9061.743164 
END IONS

BEGIN IONS
RTINSECONDS=284.911987
CHARGE=1-
MSLEVEL=2
SMILES=CC(C[C@H](NC(=O)/C(=C\1/C(=C(c2ccccc2)C(=O)O1)O)/c1ccccc1)C(=O)O)C
INCHI=InChI=1S/C24H23NO6/c1-14(2)13-17(23(28)29)25-22(27)19(16-11-7-4-8-12-16)21-20(26)18(24(30)31-21)15-9-5-3-6-10-15/h3-12,14,17,26H,13H2,1-2H3,(H,25,27)(H,28,29)/b21-19-/t17-/m0/s1
INCHIKEY=ZQLBONJLBKDOLE-UFVMTTLYSA-N
CLASS=Pulvinic Acid Derivatives
ADDUCT=[2M-2H+Na]-
INSTRUMENT=Thermo Q-Exactive Focus
PRECURSOR_MZ=863.2792
COMPOUND_NAME=Norepanorin
ION_MODE=negative
FORMULA=C24H23NO6
64.427086 18017.408203 
76.29631 20169.023438 
77.258896 17975.708984 
91.979378 27067.130859 
101.038666 36053.21875 
117.03344 269447.5625 
130.086594 27497.830078 
157.053299 21713.677734 
175.093994 17919.152344 
191.086533 112908.617188 
203.086578 61912.167969 
214.123886 62418.503906 
247.076706 150330.171875 
248.084656 898753.9375 
262.064697 69046.984375 
263.071991 2355290.5 
285.05423 62105.492188 
332.166962 32600.230469 
333.150604 18468.605469 
353.599701 13516.866211 
354.145233 13476.421875 
376.156708 128381.179688 
420.146393 201582.53125 
424.117493 43159.128906 
431.236328 13575.03418 
442.128479 1036124.5625 
465.666687 12954.745117 
486.189575 19494.998047 
525.398926 13715.939453 
606.39856 12758.829102 
607.659546 13173.384766 
616.425232 14157.248047 
634.349426 22101.681641 
634.937561 14973.772461 
723.81189 14015.704102 
832.220825 22491.591797 
END IONS

BEGIN IONS
RTINSECONDS=130.186005
CHARGE=1-
MSLEVEL=2
SMILES=CC(=O)c1c(c2c(o1)cc1c(c2O)C(=O)C(=O)C(=C1O)OC)O
INCHI=InChI=1S/C15H10O8/c1-4(16)14-12(20)8-6(23-14)3-5-7(10(8)18)11(19)13(21)15(22-2)9(5)17/h3,17-18,20H,1-2H3
INCHIKEY=XKWWCTISHMFHJB-UHFFFAOYSA-N
CLASS=Quinones
ADDUCT=[M-H]-
INSTRUMENT=Thermo Q-Exactive Focus
PRECURSOR_MZ=317.0297
COMPOUND_NAME=Rhodocladonic acid
ION_MODE=negative
FORMULA=C15H10O8
65.762856 2153.279785 
91.978661 13185.060547 
112.98494 4361.986328 
134.000168 459687.9375 
190.027206 153478.234375 
202.999283 12753.459961 
218.022278 480576.65625 
230.994049 525003.4375 
245.010254 198310.0 
246.017975 92532.046875 
274.013031 1178429.25 
299.020233 81065.570312 
END IONS

BEGIN IONS
RTINSECONDS=275.084015
CHARGE=1-
MSLEVEL=2
SMILES=Oc1cc(OC(=O)c2c(O)cc(OC)cc2CCC(=O)CC)cc(CCCCC)c1C(=O)O
INCHI=InChI=1S/C25H30O8/c1-4-6-7-8-15-12-19(14-20(27)22(15)24(29)30)33-25(31)23-16(9-10-17(26)5-2)11-18(32-3)13-21(23)28/h11-14,27-28H,4-10H2,1-3H3,(H,29,30)
INCHIKEY=UCYIOAVHQGSYLP-UHFFFAOYSA-N
CLASS=Depsides (Didepsides)
ADDUCT=[2M-2H+Na]-
INSTRUMENT=Thermo Q-Exactive Focus
PRECURSOR_MZ=937.3623
COMPOUND_NAME=Miriquidic acid
ION_MODE=negative
FORMULA=C25H30O8
67.631294 9266.6875 
68.161713 10101.271484 
75.823593 9923.379883 
80.580353 10687.407227 
91.017548 25373.820312 
122.151367 11341.901367 
135.116516 21176.503906 
137.0961 19717.347656 
152.337372 12701.665039 
161.095642 55487.597656 
179.106628 457083.4375 
205.086411 1434017.0 
223.097137 1356745.375 
223.119858 25610.523438 
251.092239 15988.495117 
262.356445 11277.670898 
284.493073 10961.998047 
286.956604 10883.928711 
293.122253 11473.734375 
340.174744 10724.769531 
369.208191 30789.628906 
372.26178 10832.852539 
386.924591 12032.935547 
388.195221 10616.775391 
390.070801 12262.705078 
451.174622 19355.921875 
457.187439 98174.539062 
469.184662 124542.453125 
479.169525 15596.756836 
485.765381 11459.675781 
510.520294 10942.112305 
518.983643 10097.545898 
554.073975 11729.076172 
575.109253 15774.740234 
645.37085 10840.30957 
676.696167 4925.470215 
703.273743 280440.71875 
713.580566 11337.650391 
732.440186 10610.193359 
761.771362 7361.263672 
764.485229 11762.895508 
853.532166 11501.727539 
869.603638 12077.237305 
874.924683 7556.834473 
892.260925 10778.457031 
954.536621 11014.982422 
END IONS

BEGIN IONS
RTINSECONDS=294.196014
CHARGE=1-
MSLEVEL=2
SMILES=CCCCCc1cc(cc(c1C(=O)O)OC)OC(=O)c1c(cc(cc1CC(=O)CCCCC)OC)O
INCHI=InChI=1S/C28H36O8/c1-5-7-9-11-18-14-22(17-24(35-4)26(18)27(31)32)36-28(33)25-19(13-20(29)12-10-8-6-2)15-21(34-3)16-23(25)30/h14-17,30H,5-13H2,1-4H3,(H,31,32)
INCHIKEY=UANVCGQMNRTKGM-UHFFFAOYSA-N
CLASS=Depsides (Didepsides)
ADDUCT=[M+Cl]-
INSTRUMENT=Thermo Q-Exactive Focus
PRECURSOR_MZ=535.2099
COMPOUND_NAME=Confluentic acid
ION_MODE=negative
FORMULA=C28H36O8
56.775478 7310.397949 
58.074902 6288.794434 
79.08654 6309.351562 
93.61454 7124.896973 
110.718193 6708.344238 
122.036316 12228.391602 
178.099152 37932.324219 
180.543213 6759.145996 
193.122849 188122.171875 
209.887375 7810.494629 
228.890656 6773.103027 
237.113449 100257.21875 
261.113373 9141.336914 
294.686371 7604.690918 
295.573242 6619.693359 
298.158508 9642.384766 
299.318665 6290.818848 
342.608429 6105.329102 
396.838959 7272.186523 
430.152191 6498.776855 
446.90387 6790.878906 
498.568604 7754.4375 
END IONS

BEGIN IONS
RTINSECONDS=258.378998
CHARGE=1-
MSLEVEL=2
SMILES=C[C@H](O)CCCCCCCCCCCCC[C@@H]1C(C(=O)O)C(=C)C(=O)O1
INCHI=InChI=1S/C21H36O5/c1-16(22)14-12-10-8-6-4-3-5-7-9-11-13-15-18-19(20(23)24)17(2)21(25)26-18/h16,18-19,22H,2-15H2,1H3,(H,23,24)/t16-,18+,19?/m0/s1
INCHIKEY=UYUDMGMNHAKPEV-CXEJCQMISA-N
CLASS=Paraconic acids
ADDUCT=[M-H]-
INSTRUMENT=Thermo Q-Exactive Focus
PRECURSOR_MZ=367.2484
COMPOUND_NAME=Murolic acid
ION_MODE=negative
FORMULA=C21H36O5
55.776398 421719.15625 
57.033566 956911.125 
91.982925 851142.4375 
196.672974 550916.6875 
263.239441 1885521.125 
277.254456 1395845.625 
279.269836 521604.75 
295.265503 1164054.5 
323.26004 14475012.0 
END IONS

BEGIN IONS
RTINSECONDS=216.199997
CHARGE=1-
MSLEVEL=2
SMILES=O=C1c2c(C)cc(O)c(C=O)c2Oc2c(O1)c(c(c(c2C)C(=O)O)O)C
INCHI=InChI=1S/C18H14O8/c1-6-4-10(20)9(5-19)16-11(6)18(24)26-15-8(3)13(21)12(17(22)23)7(2)14(15)25-16/h4-5,20-21H,1-3H3,(H,22,23)
INCHIKEY=FOKAHYDSEWGOHN-UHFFFAOYSA-N
CLASS=Depsidones
ADDUCT=[2M-H]-
INSTRUMENT=Thermo Q-Exactive Focus
PRECURSOR_MZ=715.1299
COMPOUND_NAME=Virensic acid
ION_MODE=negative
FORMULA=C18H14O8
53.422432 298893.375 
68.996849 383228.8125 
91.054062 404244.40625 
91.983406 714899.875 
97.822258 316771.5 
98.240395 319044.46875 
150.031235 311095.28125 
151.039215 1383424.75 
163.039246 515853.46875 
213.05545 5180156.0 
229.0504 7101372.0 
241.086945 3601412.75 
254.058167 1644303.625 
257.045715 3009450.25 
269.082092 14912975.0 
285.077271 1424437.375 
295.061646 1166208.625 
313.071869 3992377.0 
339.008789 391220.96875 
339.051514 335358.34375 
357.061859 11953131.0 
391.872192 307809.6875 
397.084717 16988.015625 
410.772339 20121.435547 
412.355194 8187.467285 
449.259521 92287.601562 
490.416962 90614.09375 
491.179474 8022.498047 
493.206116 351750.375 
522.419678 42600.6875 
571.720703 83006.820312 
591.89386 115722.742188 
600.985046 18141.294922 
605.438232 45833.414062 
612.026245 116065.625 
737.427368 331335.46875 
742.583191 8791.963867 
END IONS

BEGIN IONS
RTINSECONDS=314.015015
CHARGE=1-
MSLEVEL=2
SMILES=O=C1C(=C(O)/C(=C(/c2ccccc2)\C(=O)N[C@@H](Cc2ccccc2)C(=O)OC)/O1)c1ccccc1
INCHI=InChI=1S/C28H23NO6/c1-34-27(32)21(17-18-11-5-2-6-12-18)29-26(31)23(20-15-9-4-10-16-20)25-24(30)22(28(33)35-25)19-13-7-3-8-14-19/h2-16,21,30H,17H2,1H3,(H,29,31)/b25-23+/t21-/m0/s1
INCHIKEY=DKDGWAKCXBFTMM-KZKMBZSSSA-N
CLASS=Pulvinic Acid Derivatives
ADDUCT=[2M-2H+Na]-
INSTRUMENT=Thermo Q-Exactive Focus
PRECURSOR_MZ=959.2792
COMPOUND_NAME=Rhizocarpic acid
ION_MODE=negative
FORMULA=C28H23NO6
101.681145 10024.084961 
107.009521 10243.567383 
108.239204 11420.012695 
114.495743 11059.676758 
117.033607 273461.0 
132.87915 10512.52832 
167.411102 10029.555664 
191.086502 193092.421875 
196.790482 10665.643555 
203.722092 11181.788086 
217.225494 9346.100586 
219.082016 8156.578613 
263.072083 1551147.375 
271.468567 9250.990234 
292.625519 11757.571289 
301.0755 103415.898438 
333.611267 7563.338867 
342.172852 11244.452148 
363.077271 7523.780762 
364.132416 7531.776855 
389.653595 10507.487305 
403.864929 14167.162109 
468.146912 434592.0 
512.417542 10120.569336 
623.285889 10349.087891 
653.164185 11182.078125 
668.749207 8241.964844 
679.906982 7407.731445 
711.978333 8028.390625 
725.550171 7770.158203 
766.296265 7084.402832 
779.0672 5279.636719 
797.830017 6582.375 
875.609314 8044.72998 
887.040771 7721.141602 
END IONS

BEGIN IONS
RTINSECONDS=224.563995
CHARGE=1-
MSLEVEL=2
SMILES=Cc1c(c(O)cc(O)c1)C(=O)Oc1cc(O)c(C(=O)Oc2cc(O)c(C(=O)O)c(C)c2)c(C)c1
INCHI=InChI=1S/C24H20O10/c1-10-4-13(25)7-16(26)20(10)23(31)34-15-6-12(3)21(18(28)9-15)24(32)33-14-5-11(2)19(22(29)30)17(27)8-14/h4-9,25-28H,1-3H3,(H,29,30)
INCHIKEY=ATQPZSQVWCPVGV-UHFFFAOYSA-N
CLASS=Depsides (Tridepsides)
ADDUCT=[2M-H]-
INSTRUMENT=Thermo Q-Exactive Focus
PRECURSOR_MZ=935.2035
COMPOUND_NAME=Gyrophoric acid
ION_MODE=negative
FORMULA=C24H20O10
79.053925 20481.09375 
81.033188 14591.485352 
105.033241 39830.039062 
123.043869 187526.921875 
149.023682 267965.78125 
166.132629 11515.691406 
167.033997 1769283.875 
204.015411 9451.782227 
210.101181 9393.759766 
255.065674 14759.795898 
313.690308 10462.96875 
317.06662 264865.65625 
336.062958 10744.474609 
345.182953 9564.80957 
377.373535 9973.769531 
378.670074 9469.428711 
459.268066 11310.103516 
467.099915 60433.253906 
499.281281 11472.661133 
519.388367 12546.317383 
571.476074 10105.571289 
607.603333 10653.181641 
666.857117 12444.091797 
681.981079 11501.359375 
722.187866 10712.307617 
808.64917 11579.024414 
890.357056 14082.151367 
END IONS

BEGIN IONS
RTINSECONDS=330.955994
CHARGE=1-
MSLEVEL=2
SMILES=CC[C@@H](C)C[C@@H](C)[C@@H]([C@H](C)C(=O)O[C@@H]([C@H](C)C[C@H](C)CC)[C@H](C)C(=O)O)O
INCHI=InChI=1S/C22H42O5/c1-9-13(3)11-15(5)19(23)17(7)22(26)27-20(18(8)21(24)25)16(6)12-14(4)10-2/h13-20,23H,9-12H2,1-8H3,(H,24,25)/t13-,14-,15-,16-,17+,18+,19+,20+/m1/s1
INCHIKEY=ZQEUMOKDJCSNHB-IHRHECOVSA-N
CLASS=Acids
ADDUCT=[2M-H]-
INSTRUMENT=Thermo Q-Exactive Focus
PRECURSOR_MZ=771.5986
COMPOUND_NAME=Bourgeanic acid
ION_MODE=negative
FORMULA=C22H42O5
56.01532 697248.375 
73.027946 99209264.0 
81.001976 643499.3125 
91.978348 864790.5625 
96.024406 619469.875 
100.716385 638219.125 
115.253731 614332.5625 
143.692642 599743.8125 
187.034683 583135.4375 
190.574158 585842.25 
201.148682 108184328.0 
225.633194 585918.875 
227.570923 614629.5625 
237.414688 607089.1875 
273.901733 629152.1875 
298.225922 618081.25 
312.027496 206441.53125 
314.438232 604811.6875 
360.465302 652997.3125 
365.421936 234103.703125 
385.294983 2923234.5 
393.142273 380323.59375 
404.055969 451653.46875 
415.899811 641740.0 
462.265564 25457.001953 
469.327454 316857.09375 
501.877869 215703.46875 
510.182648 98132.445312 
566.828979 404249.375 
582.935242 358775.09375 
621.72229 435191.25 
711.174316 816300.375 
END IONS

BEGIN IONS
RTINSECONDS=137.429993
CHARGE=1-
MSLEVEL=2
SMILES=Cc1c(c(c2c(c1)C(=O)c1cc(cc(c1C2=O)O)O)O)C(=O)O
INCHI=InChI=1S/C16H10O7/c1-5-2-7-12(14(20)10(5)16(22)23)15(21)11-8(13(7)19)3-6(17)4-9(11)18/h2-4,17-18,20H,1H3,(H,22,23)
INCHIKEY=UZOHDKGTYVTYDZ-UHFFFAOYSA-N
CLASS=Quinones
ADDUCT=[2M-2H+Na]-
INSTRUMENT=Thermo Q-Exactive Focus
PRECURSOR_MZ=649.0594
COMPOUND_NAME=Endocrocin
ION_MODE=negative
FORMULA=C16H10O7
69.058617 15148.333008 
91.983276 56931.875 
94.823601 19837.816406 
102.229355 21300.507812 
103.988022 16352.404297 
107.048904 15199.642578 
128.001022 17657.46875 
165.60582 18551.279297 
197.06012 10337.670898 
200.851501 10422.445312 
222.509796 9265.69043 
225.056061 226570.984375 
241.051193 62979.546875 
269.046387 1752505.5 
291.0289 13315.147461 
298.436127 9201.271484 
313.036407 603323.875 
313.072906 11308.710938 
335.016571 9030.280273 
364.304199 7205.930664 
370.841553 7411.453613 
410.932556 9508.806641 
413.573334 7238.033691 
427.193756 20463.638672 
459.951965 10809.616211 
499.238007 20592.017578 
534.419434 7674.065918 
599.860474 10875.09082 
END IONS

BEGIN IONS
RTINSECONDS=295.908997
CHARGE=1-
MSLEVEL=2
SMILES=O=C(O)C(CCCCCCCCCCCC)C(C)C(=O)O
INCHI=InChI=1S/C17H32O4/c1-3-4-5-6-7-8-9-10-11-12-13-15(17(20)21)14(2)16(18)19/h14-15H,3-13H2,1-2H3,(H,18,19)(H,20,21)
INCHIKEY=CADNMISJDLVPCK-UHFFFAOYSA-N
CLASS=Acids
ADDUCT=[M-H]-
INSTRUMENT=Thermo Q-Exactive Focus
PRECURSOR_MZ=299.2222
COMPOUND_NAME=Roccellic acid
ION_MODE=negative
FORMULA=C17H32O4
54.408707 1157886.0 
76.327446 1922870.375 
91.978912 3656883.25 
112.015579 528030.8125 
237.222977 7840533.0 
255.233398 105573584.0 
281.212769 6189382.5 
END IONS

BEGIN IONS
RTINSECONDS=315.662994
CHARGE=1-
MSLEVEL=2
SMILES=O=C1c2c(CCCCC)cc(OC)c(OC)c2Oc2c(O1)cc(c(c2CCCCC)C(=O)O)O
INCHI=InChI=1S/C26H32O8/c1-5-7-9-11-15-13-18(31-3)23(32-4)24-20(15)26(30)33-19-14-17(27)21(25(28)29)16(22(19)34-24)12-10-8-6-2/h13-14,27H,5-12H2,1-4H3,(H,28,29)
INCHIKEY=GHBZVNHEVHMKOB-UHFFFAOYSA-N
CLASS=Depsidones
ADDUCT=[2M-H]-
INSTRUMENT=Thermo Q-Exactive Focus
PRECURSOR_MZ=943.4116
COMPOUND_NAME=3-Methoxycolensoic acid
ION_MODE=negative
FORMULA=C26H32O8
83.012489 903313.1875 
91.983841 395651.25 
133.10112 20996278.0 
135.080704 687706.0 
177.090836 840393.5 
193.086212 1127551.5 
194.093887 773181.875 
209.117844 1080076.0 
220.073929 1407538.25 
235.097885 2118343.25 
296.105988 2727634.0 
297.113739 2631640.0 
310.121613 7028076.5 
325.145569 10848681.0 
329.176239 3368354.25 
353.17627 35281840.0 
368.199432 13653351.0 
383.223206 37034332.0 
385.202515 16002681.0 
412.189514 2003526.875 
427.212952 26650332.0 
453.192535 1149869.25 
471.202881 44685432.0 
END IONS

BEGIN IONS
RTINSECONDS=234.589996
CHARGE=1-
MSLEVEL=2
SMILES=O=C1c2c(CC(=O)CCCCC)cc(O)c(O)c2Oc2c(O1)cc(c(c2CCCCC)C(=O)O)O
INCHI=InChI=1S/C26H30O9/c1-3-5-7-9-15(27)11-14-12-18(29)22(30)24-20(14)26(33)34-19-13-17(28)21(25(31)32)16(23(19)35-24)10-8-6-4-2/h12-13,28-30H,3-11H2,1-2H3,(H,31,32)
INCHIKEY=BQHHNAPTXQOPBW-UHFFFAOYSA-N
CLASS=Depsidones
ADDUCT=[2M-2H+Na]-
INSTRUMENT=Thermo Q-Exactive Focus
PRECURSOR_MZ=993.3521
COMPOUND_NAME=3-Hydroxyphysodic acid
ION_MODE=negative
FORMULA=C26H30O9
69.339767 9519.763672 
82.505844 12993.685547 
91.017448 14096.385742 
91.976387 26176.402344 
109.02829 20191.488281 
137.023376 119414.46875 
137.09639 24257.363281 
179.106873 65149.707031 
205.086746 72101.710938 
207.102448 53479.152344 
233.082001 53300.488281 
235.097366 243100.265625 
247.097717 123444.007812 
261.076965 139401.125 
277.108582 48966.285156 
300.101227 39657.621094 
301.109406 27001.892578 
328.095856 31737.798828 
342.112244 20166.009766 
373.201752 55347.320312 
397.203003 74365.8125 
399.181671 320839.125 
421.164246 59232.925781 
423.181305 103588.0 
441.19223 223356.4375 
463.175232 39977.386719 
485.181976 138740.265625 
501.189331 10094.303711 
503.199554 13311.943359 
507.164185 238833.125 
543.60437 6457.731445 
566.542603 5414.046387 
569.792969 12522.642578 
700.965393 9118.143555 
839.550964 16000.370117 
906.579712 13487.763672 
916.406921 6890.021973 
958.362976 12033.918945 
END IONS

BEGIN IONS
RTINSECONDS=193.134995
CHARGE=1-
MSLEVEL=2
SMILES=Cc1c(c(O)cc(O)c1)C(=O)Oc1cc(O)c(C(=O)Oc2c(C)c(C(=O)O)c(O)cc2O)c(C)c1
INCHI=InChI=1S/C24H20O11/c1-9-4-12(25)6-14(26)18(9)23(32)34-13-5-10(2)19(15(27)7-13)24(33)35-21-11(3)20(22(30)31)16(28)8-17(21)29/h4-8,25-29H,1-3H3,(H,30,31)
INCHIKEY=PXEWPVIKVBSHLU-UHFFFAOYSA-N
CLASS=Depsides (Tridepsides)
ADDUCT=[M-2H+Na]-
INSTRUMENT=Thermo Q-Exactive Focus
PRECURSOR_MZ=505.0747
COMPOUND_NAME=Crustinic acid
ION_MODE=negative
FORMULA=C24H20O11
77.76458 7802.437988 
86.665375 5571.120605 
105.033203 94102.820312 
121.028343 13218.238281 
137.023209 16276.34082 
149.023468 497277.78125 
165.01825 196098.765625 
167.034225 42504.214844 
182.021454 10681.858398 
183.029343 24650.630859 
189.016739 9763.999023 
337.033356 133806.703125 
337.643524 8118.594238 
355.043854 179866.234375 
END IONS

BEGIN IONS
RTINSECONDS=234.591003
CHARGE=1-
MSLEVEL=2
SMILES=CC(=O)c1c(cc2c(c1O)C(=O)c1c(cc(cc1C2=O)O)O)O
INCHI=InChI=1S/C16H10O7/c1-5(17)11-10(20)4-8-13(15(11)22)16(23)12-7(14(8)21)2-6(18)3-9(12)19/h2-4,18-20,22H,1H3
INCHIKEY=OVWIVSWXKVYPAG-UHFFFAOYSA-N
CLASS=Quinones
ADDUCT=[M-H]-
INSTRUMENT=Thermo Q-Exactive Focus
PRECURSOR_MZ=313.0348
COMPOUND_NAME=Haematommone
ION_MODE=negative
FORMULA=C16H10O7
75.909927 361274.8125 
241.051056 455453.84375 
269.010254 926169.125 
269.046326 1323515.625 
270.017914 900207.8125 
285.041687 989723.625 
END IONS

BEGIN IONS
RTINSECONDS=155.283005
CHARGE=1-
MSLEVEL=2
SMILES=O=C(C)O[C@@H]1[C@@H](O)[C@H](O)[C@@H](COC(=O)C)O[C@H]1Oc1cc2oc(C)cc(=O)c2c(O)c1C
INCHI=InChI=1S/C21H24O11/c1-8-5-12(24)16-14(29-8)6-13(9(2)17(16)25)31-21-20(30-11(4)23)19(27)18(26)15(32-21)7-28-10(3)22/h5-6,15,18-21,25-27H,7H2,1-4H3/t15-,18-,19+,20-,21-/m1/s1
INCHIKEY=AFCAWRFTSGVRQA-CMWLGVBASA-N
CLASS=Chromanes and Chromones
ADDUCT=[M-H]-
INSTRUMENT=Thermo Q-Exactive Focus
PRECURSOR_MZ=451.124
COMPOUND_NAME=Roccellin
ION_MODE=negative
FORMULA=C21H24O11
59.012444 201982.96875 
69.286575 35609.492188 
88.098427 36213.476562 
91.979225 189350.015625 
93.953377 34984.09375 
161.059952 112323.609375 
163.002792 98696.140625 
175.039383 92691.65625 
204.042084 2124359.25 
205.050079 2540657.5 
229.050095 81061.390625 
247.061432 74650.46875 
276.463013 8743.15625 
297.534882 22612.839844 
361.455872 28325.416016 
END IONS

BEGIN IONS
RTINSECONDS=188.358994
CHARGE=1-
MSLEVEL=2
SMILES=O=C1c2c(C)cc(O)c(C)c2Oc2c(O1)c(c(c(c2C)C(=O)O)O)C
INCHI=InChI=1S/C18H16O7/c1-6-5-10(19)7(2)14-11(6)18(23)25-16-9(4)13(20)12(17(21)22)8(3)15(16)24-14/h5,19-20H,1-4H3,(H,21,22)
INCHIKEY=CFPLLTGKDKZLIH-UHFFFAOYSA-N
CLASS=Depsidones
ADDUCT=[M-H]-
INSTRUMENT=Thermo Q-Exactive Focus
PRECURSOR_MZ=343.0818
COMPOUND_NAME=Hypoprotocetraric acid
ION_MODE=negative
FORMULA=C18H16O7
79.053925 1736714.0 
91.054077 13806156.0 
91.980591 2985991.5 
119.049088 10699876.0 
137.059814 4026293.0 
149.060196 2427519.0 
163.039307 8239344.5 
183.117371 5182710.0 
201.054932 3883661.25 
227.107361 13931799.0 
240.079514 4651788.0 
243.066284 7620895.0 
255.102661 62574392.0 
299.092896 9314285.0 
END IONS

BEGIN IONS
RTINSECONDS=90.376503
CHARGE=1-
MSLEVEL=2
SMILES=CC(=O)c1c(O)cc(O)cc1O
INCHI=InChI=1S/C8H8O4/c1-4(9)8-6(11)2-5(10)3-7(8)12/h2-3,10-12H,1H3
INCHIKEY=XLEYFDVVXLMULC-UHFFFAOYSA-N
CLASS=Cleavage Products of Depsides and Depsidones
ADDUCT=[2M-H]-
INSTRUMENT=Thermo Q-Exactive Focus
PRECURSOR_MZ=335.0767
COMPOUND_NAME="N 2,4,6-Trihydroxyacetophenone"
ION_MODE=negative
FORMULA=C8H8O4
81.032982 378881.0625 
83.012314 199452.515625 
95.048599 59863.605469 
123.043655 3183582.5 
125.022926 310171.5625 
151.00235 175504.90625 
167.033722 7218349.5 
186.173172 35755.992188 
205.871475 21158.193359 
222.96933 22499.962891 
254.91243 21628.630859 
261.055145 39657.96875 
280.18277 8801.584961 
301.663666 25285.46875 
350.549652 37307.242188 
358.464203 9957.30957 
END IONS

BEGIN IONS
RTINSECONDS=113.464996
CHARGE=1-
MSLEVEL=2
SMILES=O=C(O)c1c(C)c(Cl)c(O)c(Cl)c1O
INCHI=InChI=1S/C8H6Cl2O4/c1-2-3(8(13)14)6(11)5(10)7(12)4(2)9/h11-12H,1H3,(H,13,14)
INCHIKEY=QZKUNAATQJYHIC-UHFFFAOYSA-N
CLASS=Cleavage Products of Depsides and Depsidones
ADDUCT=[2M-2H+Na]-
INSTRUMENT=Thermo Q-Exactive Focus
PRECURSOR_MZ=492.9027
COMPOUND_NAME="N 3,5-Dichlororsellinic acid"
ION_MODE=negative
FORMULA=C8H6Cl2O4
83.723915 26416.128906 
119.012756 22662.660156 
126.994659 790976.6875 
129.010208 54845.222656 
154.989853 318789.75 
173.000488 142158.421875 
190.966812 1664525.75 
234.957138 1656001.375 
END IONS

BEGIN IONS
RTINSECONDS=278.479004
CHARGE=1-
MSLEVEL=2
SMILES=CC(=O)CCCCCCCCCCCCC[C@H]1OC(=O)C(=C1C(=O)O)C
INCHI=InChI=1S/C21H34O5/c1-16(22)14-12-10-8-6-4-3-5-7-9-11-13-15-18-19(20(23)24)17(2)21(25)26-18/h18H,3-15H2,1-2H3,(H,23,24)/t18-/m1/s1
INCHIKEY=KYSXDEQQOVVLIN-GOSISDBHSA-N
CLASS=Paraconic acids
ADDUCT=[M-H]-
INSTRUMENT=Thermo Q-Exactive Focus
PRECURSOR_MZ=365.2328
COMPOUND_NAME=Isomuronic acid
ION_MODE=negative
FORMULA=C21H34O5
57.033348 6141839.0 
69.033279 2943263.75 
71.792061 401962.15625 
91.978432 3502580.0 
277.254395 72051816.0 
321.24469 15041106.0 
END IONS

BEGIN IONS
RTINSECONDS=279.382996
CHARGE=1-
MSLEVEL=2
SMILES=O=C1O/C(=C(/C(=O)N[C@H](C(=O)O)Cc2ccccc2)\c2ccccc2)/C(=C1c1ccccc1)O
INCHI=InChI=1S/C27H21NO6/c29-23-21(18-12-6-2-7-13-18)27(33)34-24(23)22(19-14-8-3-9-15-19)25(30)28-20(26(31)32)16-17-10-4-1-5-11-17/h1-15,20,29H,16H2,(H,28,30)(H,31,32)/b24-22+/t20-/m0/s1
INCHIKEY=XTLHEUFWRQKNNG-YVURAWIMSA-N
CLASS=Pulvinic Acid Derivatives
ADDUCT=[2M-2H+Na]-
INSTRUMENT=Thermo Q-Exactive Focus
PRECURSOR_MZ=931.2479
COMPOUND_NAME=Norrhizocarpic acid
ION_MODE=negative
FORMULA=C27H21NO6
65.994934 52677.609375 
84.261856 12507.618164 
91.054085 14750.248047 
101.03817 62476.523438 
117.03392 266489.625 
118.065216 113149.234375 
150.031891 36300.484375 
164.071274 22237.898438 
191.086349 84951.054688 
203.086472 132199.625 
247.076736 214264.390625 
263.072021 1427385.5 
274.088654 46077.664062 
275.0961 50646.914062 
285.054199 44702.382812 
296.070251 125456.664062 
338.13269 29978.435547 
340.06015 60426.011719 
361.122711 22075.748047 
366.15274 20366.244141 
388.133728 57384.292969 
410.141205 74940.304688 
454.131378 110291.382812 
458.100952 17389.082031 
471.658569 10949.576172 
476.044586 23819.695312 
476.113159 617101.625 
581.59906 12183.62207 
630.697083 4484.36377 
706.562439 11546.744141 
726.166809 11135.200195 
750.955444 11820.936523 
804.527039 13751.688477 
823.687012 11220.734375 
896.82843 11056.889648 
END IONS

BEGIN IONS
RTINSECONDS=234.955002
CHARGE=1-
MSLEVEL=2
SMILES=O=C1c2c(C)c(Cl)c(O)c(Cl)c2Oc2c(O1)cc(c(c2C)C(=O)OC)OC
INCHI=InChI=1S/C18H14Cl2O7/c1-6-11-16(13(20)14(21)12(6)19)27-15-7(2)10(17(22)25-4)8(24-3)5-9(15)26-18(11)23/h5,21H,1-4H3
INCHIKEY=RPHAAJGBADUATP-UHFFFAOYSA-N
CLASS=Depsidones
ADDUCT=[2M-2H+Na]-
INSTRUMENT=Thermo Q-Exactive Focus
PRECURSOR_MZ=844.9974
COMPOUND_NAME=Gangaleoidin
ION_MODE=negative
FORMULA=C18H14Cl2O7
61.974869 9477.214844 
79.474388 9133.337891 
80.559753 9707.15918 
91.602585 9661.876953 
96.214066 9970.417969 
143.331009 9759.198242 
148.395157 9000.951172 
152.610504 10146.839844 
172.586075 9609.490234 
172.948166 10247.556641 
223.959213 9031.40918 
235.717285 8729.488281 
241.473114 8053.712891 
288.022369 10611.477539 
293.986725 41106.550781 
302.001923 12427.958984 
308.002411 28742.513672 
316.015015 15247.602539 
351.991608 85325.835938 
360.006348 23990.435547 
367.015045 84154.632812 
375.028381 64418.4375 
410.575592 11191.383789 
411.005066 251303.90625 
440.502106 11112.415039 
448.892212 10552.420898 
552.01062 12312.233398 
598.203735 11026.793945 
607.812927 12159.305664 
614.869263 9689.594727 
754.989075 4115.138184 
END IONS

BEGIN IONS
RTINSECONDS=305.769012
CHARGE=1-
MSLEVEL=2
SMILES=CCCCCCCCCCCCCC[C@H](C(=O)O)[C@H](C(=O)O)CC(=O)O
INCHI=InChI=1S/C20H36O6/c1-2-3-4-5-6-7-8-9-10-11-12-13-14-16(19(23)24)17(20(25)26)15-18(21)22/h16-17H,2-15H2,1H3,(H,21,22)(H,23,24)(H,25,26)/t16-,17+/m0/s1
INCHIKEY=YBZIIVKQVVKTTD-DLBZAZTESA-N
CLASS=Acids
ADDUCT=[2M-2H+Na]-
INSTRUMENT=Thermo Q-Exactive Focus
PRECURSOR_MZ=765.4765
COMPOUND_NAME=Norrangiformic acid
ION_MODE=negative
FORMULA=C20H36O6
59.012539 53697.472656 
71.012611 38877.3125 
71.048988 17144.056641 
83.049141 12337.506836 
92.324059 11492.070312 
115.002823 12554.362305 
134.122269 10798.160156 
139.491196 9974.198242 
148.308151 11193.825195 
186.648849 8607.75 
201.255234 8404.942383 
220.722046 9453.814453 
225.411484 10183.838867 
255.233612 56121.023438 
265.254272 824848.9375 
267.233887 25125.671875 
283.265228 61599.683594 
293.213318 131005.148438 
309.244537 88167.9375 
353.234253 692710.875 
371.24472 311403.125 
375.217224 47702.847656 
393.227966 27365.902344 
431.296844 9065.370117 
455.053009 10672.870117 
473.520844 3797.618164 
486.629303 7859.208984 
492.297791 3387.845703 
506.862366 9131.998047 
583.248291 3742.885254 
586.84613 11009.0625 
622.163696 12148.594727 
632.566162 9196.3125 
747.46991 22828.099609 
798.261597 7213.817383 
END IONS

BEGIN IONS
RTINSECONDS=315.830994
CHARGE=1-
MSLEVEL=2
SMILES=O=C1c2c(CCCCC)cc(OC)c(OC)c2Oc2c(O1)cc(c(c2CCCCC)C(=O)O)O
INCHI=InChI=1S/C26H32O8/c1-5-7-9-11-15-13-18(31-3)23(32-4)24-20(15)26(30)33-19-14-17(27)21(25(28)29)16(22(19)34-24)12-10-8-6-2/h13-14,27H,5-12H2,1-4H3,(H,28,29)
INCHIKEY=GHBZVNHEVHMKOB-UHFFFAOYSA-N
CLASS=Depsidones
ADDUCT=[M-H]-
INSTRUMENT=Thermo Q-Exactive Focus
PRECURSOR_MZ=471.2019
COMPOUND_NAME=3-Methoxycolensoic acid
ION_MODE=negative
FORMULA=C26H32O8
86.350197 303672.84375 
133.101212 36665052.0 
134.104401 3890229.0 
193.091141 2567143.0 
202.884171 2067889.875 
220.074448 3640639.0 
235.097916 4837510.0 
296.10614 8754529.0 
310.121338 19085602.0 
311.126923 6794251.5 
325.144836 22686442.0 
353.176331 67999040.0 
368.199615 28972092.0 
383.223053 36797384.0 
385.20285 19264608.0 
427.212646 19322384.0 
END IONS

BEGIN IONS
RTINSECONDS=217.837006
CHARGE=1-
MSLEVEL=2
SMILES=O=C1c2c(C)cc(O)c(C=O)c2Oc2c(O1)c(c(c(c2C)C(=O)O)O)C
INCHI=InChI=1S/C18H14O8/c1-6-4-10(20)9(5-19)16-11(6)18(24)26-15-8(3)13(21)12(17(22)23)7(2)14(15)25-16/h4-5,20-21H,1-3H3,(H,22,23)
INCHIKEY=FOKAHYDSEWGOHN-UHFFFAOYSA-N
CLASS=Depsidones
ADDUCT=[2M-2H+Na]-
INSTRUMENT=Thermo Q-Exactive Focus
PRECURSOR_MZ=737.1119
COMPOUND_NAME=Virensic acid
ION_MODE=negative
FORMULA=C18H14O8
68.998566 35601.898438 
83.695023 26861.384766 
91.053963 58687.792969 
91.978081 42444.566406 
107.049263 40141.777344 
151.039337 116583.5625 
213.055389 442361.46875 
229.049896 661947.0625 
241.087006 283545.46875 
254.058655 147423.9375 
257.045685 200686.1875 
269.082092 1187400.375 
285.077606 110034.898438 
295.061523 95100.351562 
313.072479 279038.8125 
335.055511 37165.628906 
339.05127 35512.417969 
357.06192 945032.8125 
379.045959 19378.746094 
414.961243 3630.020996 
420.420135 27108.757812 
443.85025 23581.767578 
447.243469 12169.984375 
457.488922 12435.774414 
469.674072 22990.226562 
543.302185 9325.193359 
569.059509 8830.701172 
570.325745 8910.577148 
588.578064 11678.738281 
625.759583 11470.808594 
631.912842 4154.291016 
636.128174 24742.117188 
688.979126 18829.675781 
END IONS

BEGIN IONS
RTINSECONDS=266.174011
CHARGE=1-
MSLEVEL=2
SMILES=CC(=O)CCCCCCCCCCCCCC1C(C(=C)C(=O)O1)C(=O)O
INCHI=InChI=1S/C21H34O5/c1-16(22)14-12-10-8-6-4-3-5-7-9-11-13-15-18-19(20(23)24)17(2)21(25)26-18/h18-19H,2-15H2,1H3,(H,23,24)
INCHIKEY=SKQHRBRVCRUFSX-UHFFFAOYSA-N
CLASS=Paraconic acids
ADDUCT=[2M-H]-
INSTRUMENT=Thermo Q-Exactive Focus
PRECURSOR_MZ=731.4734
COMPOUND_NAME=Pertusaric acid
ION_MODE=negative
FORMULA=C21H34O5
52.175484 281696.5625 
57.033333 7819763.5 
69.033463 926176.75 
91.979309 370955.0 
169.159561 1305837.625 
183.175247 1013613.25 
277.254303 34512008.0 
321.244385 55768004.0 
365.234192 17757952.0 
END IONS

BEGIN IONS
RTINSECONDS=266.901001
CHARGE=1-
MSLEVEL=2
SMILES=O=C1C(=C(O)/C(=C(/c2ccccc2)\C(=O)OC)/O1)c1ccccc1
INCHI=InChI=1S/C19H14O5/c1-23-18(21)15(13-10-6-3-7-11-13)17-16(20)14(19(22)24-17)12-8-4-2-5-9-12/h2-11,20H,1H3/b17-15+
INCHIKEY=OMZRMXULWNMRAE-BMRADRMJSA-N
CLASS=Pulvinic Acid Derivatives
ADDUCT=[2M-2H+Na]-
INSTRUMENT=Thermo Q-Exactive Focus
PRECURSOR_MZ=665.1424
COMPOUND_NAME=Vulpinic acid
ION_MODE=negative
FORMULA=C19H14O5
58.321274 16535.716797 
93.033447 142226.328125 
101.038681 299959.96875 
117.03347 607772.25 
190.078613 440606.0 
219.082031 233558.34375 
234.068665 1425272.125 
249.092377 4655032.0 
262.063965 1796164.625 
277.08847 271538.25 
321.077637 6067749.5 
END IONS

BEGIN IONS
RTINSECONDS=194.358002
CHARGE=1-
MSLEVEL=2
SMILES=O=C1c2c(C)cc(O)c(C=O)c2Oc2c(O1)c(c(c(c2C)C(=O)O)O)COC(=O)C
INCHI=InChI=1S/C20H16O10/c1-7-4-12(23)10(5-21)17-13(7)20(27)30-18-11(6-28-9(3)22)15(24)14(19(25)26)8(2)16(18)29-17/h4-5,23-24H,6H2,1-3H3,(H,25,26)
INCHIKEY=SKXNIRUDASOCCN-UHFFFAOYSA-N
CLASS=Depsidones
ADDUCT=[2M-H]-
INSTRUMENT=Thermo Q-Exactive Focus
PRECURSOR_MZ=831.1409
COMPOUND_NAME=Physodalic acid
ION_MODE=negative
FORMULA=C20H16O10
59.012554 1168161.5 
68.996765 6424892.0 
78.39566 353425.3125 
107.012657 394321.5625 
133.028549 333447.90625 
135.044006 388882.78125 
149.023666 1313405.25 
151.039154 878218.875 
203.035004 559646.5625 
211.076248 1654434.25 
213.055954 673227.6875 
239.071259 6462855.5 
241.050888 2467879.0 
255.066147 2253120.5 
267.066406 1798032.875 
283.061371 7371718.5 
296.033203 949670.875 
311.056549 34465360.0 
337.036072 1189164.25 
355.046265 9377005.0 
415.067383 4423462.5 
END IONS

BEGIN IONS
RTINSECONDS=143.057007
CHARGE=1-
MSLEVEL=2
SMILES=Cc1c(c(c2c(c1)C(=O)c1cc(cc(c1C2=O)O)O)O)C(=O)O
INCHI=InChI=1S/C16H10O7/c1-5-2-7-12(14(20)10(5)16(22)23)15(21)11-8(13(7)19)3-6(17)4-9(11)18/h2-4,17-18,20H,1H3,(H,22,23)
INCHIKEY=UZOHDKGTYVTYDZ-UHFFFAOYSA-N
CLASS=Quinones
ADDUCT=[M-H]-
INSTRUMENT=Thermo Q-Exactive Focus
PRECURSOR_MZ=313.0348
COMPOUND_NAME=Endocrocin
ION_MODE=negative
FORMULA=C16H10O7
91.97818 1636768.5 
181.064926 122112.789062 
197.061188 757578.1875 
210.032303 381044.90625 
225.056015 10229412.0 
227.038437 410194.65625 
241.051163 3731587.0 
251.035294 2539882.75 
269.046417 38542916.0 
END IONS

BEGIN IONS
RTINSECONDS=293.515015
CHARGE=1-
MSLEVEL=2
SMILES=O=C1Oc2c(c3C[C@@](O)(CCCCC)OC(=O)c3c(O)c2)Oc2c1c(cc(c2)OC)CC(=O)CCCCC
INCHI=InChI=1S/C29H34O9/c1-4-6-8-10-18(30)12-17-13-19(35-3)14-22-24(17)27(32)37-23-15-21(31)25-20(26(23)36-22)16-29(34,38-28(25)33)11-9-7-5-2/h13-15,31,34H,4-12,16H2,1-3H3/t29-/m1/s1
INCHIKEY=DQYWDDCXRXABIH-GDLZYMKVSA-N
CLASS=Depsidones
ADDUCT=[2M-2H+Na]-
INSTRUMENT=Thermo Q-Exactive Focus
PRECURSOR_MZ=1073.4147
COMPOUND_NAME=Alpha-collatolic acid
ION_MODE=negative
FORMULA=C29H34O9
74.436951 11998.029297 
91.982986 26612.640625 
99.696915 13922.8125 
113.019264 12635.513672 
123.007622 16097.577148 
137.023636 14697.016602 
165.018784 37633.027344 
167.312775 13709.959961 
174.212936 13375.382812 
213.092163 19939.207031 
219.102692 72374.632812 
226.063828 27239.173828 
285.07782 90997.875 
285.114136 62900.394531 
298.121796 48904.296875 
300.137238 92188.867188 
315.161224 138159.59375 
367.119171 147598.546875 
368.127075 182188.875 
383.150421 806898.4375 
409.131134 18185.199219 
437.235016 53836.074219 
463.214569 32083.503906 
465.194244 44122.960938 
466.201508 30372.203125 
481.223907 215339.078125 
499.813843 14729.556641 
525.213623 401920.125 
536.261108 14077.113281 
548.010132 12543.709961 
568.0849 13215.225586 
585.500061 12371.143555 
617.033997 13006.836914 
664.801453 12521.615234 
721.454346 15067.916992 
763.744629 13001.354492 
819.861511 14192.189453 
946.949219 12569.134766 
986.235107 13861.248047 
END IONS

BEGIN IONS
RTINSECONDS=293.065002
CHARGE=1-
MSLEVEL=2
SMILES=CCCCCc1cc(cc(c1C(=O)O)OC)OC(=O)c1c(cc(cc1CC(=O)CCCCC)OC)O
INCHI=InChI=1S/C28H36O8/c1-5-7-9-11-18-14-22(17-24(35-4)26(18)27(31)32)36-28(33)25-19(13-20(29)12-10-8-6-2)15-21(34-3)16-23(25)30/h14-17,30H,5-13H2,1-4H3,(H,31,32)
INCHIKEY=UANVCGQMNRTKGM-UHFFFAOYSA-N
CLASS=Depsides (Didepsides)
ADDUCT=[M-H]-
INSTRUMENT=Thermo Q-Exactive Focus
PRECURSOR_MZ=499.2332
COMPOUND_NAME=Confluentic acid
ION_MODE=negative
FORMULA=C28H36O8
81.383804 487106.6875 
122.036217 5084232.0 
135.044739 24676.939453 
137.060059 911647.875 
178.099304 8726952.0 
193.123001 55915348.0 
237.113403 19061530.0 
246.092194 767018.4375 
255.10379 1243882.625 
261.113983 2875996.0 
298.158112 3954328.5 
313.181061 4055482.0 
345.170227 743424.0 
411.256012 1691524.75 
END IONS

BEGIN IONS
RTINSECONDS=134.710007
CHARGE=1-
MSLEVEL=2
SMILES=Cc1cc(O)cc(O)c1C(=O)Oc1cc(O)c(C(=O)OC[C@@H](O)[C@@H](O)CO)c(C)c1
INCHI=InChI=1S/C20H22O10/c1-9-3-11(22)5-13(23)18(9)20(28)30-12-4-10(2)17(14(24)6-12)19(27)29-8-16(26)15(25)7-21/h3-6,15-16,21-26H,7-8H2,1-2H3/t15-,16+/m0/s1
INCHIKEY=BUBBEHCXSMCYNY-JKSUJKDBSA-N
CLASS=Depsides (Didepsides)
ADDUCT=[M-H]-
INSTRUMENT=Thermo Q-Exactive Focus
PRECURSOR_MZ=421.1135
COMPOUND_NAME=Erythrin
ION_MODE=negative
FORMULA=C20H22O10
79.05407 1750079.875 
105.033348 33953436.0 
123.043716 22265606.0 
130.710342 70774.367188 
149.023239 101456400.0 
167.03389 80555392.0 
271.08197 9037737.0 
END IONS

BEGIN IONS
RTINSECONDS=213.772995
CHARGE=1-
MSLEVEL=2
SMILES=O=C1c2c(C)cc(O)c(C=O)c2Oc2c(O1)c(c(cc2C(=O)O)OC)C
INCHI=InChI=1S/C18H14O8/c1-7-4-11(20)10(6-19)15-13(7)18(23)26-14-8(2)12(24-3)5-9(17(21)22)16(14)25-15/h4-6,20H,1-3H3,(H,21,22)
INCHIKEY=FUCWJKJZOHOLEO-UHFFFAOYSA-N
CLASS=Depsidones
ADDUCT=[2M-2H+Na]-
INSTRUMENT=Thermo Q-Exactive Focus
PRECURSOR_MZ=737.1119
COMPOUND_NAME=Psoromic acid
ION_MODE=negative
FORMULA=C18H14O8
57.736992 12743.037109 
68.996895 118604.960938 
70.820358 18132.146484 
72.915848 20928.769531 
74.657265 20281.265625 
123.53466 12750.828125 
125.799583 12868.661133 
135.044128 114478.023438 
144.718018 19075.017578 
226.063858 59614.171875 
228.042572 1061837.625 
243.066101 525817.0625 
254.05835 219743.328125 
269.082458 71367.5625 
270.053772 66898.390625 
313.072327 98472.421875 
331.082886 289984.90625 
335.053955 62138.464844 
353.064758 301801.4375 
357.061829 133702.90625 
379.044189 173916.421875 
397.055511 74225.132812 
470.540253 15027.454102 
473.20694 7898.382324 
488.116272 8010.405273 
532.889526 8527.268555 
636.00708 9595.858398 
637.697449 15281.299805 
653.219727 9451.179688 
662.874268 9649.541016 
676.222839 14474.956055 
END IONS

BEGIN IONS
RTINSECONDS=17.544001
CHARGE=1-
MSLEVEL=2
SMILES=C(=C\C(=O)O)/C(=O)O
INCHI=InChI=1S/C4H4O4/c5-3(6)1-2-4(7)8/h1-2H,(H,5,6)(H,7,8)/b2-1+
INCHIKEY=VZCYOOQTPOCHFL-OWOJBTEDSA-N
CLASS=Acids
ADDUCT=[2M-2H+Na]-
INSTRUMENT=Thermo Q-Exactive Focus
PRECURSOR_MZ=252.996
COMPOUND_NAME=Fumaric acid
ION_MODE=negative
FORMULA=C4H4O4
56.280785 53670.304688 
58.105358 52277.027344 
70.910629 57549.558594 
71.012337 1185334.5 
85.936279 56543.496094 
115.002411 2153466.75 
118.545959 65766.476562 
136.984314 89251.945312 
163.995895 55364.277344 
182.0793 50761.144531 
207.684357 34379.503906 
213.240173 48434.535156 
215.769333 48713.191406 
END IONS

BEGIN IONS
RTINSECONDS=214.587997
CHARGE=1-
MSLEVEL=2
SMILES=Oc1c(Oc2cc(OC)cc3c2C(=O)OC3(O)CCCC)c(CCCCC)c(c(c1)O)C(=O)O
INCHI=InChI=1S/C25H30O9/c1-4-6-8-9-15-20(23(28)29)17(26)13-18(27)22(15)33-19-12-14(32-3)11-16-21(19)24(30)34-25(16,31)10-7-5-2/h11-13,26-27,31H,4-10H2,1-3H3,(H,28,29)
INCHIKEY=BWRBGHBJBQFFAW-UHFFFAOYSA-N
CLASS=Diphenylethers
ADDUCT=[M-H-H2O]-
INSTRUMENT=Thermo Q-Exactive Focus
PRECURSOR_MZ=455.1706
COMPOUND_NAME=Lobariolcarboxylic acid (Lobarin)
ION_MODE=negative
FORMULA=C25H30O9
55.364426 5441.874023 
69.223343 5566.619141 
109.027992 6836.311523 
136.01622 8519.613281 
137.023361 16956.777344 
177.091583 22197.898438 
192.078766 11041.65625 
193.086624 25098.154297 
207.102341 50344.867188 
221.081757 137500.75 
251.092377 8534.900391 
269.045807 7889.148438 
297.077179 10636.09375 
298.085846 12036.294922 
316.976746 7487.692383 
327.125732 19196.501953 
351.1604 7789.641113 
367.194824 10276.819336 
383.188324 17310.839844 
411.182251 100852.695312 
418.498718 7021.422852 
429.2005 6436.557129 
END IONS

BEGIN IONS
RTINSECONDS=162.136002
CHARGE=1-
MSLEVEL=2
SMILES=O=C1c2c(C)cc(O)c(C)c2Oc2c(O1)cc(c(c2C)C(=O)O)O
INCHI=InChI=1S/C17H14O7/c1-6-4-9(18)7(2)15-12(6)17(22)23-11-5-10(19)13(16(20)21)8(3)14(11)24-15/h4-5,18-19H,1-3H3,(H,20,21)
INCHIKEY=HETZRHDDRHBPKX-UHFFFAOYSA-N
CLASS=Depsidones
ADDUCT=[2M-H]-
INSTRUMENT=Thermo Q-Exactive Focus
PRECURSOR_MZ=659.1401
COMPOUND_NAME=Nornotatic acid
ION_MODE=negative
FORMULA=C17H14O7
57.61953 1467660.0 
82.408813 1398152.5 
91.982414 2252006.25 
95.696983 1887301.875 
99.620247 1497867.25 
102.385689 1473694.125 
146.339401 934213.75 
169.101196 1347398.375 
176.046295 1373972.625 
201.055099 2704817.25 
213.092117 4096781.0 
217.08638 10139237.0 
226.063171 3788948.25 
241.086777 117966544.0 
243.065979 16602192.0 
285.077209 16682098.0 
285.106506 1224778.0 
311.057648 1020437.6875 
329.066986 67946504.0 
371.204468 275786.40625 
399.687653 7506.164062 
409.797424 1008256.375 
419.734619 329105.84375 
522.759216 226198.75 
560.632751 1068410.75 
581.311218 270012.28125 
583.035645 121267.445312 
586.396912 44230.179688 
589.170532 5626.678711 
END IONS

BEGIN IONS
RTINSECONDS=314.23999
CHARGE=1-
MSLEVEL=2
SMILES=OC(=O)c1c(OC)cc(cc1CCCCC)OC(=O)c1c(CCCCC)cc(OC)cc1OC
INCHI=InChI=1S/C27H36O7/c1-6-8-10-12-18-15-21(17-22(32-4)24(18)26(28)29)34-27(30)25-19(13-11-9-7-2)14-20(31-3)16-23(25)33-5/h14-17H,6-13H2,1-5H3,(H,28,29)
INCHIKEY=FNJKTDQIJKLZGZ-UHFFFAOYSA-N
CLASS=Depsides (Didepsides)
ADDUCT=[2M-H]-
INSTRUMENT=Thermo Q-Exactive Focus
PRECURSOR_MZ=943.4844
COMPOUND_NAME=Planaic acid
ION_MODE=negative
FORMULA=C27H36O7
75.821014 155296.078125 
94.40564 340323.375 
102.571892 163448.40625 
121.027863 553415.875 
122.035835 1687308.0 
151.075607 863121.375 
175.111786 5214782.5 
178.098938 4021008.75 
193.12262 76811216.0 
205.123123 2039433.375 
207.138123 1402997.625 
251.128494 7866671.5 
324.137573 2723237.5 
337.144531 14686208.0 
339.160583 4118324.5 
365.174164 2757102.25 
365.212555 9978591.0 
395.222565 20771064.0 
427.248291 1142999.75 
471.238708 27829430.0 
521.219788 15594.087891 
576.747742 24140.445312 
593.250366 79181.359375 
598.006165 184749.765625 
737.710938 368108.78125 
852.305176 23872.921875 
881.412292 216372.25 
903.772156 5040.301758 
908.342041 26786.617188 
923.376404 403373.75 
END IONS

BEGIN IONS
RTINSECONDS=234.214005
CHARGE=1-
MSLEVEL=2
SMILES=Oc1cc(OC)cc(CCCCC)c1C(=O)O
INCHI=InChI=1S/C13H18O4/c1-3-4-5-6-9-7-10(17-2)8-11(14)12(9)13(15)16/h7-8,14H,3-6H2,1-2H3,(H,15,16)
INCHIKEY=JWSADSZPLGCVPA-UHFFFAOYSA-N
CLASS=Cleavage Products of Depsides and Depsidones
ADDUCT=[2M-2H+Na]-
INSTRUMENT=Thermo Q-Exactive Focus
PRECURSOR_MZ=497.2151
COMPOUND_NAME=4-O-methylolivetolcarboxylic acid
ION_MODE=negative
FORMULA=C13H18O4
57.204609 59192.40625 
90.071877 101004.0625 
91.983177 185936.71875 
122.0364 2375403.25 
136.051682 133752.15625 
172.322296 101811.625 
178.099289 4498975.5 
193.123093 12730896.0 
237.113388 11711540.0 
END IONS

BEGIN IONS
RTINSECONDS=203.871994
CHARGE=1-
MSLEVEL=2
SMILES=Cc1c(C(=O)OC)c(OC)cc2c1c1c(cc(c(C(=O)O)c1o2)C)OC
INCHI=InChI=1S/C19H18O7/c1-8-6-10(23-3)16-14-9(2)15(19(22)25-5)11(24-4)7-12(14)26-17(16)13(8)18(20)21/h6-7H,1-5H3,(H,20,21)
INCHIKEY=WBIQYHZEYQDKCL-UHFFFAOYSA-N
CLASS=Dibenzofuranes
ADDUCT=[M-H+HCOOH]-
INSTRUMENT=Thermo Q-Exactive Focus
PRECURSOR_MZ=403.1029
COMPOUND_NAME=Schizopeltic acid
ION_MODE=negative
FORMULA=C19H18O7
63.884266 5296.084961 
69.317139 6217.288086 
75.299324 5318.856934 
84.525925 5914.578125 
91.983322 7429.972656 
119.384392 5551.088867 
150.770676 6577.299805 
154.469559 5922.12793 
169.251984 5544.58252 
197.572174 5361.244629 
203.345978 6048.126465 
243.066711 8163.143555 
251.035522 22941.330078 
271.062256 24085.957031 
283.061646 339841.65625 
298.085297 124109.585938 
313.108673 408854.0 
315.052032 129448.59375 
315.088501 47251.277344 
357.098419 38843.488281 
380.372955 3583.62207 
429.483582 5879.685547 
END IONS

BEGIN IONS
RTINSECONDS=262.80899
CHARGE=1-
MSLEVEL=2
SMILES=Oc1c(C(=O)C)c2OC3(C(C)(C(=O)C(=C(C3)O)C(=O)C)c2c(O)c1C)OC
INCHI=InChI=1S/C19H20O8/c1-7-14(23)12(9(3)21)16-13(15(7)24)18(4)17(25)11(8(2)20)10(22)6-19(18,26-5)27-16/h22-24H,6H2,1-5H3
INCHIKEY=WWSUFZCWOJULTK-UHFFFAOYSA-N
CLASS=Dibenzofuranes
ADDUCT=[2M-2H+Na]-
INSTRUMENT=Thermo Q-Exactive Focus
PRECURSOR_MZ=773.2058
COMPOUND_NAME=Pseudoplacodiolic acid
ION_MODE=negative
FORMULA=C19H20O8
60.64859 440684.09375 
83.012222 3123808.25 
91.979721 4244299.0 
95.049141 550995.5625 
96.731232 380455.71875 
139.039597 1313842.125 
180.042267 3418523.25 
181.050598 500780.375 
215.071548 1181909.875 
231.066467 3663740.5 
255.066895 2930304.0 
257.082397 1770473.875 
259.061707 5850775.0 
299.092957 12009865.0 
301.072266 9558644.0 
315.088898 1991869.375 
343.082947 10369112.0 
375.109131 48860528.0 
397.091675 1926673.5 
END IONS

BEGIN IONS
RTINSECONDS=194.123993
CHARGE=1-
MSLEVEL=2
SMILES=Oc1c(C(=O)Oc2cc(C)c(c(O)c2C)C(=O)O)c(C)cc(OC)c1C(=O)O
INCHI=InChI=1S/C19H18O9/c1-7-5-10(9(3)15(20)12(7)17(22)23)28-19(26)13-8(2)6-11(27-4)14(16(13)21)18(24)25/h5-6,20-21H,1-4H3,(H,22,23)(H,24,25)
INCHIKEY=WCWYEXBIRSSVGF-UHFFFAOYSA-N
CLASS=Depsides (Didepsides)
ADDUCT=[M-H]-
INSTRUMENT=Thermo Q-Exactive Focus
PRECURSOR_MZ=389.0873
COMPOUND_NAME=Squamatic acid
ION_MODE=negative
FORMULA=C19H18O9
76.129997 303369.0 
93.069641 1723291.375 
94.163795 13857.360352 
119.048904 12685522.0 
122.036194 5061187.5 
137.059616 40509148.0 
163.038925 69680784.0 
181.049576 73798120.0 
225.04039 9182766.0 
END IONS

BEGIN IONS
RTINSECONDS=288.549988
CHARGE=1-
MSLEVEL=2
SMILES=O=C1c2c(C(=O)CCCC)cc(OC)cc2Oc2c(O1)cc(c(c2CCCCC)C(=O)O)O
INCHI=InChI=1S/C25H28O8/c1-4-6-8-9-15-21(24(28)29)18(27)13-20-23(15)32-19-12-14(31-3)11-16(17(26)10-7-5-2)22(19)25(30)33-20/h11-13,27H,4-10H2,1-3H3,(H,28,29)
INCHIKEY=JHEWMLHQNRHTQX-UHFFFAOYSA-N
CLASS=Depsidones
ADDUCT=[M-H]-
INSTRUMENT=Thermo Q-Exactive Focus
PRECURSOR_MZ=455.1706
COMPOUND_NAME=Lobaric acid
ION_MODE=negative
FORMULA=C25H28O8
91.977486 2389140.0 
133.101273 2930284.75 
233.081924 1041995.5 
281.082153 25758184.0 
281.113495 1656500.625 
295.097626 6586024.0 
296.106293 4771041.0 
298.085815 2337465.25 
309.113922 10025620.0 
352.168365 13771810.0 
354.14801 1770759.5 
367.191498 15307005.0 
369.171753 5231184.0 
411.182098 7483238.0 
END IONS

BEGIN IONS
RTINSECONDS=276.868011
CHARGE=1-
MSLEVEL=2
SMILES=O=C1C(=C(O)/C(=C(/c2ccccc2)\C(=O)OC)/O1)c1ccccc1
INCHI=InChI=1S/C19H14O5/c1-23-18(21)15(13-10-6-3-7-11-13)17-16(20)14(19(22)24-17)12-8-4-2-5-9-12/h2-11,20H,1H3/b17-15+
INCHIKEY=OMZRMXULWNMRAE-BMRADRMJSA-N
CLASS=Pulvinic Acid Derivatives
ADDUCT=[M-H]-
INSTRUMENT=Thermo Q-Exactive Focus
PRECURSOR_MZ=321.0763
COMPOUND_NAME=Vulpinic acid
ION_MODE=negative
FORMULA=C19H14O5
53.508293 113651.039062 
61.984375 145446.09375 
68.617714 170932.296875 
93.033493 1637796.875 
101.038589 5634218.5 
106.124153 97672.070312 
117.033447 11989228.0 
190.078079 11012018.0 
219.081818 517819.78125 
221.061554 319109.6875 
234.068726 16354962.0 
249.092438 38949800.0 
262.064148 15432010.0 
277.088348 318391.625 
END IONS

BEGIN IONS
RTINSECONDS=261.322998
CHARGE=1-
MSLEVEL=2
SMILES=O=C1c2c(CC(=O)CCCCC)cc(OC)c(O)c2Oc2c(O1)cc(c(c2CCCCC)C(=O)O)O
INCHI=InChI=1S/C27H32O9/c1-4-6-8-10-16(28)12-15-13-19(34-3)23(30)25-21(15)27(33)35-20-14-18(29)22(26(31)32)17(24(20)36-25)11-9-7-5-2/h13-14,29-30H,4-12H2,1-3H3,(H,31,32)
INCHIKEY=YFNNJORBJZUGCV-UHFFFAOYSA-N
CLASS=Depsidones
ADDUCT=[M-H]-
INSTRUMENT=Thermo Q-Exactive Focus
PRECURSOR_MZ=499.1968
COMPOUND_NAME=Lividic acid
ION_MODE=negative
FORMULA=C27H32O9
110.028267 893623.4375 
179.106888 24307156.0 
180.11055 484308.96875 
181.112228 129122.0625 
205.087341 2414800.5 
249.113174 14467142.0 
261.07663 2580486.5 
275.092712 4198308.0 
297.113373 24152180.0 
327.087769 8044911.5 
339.124146 5692029.0 
341.10318 9517061.0 
342.111023 5287522.0 
353.139008 8287320.5 
396.194153 19041056.0 
411.217529 6753209.5 
413.196503 4883562.5 
455.208557 3928232.5 
END IONS

BEGIN IONS
RTINSECONDS=213.158005
CHARGE=1-
MSLEVEL=2
SMILES=Oc1c(Oc2cc(OC)cc3c2C(=O)OC3(O)CCCC)c(CCCCC)c(c(c1)O)C(=O)O
INCHI=InChI=1S/C25H30O9/c1-4-6-8-9-15-20(23(28)29)17(26)13-18(27)22(15)33-19-12-14(32-3)11-16-21(19)24(30)34-25(16,31)10-7-5-2/h11-13,26-27,31H,4-10H2,1-3H3,(H,28,29)
INCHIKEY=BWRBGHBJBQFFAW-UHFFFAOYSA-N
CLASS=Diphenylethers
ADDUCT=[M-2H+Na]-
INSTRUMENT=Thermo Q-Exactive Focus
PRECURSOR_MZ=495.1631
COMPOUND_NAME=Lobariolcarboxylic acid (Lobarin)
ION_MODE=negative
FORMULA=C25H30O9
55.989082 8088.852539 
60.252224 8436.212891 
79.675697 7648.58252 
90.011345 8452.495117 
91.980881 22915.953125 
115.433022 7773.388184 
133.403793 8155.716309 
175.075958 8499.205078 
191.069778 8470.277344 
192.079544 14192.639648 
193.08667 42237.824219 
207.102737 51372.714844 
220.075119 9426.21875 
245.077103 8530.947266 
247.095657 8837.243164 
259.060059 11839.442383 
267.103088 8113.664551 
319.095856 16488.824219 
327.12442 9278.870117 
333.111877 12787.249023 
349.106262 20276.904297 
381.135925 31173.085938 
384.19577 28625.640625 
389.102478 22725.511719 
407.184845 36211.792969 
433.16394 391271.59375 
451.17511 144859.1875 
477.157318 10490.929688 
END IONS

BEGIN IONS
RTINSECONDS=315.615997
CHARGE=1-
MSLEVEL=2
SMILES=OC(=O)c1c(OC)cc(cc1CCCCC)OC(=O)c1c(CCCCC)cc(OC)cc1OC
INCHI=InChI=1S/C27H36O7/c1-6-8-10-12-18-15-21(17-22(32-4)24(18)26(28)29)34-27(30)25-19(13-11-9-7-2)14-20(31-3)16-23(25)33-5/h14-17H,6-13H2,1-5H3,(H,28,29)
INCHIKEY=FNJKTDQIJKLZGZ-UHFFFAOYSA-N
CLASS=Depsides (Didepsides)
ADDUCT=[M-H]-
INSTRUMENT=Thermo Q-Exactive Focus
PRECURSOR_MZ=471.2383
COMPOUND_NAME=Planaic acid
ION_MODE=negative
FORMULA=C27H36O7
57.059021 85962.695312 
121.028343 143040.8125 
122.036125 1653256.25 
151.076111 608245.125 
175.111893 1510976.625 
177.127518 506477.3125 
178.099091 2491734.5 
193.12265 17391132.0 
205.12326 643834.875 
251.129028 1220543.5 
279.065613 448312.1875 
294.128174 484557.8125 
307.134277 549370.6875 
324.137634 837627.625 
337.144836 5362893.0 
339.157806 871226.1875 
365.175262 594227.5 
365.21286 2276935.25 
379.190552 587167.6875 
395.222748 3967047.0 
END IONS

BEGIN IONS
RTINSECONDS=97.747299
CHARGE=1-
MSLEVEL=2
SMILES=Cc1cc(=O)c2c(o1)cc1c(c2O)C(=CC(=O)C1=O)O
INCHI=InChI=1S/C14H8O6/c1-5-2-7(15)12-10(20-5)3-6-11(14(12)19)8(16)4-9(17)13(6)18/h2-4,16,19H,1H3
INCHIKEY=NPUXQAACUNUHIX-UHFFFAOYSA-N
CLASS=Quinones
ADDUCT=[2M-2H+Na]-
INSTRUMENT=Thermo Q-Exactive Focus
PRECURSOR_MZ=565.0383
COMPOUND_NAME=Canarione
ION_MODE=negative
FORMULA=C14H8O6
57.827168 34152.558594 
83.486877 31093.216797 
85.615761 31483.322266 
91.980568 56788.09375 
97.968346 34931.984375 
116.817513 38788.773438 
154.43895 27768.216797 
172.967773 22573.089844 
199.040359 249988.65625 
205.384308 39427.523438 
227.034958 124280.585938 
243.030365 1073963.375 
268.439819 37831.347656 
271.025757 4633841.0 
293.920532 6842.309082 
361.016296 34024.078125 
413.709351 10707.176758 
425.302612 41726.410156 
435.56958 41120.441406 
450.539398 38641.789062 
468.029846 13856.364258 
506.088593 7178.11084 
506.152679 12577.689453 
509.424683 25364.019531 
594.453491 7553.677734 
END IONS

BEGIN IONS
RTINSECONDS=264.440002
CHARGE=1-
MSLEVEL=2
SMILES=CC(=O)CCCCCCCCCCCCC[C@@H]1C(C(=O)O)C(=C)C(=O)O1
INCHI=InChI=1S/C21H34O5/c1-16(22)14-12-10-8-6-4-3-5-7-9-11-13-15-18-19(20(23)24)17(2)21(25)26-18/h18-19H,2-15H2,1H3,(H,23,24)/t18-,19?/m1/s1
INCHIKEY=SKQHRBRVCRUFSX-MRTLOADZSA-N
CLASS=Paraconic acids
ADDUCT=[M-H+CH3OH]-
INSTRUMENT=Thermo Q-Exactive Focus
PRECURSOR_MZ=397.259
COMPOUND_NAME=Muronic acid
ION_MODE=negative
FORMULA=C21H34O5
57.033352 9932.555664 
78.750824 5478.146973 
85.028397 6885.415527 
91.977448 10632.098633 
111.007957 16892.119141 
143.034424 8650.598633 
150.846985 5788.651367 
165.174255 5655.750977 
167.428848 5998.180664 
209.191528 7449.34668 
225.070694 2525.478516 
225.186508 5341.535156 
261.221802 4384.664062 
277.254913 26734.333984 
293.25061 8848.538086 
303.234131 18496.65625 
318.00705 5877.15625 
321.244507 118388.25 
333.030304 5462.282715 
350.401337 5475.556152 
END IONS

BEGIN IONS
RTINSECONDS=306.980988
CHARGE=1-
MSLEVEL=2
SMILES=Cc1c(c(C(=O)C)c(c2c1OC1=CC(=C(C(=O)C21C)C(=O)C)O)O)O
INCHI=InChI=1S/C18H16O7/c1-6-14(22)12(8(3)20)15(23)13-16(6)25-10-5-9(21)11(7(2)19)17(24)18(10,13)4/h5,21-23H,1-4H3
INCHIKEY=GRIDHCOCFJSWSY-UHFFFAOYSA-N
CLASS=Dibenzofuranes
ADDUCT=[M-H]-
INSTRUMENT=Thermo Q-Exactive Focus
PRECURSOR_MZ=343.0818
COMPOUND_NAME=Isousnic acid
ION_MODE=negative
FORMULA=C18H16O7
82.384735 1515391.875 
83.012512 24944666.0 
222.237747 567392.375 
231.06575 10986021.0 
259.061188 9896075.0 
285.04007 2309781.5 
313.035797 24151292.0 
END IONS

BEGIN IONS
RTINSECONDS=274.234009
CHARGE=1-
MSLEVEL=2
SMILES=Oc1cc(OC(=O)c2c(O)cc(OC)cc2CCC(=O)CC)cc(CCCCC)c1C(=O)O
INCHI=InChI=1S/C25H30O8/c1-4-6-7-8-15-12-19(14-20(27)22(15)24(29)30)33-25(31)23-16(9-10-17(26)5-2)11-18(32-3)13-21(23)28/h11-14,27-28H,4-10H2,1-3H3,(H,29,30)
INCHIKEY=UCYIOAVHQGSYLP-UHFFFAOYSA-N
CLASS=Depsides (Didepsides)
ADDUCT=[M-H]-
INSTRUMENT=Thermo Q-Exactive Focus
PRECURSOR_MZ=457.1862
COMPOUND_NAME=Miriquidic acid
ION_MODE=negative
FORMULA=C25H30O8
91.017578 5273837.0 
91.976585 2446150.25 
135.116898 2083009.5 
137.0961 3826468.75 
161.0961 9666328.0 
179.106766 43519752.0 
205.086411 155325296.0 
223.097229 65203036.0 
369.208344 2949457.25 
END IONS

BEGIN IONS
RTINSECONDS=136.925995
CHARGE=1-
MSLEVEL=2
SMILES=O=C1OCc2c1c(cc1c2c2c(C)cc(O)cc2o1)O
INCHI=InChI=1S/C15H10O5/c1-6-2-7(16)3-10-12(6)14-8-5-19-15(18)13(8)9(17)4-11(14)20-10/h2-4,16-17H,5H2,1H3
INCHIKEY=OOXFLIUVCWLPKE-UHFFFAOYSA-N
CLASS=Dibenzofuranes
ADDUCT=[2M-H]-
INSTRUMENT=Thermo Q-Exactive Focus
PRECURSOR_MZ=539.0978
COMPOUND_NAME=Strepsilin
ION_MODE=negative
FORMULA=C15H10O5
73.696594 63294.367188 
83.984901 117404.726562 
85.988739 121756.359375 
91.977051 278962.96875 
93.163628 61077.242188 
146.345963 114097.554688 
154.477264 121796.59375 
160.436066 64044.835938 
169.064758 162413.703125 
191.630478 153475.1875 
197.060379 4234831.0 
215.070648 311233.15625 
225.055618 6442678.0 
241.051102 191067.796875 
269.045898 18527154.0 
310.708313 8753.587891 
350.91861 62303.789062 
END IONS

BEGIN IONS
RTINSECONDS=322.118011
CHARGE=1-
MSLEVEL=2
SMILES=CCCCCCCCCCCCC[C@@H]1[C@@H](C(=O)O)[C@H](C)C(=O)O1
INCHI=InChI=1S/C19H34O4/c1-3-4-5-6-7-8-9-10-11-12-13-14-16-17(18(20)21)15(2)19(22)23-16/h15-17H,3-14H2,1-2H3,(H,20,21)/t15-,16+,17-/m0/s1
INCHIKEY=WLGALFYTFVOQPY-BBWFWOEESA-N
CLASS=Paraconic acids
ADDUCT=[M-H+CH3OH]-
INSTRUMENT=Thermo Q-Exactive Focus
PRECURSOR_MZ=357.2641
COMPOUND_NAME=Roccellaric acid
ION_MODE=negative
FORMULA=C19H34O4
69.033501 19303.023438 
73.980576 5710.225098 
79.838577 5603.387695 
88.346428 6201.048828 
91.982491 7622.417969 
113.023422 216813.40625 
133.235397 5551.796875 
146.455948 5270.891113 
158.089798 5693.734863 
162.159485 5608.907715 
194.928024 4986.855469 
215.368759 1959.333862 
252.455566 6397.651855 
260.462189 5655.105957 
281.249451 34133.148438 
286.976288 6062.53125 
301.544281 5613.579102 
325.239624 48653.429688 
325.27536 2321.993408 
373.390472 5458.109863 
END IONS

BEGIN IONS
RTINSECONDS=172.093994
CHARGE=1-
MSLEVEL=2
SMILES=Oc1c(C)c(O)cc(C)c1C(=O)OC
INCHI=InChI=1S/C10H12O4/c1-5-4-7(11)6(2)9(12)8(5)10(13)14-3/h4,11-12H,1-3H3
INCHIKEY=UUQHKWMIDYRWHH-UHFFFAOYSA-N
CLASS=Cleavage Products of Depsides and Depsidones
ADDUCT=[M-H]-
INSTRUMENT=Thermo Q-Exactive Focus
PRECURSOR_MZ=195.0657
COMPOUND_NAME=Methyl beta-orcinolcarboxylate
ION_MODE=negative
FORMULA=C10H12O4
63.921055 23186.960938 
91.977005 372575.5 
119.049011 33512212.0 
163.039215 46336620.0 
END IONS

BEGIN IONS
RTINSECONDS=235.595001
CHARGE=1-
MSLEVEL=2
SMILES=Oc1c(C(=O)Oc2c(OC)cc(c(C(=O)O)c2O)CCC)c(CCC)cc(OC)c1
INCHI=InChI=1S/C22H26O8/c1-5-7-12-9-14(28-3)11-15(23)17(12)22(27)30-20-16(29-4)10-13(8-6-2)18(19(20)24)21(25)26/h9-11,23-24H,5-8H2,1-4H3,(H,25,26)
INCHIKEY=CPHXGYQLOSNELY-UHFFFAOYSA-N
CLASS=Depsides (Didepsides)
ADDUCT=[M-2H+Na]-
INSTRUMENT=Thermo Q-Exactive Focus
PRECURSOR_MZ=439.1369
COMPOUND_NAME=Sekikaic acid
ION_MODE=negative
FORMULA=C22H26O8
57.994366 6276.763672 
68.457085 6078.591309 
91.554497 5926.338867 
91.983475 10546.414062 
108.348671 5937.582031 
140.869553 6333.018555 
150.06781 9948.62793 
165.054901 17654.431641 
165.091644 31071.580078 
209.045349 37350.785156 
209.081696 25839.847656 
220.034531 8927.477539 
232.035217 24205.023438 
247.058456 95308.6875 
264.025391 29291.384766 
279.048401 11490.643555 
298.247192 6656.966309 
311.784088 6057.865723 
340.076691 5760.760742 
340.115601 6189.092285 
366.766357 5836.41748 
370.626617 6303.657715 
374.427643 2615.167725 
395.271088 2633.392334 
456.714417 2477.575195 
END IONS

BEGIN IONS
RTINSECONDS=293.636993
CHARGE=1-
MSLEVEL=2
SMILES=CCCCCc1cc(cc(c1C(=O)O)OC)OC(=O)c1c(cc(cc1CC(=O)CCCCC)OC)O
INCHI=InChI=1S/C28H36O8/c1-5-7-9-11-18-14-22(17-24(35-4)26(18)27(31)32)36-28(33)25-19(13-20(29)12-10-8-6-2)15-21(34-3)16-23(25)30/h14-17,30H,5-13H2,1-4H3,(H,31,32)
INCHIKEY=UANVCGQMNRTKGM-UHFFFAOYSA-N
CLASS=Depsides (Didepsides)
ADDUCT=[2M-2H+Na]-
INSTRUMENT=Thermo Q-Exactive Focus
PRECURSOR_MZ=1021.4562
COMPOUND_NAME=Confluentic acid
ION_MODE=negative
FORMULA=C28H36O8
72.74791 5081.308594 
91.980118 9209.503906 
117.890648 11561.222656 
121.028236 9530.798828 
122.036308 99943.398438 
128.235062 10572.557617 
135.044006 9668.34375 
178.099335 150562.21875 
179.1026 18596.339844 
191.107452 25969.767578 
193.123001 879188.25 
194.126801 106733.125 
237.113266 232844.875 
238.11795 29933.636719 
246.089752 25374.521484 
257.11618 34260.441406 
259.095154 16534.054688 
261.113464 162007.59375 
301.105988 12164.34375 
309.114838 9305.079102 
364.093445 12317.527344 
365.136414 9303.171875 
379.118866 7184.879395 
389.174286 6709.991211 
427.193024 6830.838867 
441.235413 5039.86377 
445.201996 30171.296875 
459.220306 10666.036133 
477.225891 22454.757812 
497.216827 40863.433594 
521.216858 318490.40625 
522.220398 81266.5625 
527.862183 6596.185547 
549.045349 5275.911621 
581.968628 11103.110352 
697.854431 6121.558594 
755.257263 6457.686523 
759.33905 42369.929688 
855.91626 5806.761719 
861.80072 11707.549805 
912.83313 5723.014648 
952.385193 5085.856445 
END IONS

BEGIN IONS
RTINSECONDS=346.345001
CHARGE=1-
MSLEVEL=2
SMILES=CCCCCCCCCCCCC[C@H]1C(=C(C(=O)O1)C)C(=O)O
INCHI=InChI=1S/C19H32O4/c1-3-4-5-6-7-8-9-10-11-12-13-14-16-17(18(20)21)15(2)19(22)23-16/h16H,3-14H2,1-2H3,(H,20,21)/t16-/m0/s1
INCHIKEY=SLQVVNFTCYVCPB-INIZCTEOSA-N
CLASS=Paraconic acids
ADDUCT=[2M-H]-
INSTRUMENT=Thermo Q-Exactive Focus
PRECURSOR_MZ=647.4523
COMPOUND_NAME=Lichesterinic acid
ION_MODE=negative
FORMULA=C19H32O4
65.519646 53604.808594 
66.350845 71671.5625 
91.977791 744990.75 
279.233429 23075760.0 
323.223724 59350168.0 
END IONS

BEGIN IONS
RTINSECONDS=221.171005
CHARGE=1-
MSLEVEL=2
SMILES=Cc1cc(c2c(c1)C(=O)C13C4C5C(C1C(=O)C1=C(c6c(cc(cc6C(=O)C51C(C4O)C(=O)C3=C2O)C)O)O)O)O
INCHI=InChI=1S/C30H22O10/c1-7-3-9-13(11(31)5-7)21(33)17-25(37)20-23(35)15-16-24(36)19(29(15,17)27(9)39)26(38)18-22(34)14-10(28(40)30(16,18)20)4-8(2)6-12(14)32/h3-6,15-16,19-20,23-24,31-36H,1-2H3
INCHIKEY=QFDPVUTXKUGISP-UHFFFAOYSA-N
CLASS=Quinones
ADDUCT=[2M-H]-
INSTRUMENT=Thermo Q-Exactive Focus
PRECURSOR_MZ=1083.2347
COMPOUND_NAME=Rugulosin
ION_MODE=negative
FORMULA=C30H22O10
103.846031 11948.136719 
109.350174 12002.166992 
118.586777 12451.321289 
136.472107 13380.953125 
136.744278 12409.793945 
179.834793 12452.226562 
181.065521 13138.763672 
197.061996 17709.914062 
225.055801 122531.453125 
241.052094 31518.255859 
253.051224 107617.015625 
269.017548 24879.671875 
269.046387 1221052.875 
271.062012 119879.914062 
318.021332 12691.337891 
332.745483 12966.743164 
362.979462 11946.472656 
363.844635 11306.308594 
364.166534 12289.75293 
383.646271 11146.466797 
384.092926 12391.951172 
416.46167 13587.709961 
435.090332 50664.664062 
438.076874 31524.841797 
453.101929 29557.34375 
471.110046 59219.894531 
496.991211 13334.581055 
541.115967 243955.75 
877.107056 13393.174805 
933.987061 15264.754883 
1056.384399 15475.34375 
END IONS

BEGIN IONS
RTINSECONDS=313.402008
CHARGE=1-
MSLEVEL=2
SMILES=OC(=O)c1c(OC)cc(cc1CCCCC)OC(=O)c1c(CCCCC)cc(OC)cc1OC
INCHI=InChI=1S/C27H36O7/c1-6-8-10-12-18-15-21(17-22(32-4)24(18)26(28)29)34-27(30)25-19(13-11-9-7-2)14-20(31-3)16-23(25)33-5/h14-17H,6-13H2,1-5H3,(H,28,29)
INCHIKEY=FNJKTDQIJKLZGZ-UHFFFAOYSA-N
CLASS=Depsides (Didepsides)
ADDUCT=[M-H+HCOOH]-
INSTRUMENT=Thermo Q-Exactive Focus
PRECURSOR_MZ=517.2438
COMPOUND_NAME=Planaic acid
ION_MODE=negative
FORMULA=C27H36O7
70.377045 48186.675781 
91.981422 90032.726562 
122.036057 251275.796875 
151.075668 90045.46875 
175.112213 279698.34375 
177.127792 90277.960938 
178.099228 320835.09375 
193.122772 2928960.0 
205.123154 81389.953125 
251.128845 173470.859375 
309.151947 78269.976562 
324.137238 134643.421875 
337.144897 775056.875 
350.188385 85083.835938 
365.173798 104727.5 
365.213562 185048.703125 
395.222565 420547.59375 
471.238495 588841.25 
END IONS

BEGIN IONS
RTINSECONDS=270.412994
CHARGE=1-
MSLEVEL=2
SMILES=CC1=C(C(=O)O)[C@@H](CCCCCCCCCCCCC(C)CO)OC1=O
INCHI=InChI=1S/C21H36O5/c1-16(15-22)13-11-9-7-5-3-4-6-8-10-12-14-18-19(20(23)24)17(2)21(25)26-18/h16,18,22H,3-15H2,1-2H3,(H,23,24)/t16?,18-/m1/s1
INCHIKEY=FEGXSCTZZUZMJG-UHUGOGIASA-N
CLASS=Paraconic acids
ADDUCT=[2M-2H+Na]-
INSTRUMENT=Thermo Q-Exactive Focus
PRECURSOR_MZ=757.4867
COMPOUND_NAME=Isomurolic acid
ION_MODE=negative
FORMULA=C21H36O5
57.033337 47876.597656 
61.811977 48220.976562 
65.980064 49388.789062 
77.354324 50968.949219 
78.573097 45628.609375 
118.632607 61699.707031 
155.144363 23714.263672 
187.626709 60825.855469 
199.546265 61175.890625 
202.996765 30522.794922 
211.678085 32127.183594 
233.228027 91063.023438 
263.239075 84664.5625 
279.270355 108065.445312 
299.236908 124324.367188 
301.251495 105505.710938 
323.259979 1245057.125 
367.249878 717771.125 
387.217316 195868.9375 
389.232056 199907.71875 
404.485291 23212.570312 
442.248352 7934.908691 
493.086212 33329.992188 
537.682983 23733.978516 
548.772095 11854.21582 
558.39386 10084.375977 
640.440857 25067.814453 
650.767212 9177.466797 
666.42804 22909.732422 
774.083618 8646.044922 
END IONS

BEGIN IONS
RTINSECONDS=261.457001
CHARGE=1-
MSLEVEL=2
SMILES=Cc1cc(c(c(c1C(=O)O)O)C)OC(=O)c1c(c(c(cc1C)OC)C)OC
INCHI=InChI=1S/C20H22O7/c1-9-8-14(11(3)17(21)15(9)19(22)23)27-20(24)16-10(2)7-13(25-5)12(4)18(16)26-6/h7-8,21H,1-6H3,(H,22,23)
INCHIKEY=MIJKZXWOOXIEEU-UHFFFAOYSA-N
CLASS=Depsides (Didepsides)
ADDUCT=[2M-2H+Na]-
INSTRUMENT=Thermo Q-Exactive Focus
PRECURSOR_MZ=769.2472
COMPOUND_NAME=Diffractaic acid
ION_MODE=negative
FORMULA=C20H22O7
56.298603 21063.568359 
67.760605 23349.607422 
107.04895 73249.914062 
135.080154 170765.5 
136.051849 77454.609375 
137.059464 251333.578125 
163.075424 65085.457031 
165.090958 102226.664062 
209.081085 538850.25 
238.099686 71028.453125 
267.066162 49988.105469 
282.089569 292489.75 
285.149597 184879.203125 
297.113037 633269.6875 
329.139435 424408.625 
357.697632 9738.301758 
369.273621 23337.796875 
373.128998 2012867.375 
381.532379 23999.226562 
408.767975 23075.482422 
408.832336 22792.728516 
418.684113 19896.287109 
474.89917 14069.429688 
509.136047 3356.64624 
513.149719 14056.950195 
525.383972 22180.642578 
555.410156 22240.605469 
604.067322 9774.612305 
620.330078 12013.104492 
652.318115 3419.905029 
731.301331 11061.290039 
804.113586 20946.080078 
END IONS

BEGIN IONS
RTINSECONDS=296.403992
CHARGE=1-
MSLEVEL=2
SMILES=CCCCCCCCCCCC1[C@H](C(=O)O)C(C)C(=O)O1
INCHI=InChI=1S/C17H30O4/c1-3-4-5-6-7-8-9-10-11-12-14-15(16(18)19)13(2)17(20)21-14/h13-15H,3-12H2,1-2H3,(H,18,19)/t13?,14?,15-/m1/s1
INCHIKEY=PKXAQFKGSXYQJX-YMAMQOFZSA-N
CLASS=Paraconic acids
ADDUCT=[2M-H]-
INSTRUMENT=Thermo Q-Exactive Focus
PRECURSOR_MZ=595.421
COMPOUND_NAME=Nephrosteranic acid
ION_MODE=negative
FORMULA=C17H30O4
69.033524 227912.390625 
91.983139 1452727.5 
107.010178 774456.5625 
113.023445 11075736.0 
253.217621 76617072.0 
297.207855 111416312.0 
END IONS

BEGIN IONS
RTINSECONDS=149.647003
CHARGE=1-
MSLEVEL=2
SMILES=c1c(cc2c(c1O)C(=O)c1c(cc(cc1C2=O)O)O)CO
INCHI=InChI=1S/C15H10O6/c16-5-6-1-8-12(10(18)2-6)15(21)13-9(14(8)20)3-7(17)4-11(13)19/h1-4,16-19H,5H2
INCHIKEY=YQHZABGPIPECSQ-UHFFFAOYSA-N
CLASS=Quinones
ADDUCT=[2M-2H+Na]-
INSTRUMENT=Thermo Q-Exactive Focus
PRECURSOR_MZ=593.0696
COMPOUND_NAME=Citreorosein
ION_MODE=negative
FORMULA=C15H10O6
53.600773 6704.613281 
57.681412 6785.906738 
87.222824 7025.418945 
93.523232 7003.862793 
106.193344 7389.533691 
107.574638 7816.520996 
126.722206 8711.387695 
145.332062 7361.666504 
147.374969 8321.791992 
199.884354 6808.813477 
205.177597 7391.91748 
211.039322 6099.369629 
222.352005 6609.631348 
241.050858 23708.271484 
257.04599 9517.645508 
280.644928 7638.256836 
281.006378 6656.486816 
285.041351 1084427.375 
333.865723 3684.231445 
348.583893 7569.034668 
378.253906 7285.751465 
END IONS

BEGIN IONS
RTINSECONDS=15.4144
CHARGE=1-
MSLEVEL=2
SMILES=OC[C@@H](O)[C@@H](O)[C@H](O)[C@H](O)CO
INCHI=InChI=1S/C6H14O6/c7-1-3(9)5(11)6(12)4(10)2-8/h3-12H,1-2H2/t3-,4-,5-,6-/m1/s1
INCHIKEY=FBPFZTCFMRRESA-KVTDHHQDSA-N
CLASS="Polyols, Monosaccharides, Carbohydrates"
ADDUCT=[M+Cl]-
INSTRUMENT=Thermo Q-Exactive Focus
PRECURSOR_MZ=217.0479
COMPOUND_NAME=D-Mannitol
ION_MODE=negative
FORMULA=C6H14O6
59.012451 16999.398438 
59.370804 14412.397461 
71.012665 15275.946289 
91.982262 16843.916016 
97.677803 15991.852539 
101.023117 23414.019531 
124.910095 13038.285156 
175.186188 4724.641602 
181.070862 98018.289062 
232.503906 13404.063477 
237.549622 4242.804199 
END IONS

BEGIN IONS
RTINSECONDS=236.645004
CHARGE=1-
MSLEVEL=2
SMILES=O=c1oc(CCCCC)cc2c1c(cc(c2)O)O
INCHI=InChI=1S/C14H16O4/c1-2-3-4-5-11-7-9-6-10(15)8-12(16)13(9)14(17)18-11/h6-8,15-16H,2-5H2,1H3
INCHIKEY=FIMFRMRZGBUYMV-UHFFFAOYSA-N
CLASS=Cleavage Products of Depsides and Depsidones
ADDUCT=[2M-H]-
INSTRUMENT=Thermo Q-Exactive Focus
PRECURSOR_MZ=495.2019
COMPOUND_NAME=Olivetonide
ION_MODE=negative
FORMULA=C14H16O4
54.344463 743480.25 
91.982033 17084.763672 
146.036514 2341954.75 
190.026703 17282490.0 
203.107193 479554.21875 
205.086334 37558.015625 
247.097839 163421120.0 
END IONS

BEGIN IONS
RTINSECONDS=323.048004
CHARGE=1-
MSLEVEL=2
SMILES=CC(C)C[C@@H](C(=O)OC)NC(=O)/C(=C\1/C(=C(C(=O)O1)c1ccccc1)O)/c1ccccc1
INCHI=InChI=1S/C25H25NO6/c1-15(2)14-18(24(29)31-3)26-23(28)20(17-12-8-5-9-13-17)22-21(27)19(25(30)32-22)16-10-6-4-7-11-16/h4-13,15,18,27H,14H2,1-3H3,(H,26,28)/b22-20-/t18-/m0/s1
INCHIKEY=IBSRGCBHIASQMQ-BKBKCADHSA-N
CLASS=Pulvinic Acid Derivatives
ADDUCT=[M-H]-
INSTRUMENT=Thermo Q-Exactive Focus
PRECURSOR_MZ=434.1604
COMPOUND_NAME=Epanorin
ION_MODE=negative
FORMULA=C25H25NO6
101.038597 1215926.125 
117.033615 61090648.0 
191.086319 27909408.0 
219.079758 875695.5 
234.069275 2013778.875 
263.072083 122271256.0 
301.075623 9455443.0 
358.145416 897099.4375 
END IONS

BEGIN IONS
RTINSECONDS=293.329987
CHARGE=1-
MSLEVEL=2
SMILES=Cc1c2c(Oc3c(OC2=O)c(c(c(c3C)Cl)OC)C)c(Cl)c(O)c1Cl
INCHI=InChI=1S/C17H13Cl3O5/c1-5-8-16(11(20)12(21)9(5)18)24-14-6(2)10(19)13(23-4)7(3)15(14)25-17(8)22/h21H,1-4H3
INCHIKEY=MTWNEIGWRWQLFS-UHFFFAOYSA-N
CLASS=Depsidones
ADDUCT=[M-H]-
INSTRUMENT=Thermo Q-Exactive Focus
PRECURSOR_MZ=400.975
COMPOUND_NAME=Caloploicin
ION_MODE=negative
FORMULA=C17H13Cl3O5
91.980736 816718.75 
258.009064 1373874.875 
277.991211 1714818.25 
286.003815 1561314.875 
293.987183 1754946.75 
305.986145 2532325.75 
321.98114 3345372.75 
341.962677 7972813.5 
349.975555 11079891.0 
364.999237 7794383.5 
END IONS

BEGIN IONS
RTINSECONDS=295.053009
CHARGE=1-
MSLEVEL=2
SMILES=O=C(O)C(CCCCCCCCCCCC)C(C)C(=O)O
INCHI=InChI=1S/C17H32O4/c1-3-4-5-6-7-8-9-10-11-12-13-15(17(20)21)14(2)16(18)19/h14-15H,3-13H2,1-2H3,(H,18,19)(H,20,21)
INCHIKEY=CADNMISJDLVPCK-UHFFFAOYSA-N
CLASS=Acids
ADDUCT=[2M-H]-
INSTRUMENT=Thermo Q-Exactive Focus
PRECURSOR_MZ=599.4523
COMPOUND_NAME=Roccellic acid
ION_MODE=negative
FORMULA=C17H32O4
62.579762 7309.98291 
68.978699 9761.665039 
83.049072 610997.375 
112.015625 1712026.0 
237.223099 4681071.0 
255.233383 106264744.0 
266.189301 1148426.25 
281.21286 3224935.75 
299.223572 59522180.0 
END IONS

BEGIN IONS
RTINSECONDS=190.638
CHARGE=1-
MSLEVEL=2
SMILES=Oc1c(C(=O)Oc2cc(C)c(c(O)c2C)C(=O)O)c(C)cc(OC)c1C(=O)O
INCHI=InChI=1S/C19H18O9/c1-7-5-10(9(3)15(20)12(7)17(22)23)28-19(26)13-8(2)6-11(27-4)14(16(13)21)18(24)25/h5-6,20-21H,1-4H3,(H,22,23)(H,24,25)
INCHIKEY=WCWYEXBIRSSVGF-UHFFFAOYSA-N
CLASS=Depsides (Didepsides)
ADDUCT=[M-2H+Na]-
INSTRUMENT=Thermo Q-Exactive Focus
PRECURSOR_MZ=411.0692
COMPOUND_NAME=Squamatic acid
ION_MODE=negative
FORMULA=C19H18O9
51.899002 1873.791626 
53.588825 1859.692505 
91.983154 29137.701172 
119.049072 269869.875 
136.05188 32337.880859 
137.059662 60805.324219 
151.039047 32715.845703 
163.039017 690874.25 
181.049728 127198.984375 
203.031937 146215.375 
221.04332 9023.881836 
229.011444 106350.070312 
323.090607 52156.988281 
367.080383 64645.910156 
END IONS

BEGIN IONS
RTINSECONDS=296.039001
CHARGE=1-
MSLEVEL=2
SMILES=CCCc1cc(cc(c1C(=O)Oc1cc(c(c(c1)CCC)C(=O)O)O)O)OC
INCHI=InChI=1S/C21H24O7/c1-4-6-12-9-15(11-16(22)18(12)20(24)25)28-21(26)19-13(7-5-2)8-14(27-3)10-17(19)23/h8-11,22-23H,4-7H2,1-3H3,(H,24,25)
INCHIKEY=FSRDIJIAQPSMMR-UHFFFAOYSA-N
CLASS=Depsides (Didepsides)
ADDUCT=[M-H]-
INSTRUMENT=Thermo Q-Exactive Focus
PRECURSOR_MZ=387.1444
COMPOUND_NAME=Divaricatic acid
ION_MODE=negative
FORMULA=C21H24O7
85.669991 480027.15625 
91.017609 807863.0 
91.977043 863411.0625 
107.08532 572979.8125 
109.064461 812361.25 
133.06459 2257542.0 
151.075546 10848598.0 
177.054718 26749836.0 
195.06572 17538592.0 
END IONS

BEGIN IONS
RTINSECONDS=201.279999
CHARGE=1-
MSLEVEL=2
SMILES=Oc1cc(C(=O)O)cc2c1C(=O)c1c(cc(cc1O)OC)C2=O
INCHI=InChI=1S/C16H10O7/c1-23-7-4-9-13(11(18)5-7)15(20)12-8(14(9)19)2-6(16(21)22)3-10(12)17/h2-5,17-18H,1H3,(H,21,22)
INCHIKEY=HEULMVKOOVHXME-UHFFFAOYSA-N
CLASS=Quinones
ADDUCT=[M-H]-
INSTRUMENT=Thermo Q-Exactive Focus
PRECURSOR_MZ=313.0348
COMPOUND_NAME=Parietinic acid
ION_MODE=negative
FORMULA=C16H10O7
198.032181 191162.25 
202.027206 28302.273438 
226.02742 827500.25 
230.02243 948747.0625 
254.022614 5140590.5 
258.017609 1062894.625 
269.046173 847715.6875 
287.056976 1595257.5 
END IONS

BEGIN IONS
RTINSECONDS=259.971008
CHARGE=1-
MSLEVEL=2
SMILES=O=C1c2c(CC(=O)CCCCC)cc(O)cc2Oc2c(O1)cc(c(c2CCCCC)C(=O)O)O
INCHI=InChI=1S/C26H30O8/c1-3-5-7-9-16(27)11-15-12-17(28)13-20-22(15)26(32)34-21-14-19(29)23(25(30)31)18(24(21)33-20)10-8-6-4-2/h12-14,28-29H,3-11H2,1-2H3,(H,30,31)
INCHIKEY=KVTYWHGIZSCFLG-UHFFFAOYSA-N
CLASS=Depsidones
ADDUCT=[2M-2H+Na]-
INSTRUMENT=Thermo Q-Exactive Focus
PRECURSOR_MZ=961.3623
COMPOUND_NAME=Physodic acid
ION_MODE=negative
FORMULA=C26H30O8
67.599503 11018.594727 
70.018242 12451.970703 
91.983543 45182.355469 
92.143929 14248.476562 
123.0439 18917.652344 
133.101273 37515.226562 
149.023636 38611.039062 
162.584106 16343.65332 
166.87262 13991.808594 
218.096039 17412.505859 
226.063828 33877.457031 
247.097351 65807.742188 
259.134155 32038.154297 
282.126953 46403.347656 
283.134369 215396.125 
285.113831 89575.695312 
310.12207 51232.152344 
324.137238 130243.773438 
357.207458 84152.703125 
381.207672 412390.0625 
383.186829 504283.8125 
405.168762 31222.248047 
407.187622 40376.992188 
425.197601 610511.875 
451.176331 22505.574219 
469.187378 268723.09375 
470.36911 12390.436523 
491.170105 23965.037109 
512.176025 10893.496094 
580.904175 15284.457031 
583.037476 5099.623535 
614.017029 4815.861816 
637.269165 5613.197754 
642.812561 16634.462891 
643.305969 4304.123535 
701.15625 12601.15625 
703.844727 12079.899414 
732.930603 12867.235352 
733.419373 11644.170898 
775.162109 12079.786133 
795.103027 11578.996094 
839.539124 14653.060547 
843.896606 12852.099609 
921.302002 13723.21582 
923.312195 15510.174805 
END IONS

BEGIN IONS
RTINSECONDS=56.573399
CHARGE=1-
MSLEVEL=2
SMILES=O=C(O)c1c(C)cc(O)cc1OC
INCHI=InChI=1S/C9H10O4/c1-5-3-6(10)4-7(13-2)8(5)9(11)12/h3-4,10H,1-2H3,(H,11,12)
INCHIKEY=HKYUPCAKFRQXJI-UHFFFAOYSA-N
CLASS=Cleavage Products of Depsides and Depsidones
ADDUCT=[2M-H]-
INSTRUMENT=Thermo Q-Exactive Focus
PRECURSOR_MZ=363.108
COMPOUND_NAME=Isoevernic acid
ION_MODE=negative
FORMULA=C9H10O4
56.333893 333157.28125 
67.489143 317771.8125 
103.403206 357326.125 
110.666664 388196.78125 
122.035797 9560218.0 
137.059464 26521208.0 
181.049561 12004139.0 
184.195282 412051.3125 
184.826202 381695.21875 
231.39325 156355.890625 
232.11702 154589.4375 
249.7341 198803.765625 
250.684769 163017.96875 
295.405426 9335.678711 
297.516418 422855.1875 
314.386414 49698.242188 
END IONS

BEGIN IONS
RTINSECONDS=334.803986
CHARGE=1-
MSLEVEL=2
SMILES=CCCCCCCCCCCCC[C@@H]1[C@@H](C(=O)O)[C@H](C)C(=O)O1
INCHI=InChI=1S/C19H34O4/c1-3-4-5-6-7-8-9-10-11-12-13-14-16-17(18(20)21)15(2)19(22)23-16/h15-17H,3-14H2,1-2H3,(H,20,21)/t15-,16+,17-/m0/s1
INCHIKEY=WLGALFYTFVOQPY-BBWFWOEESA-N
CLASS=Paraconic acids
ADDUCT=[2M-2H+Na]-
INSTRUMENT=Thermo Q-Exactive Focus
PRECURSOR_MZ=673.4655
COMPOUND_NAME=Roccellaric acid
ION_MODE=negative
FORMULA=C19H34O4
69.033325 24082.09375 
91.983269 120627.929688 
100.554153 43695.195312 
113.02343 282080.0625 
281.24939 1334171.0 
281.278473 84501.703125 
325.23941 792422.0 
461.25528 25818.177734 
629.476685 124410.617188 
END IONS

BEGIN IONS
RTINSECONDS=149.447006
CHARGE=1-
MSLEVEL=2
SMILES=c1c(cc2c(c1O)C(=O)c1c(cc(cc1C2=O)O)O)CO
INCHI=InChI=1S/C15H10O6/c16-5-6-1-8-12(10(18)2-6)15(21)13-9(14(8)20)3-7(17)4-11(13)19/h1-4,16-19H,5H2
INCHIKEY=YQHZABGPIPECSQ-UHFFFAOYSA-N
CLASS=Quinones
ADDUCT=[2M-H]-
INSTRUMENT=Thermo Q-Exactive Focus
PRECURSOR_MZ=571.0877
COMPOUND_NAME=Citreorosein
ION_MODE=negative
FORMULA=C15H10O6
50.864265 22212.035156 
50.962677 29335.595703 
80.226936 23602.570312 
88.016426 34871.898438 
101.17173 35405.503906 
102.410156 24190.900391 
111.353935 34883.402344 
144.598831 24696.871094 
185.224823 23084.318359 
187.319962 24524.982422 
199.70787 8529.025391 
211.040558 65955.71875 
241.051544 147588.8125 
257.046356 93691.554688 
268.038086 19155.503906 
285.041382 4352188.0 
291.83017 7928.664062 
343.832794 8702.064453 
369.214325 8450.678711 
396.998474 8961.916016 
416.556793 8621.555664 
444.419556 9415.248047 
454.503235 9555.356445 
493.833862 8445.584961 
END IONS

BEGIN IONS
RTINSECONDS=333.765015
CHARGE=1-
MSLEVEL=2
SMILES=O=C(O)C[C@@H]([C@H](CCCCCCCCCCCCCC)C(=O)O)C(=O)OC
INCHI=InChI=1S/C21H38O6/c1-3-4-5-6-7-8-9-10-11-12-13-14-15-17(20(24)25)18(16-19(22)23)21(26)27-2/h17-18H,3-16H2,1-2H3,(H,22,23)(H,24,25)/t17-,18-/m0/s1
INCHIKEY=MZWQZYDNVSKPPF-ROUUACIJSA-N
CLASS=Acids
ADDUCT=[2M-2H+Na]-
INSTRUMENT=Thermo Q-Exactive Focus
PRECURSOR_MZ=793.5078
COMPOUND_NAME=Isorangiformic acid
ION_MODE=negative
FORMULA=C21H38O6
59.012653 67315.539062 
71.01265 52394.363281 
71.049065 32916.894531 
83.049141 18021.224609 
97.999931 68046.132812 
127.660194 16341.136719 
131.670868 15226.688477 
149.556839 16185.710938 
169.539017 13513.99707 
185.270554 15735.392578 
249.222427 21485.480469 
255.234192 55214.429688 
265.254303 1180831.125 
267.233765 38020.945312 
293.213257 188462.84375 
309.244232 144437.71875 
319.227142 32417.978516 
331.226501 150825.09375 
349.236816 58664.847656 
353.234314 932934.3125 
375.216217 322738.6875 
385.261414 11002.813477 
393.226379 19560.074219 
407.242889 23259.710938 
419.233002 7849.422852 
438.477966 8788.017578 
444.913544 5341.47168 
458.290527 4610.400879 
547.456238 11001.760742 
565.353149 15452.166992 
578.392761 9347.291016 
598.25769 15079.691406 
600.753662 17405.501953 
619.411621 15014.704102 
639.531799 5448.679688 
729.45874 241709.296875 
748.354858 17029.935547 
761.485474 153655.125 
764.247742 16381.37207 
END IONS

BEGIN IONS
RTINSECONDS=219.429993
CHARGE=1-
MSLEVEL=2
SMILES=Cc1cc(c2c(c1)C(=O)C13C4C5C(C1C(=O)C1=C(c6c(cc(cc6C(=O)C51C(C4O)C(=O)C3=C2O)C)O)O)O)O
INCHI=InChI=1S/C30H22O10/c1-7-3-9-13(11(31)5-7)21(33)17-25(37)20-23(35)15-16-24(36)19(29(15,17)27(9)39)26(38)18-22(34)14-10(28(40)30(16,18)20)4-8(2)6-12(14)32/h3-6,15-16,19-20,23-24,31-36H,1-2H3
INCHIKEY=QFDPVUTXKUGISP-UHFFFAOYSA-N
CLASS=Quinones
ADDUCT=[M-H]-
INSTRUMENT=Thermo Q-Exactive Focus
PRECURSOR_MZ=541.1135
COMPOUND_NAME=Rugulosin
ION_MODE=negative
FORMULA=C30H22O10
62.472839 886682.5 
83.597305 236281.390625 
91.979134 541502.125 
197.060822 1336734.875 
225.055969 18781224.0 
241.051361 2944908.5 
253.051147 15293802.0 
269.046387 125097488.0 
271.061951 10228766.0 
435.088684 4585084.5 
438.078217 1678231.0 
453.09848 1092074.875 
471.110718 3372701.5 
END IONS

BEGIN IONS
RTINSECONDS=215.576004
CHARGE=1-
MSLEVEL=2
SMILES=O=C1c2c(C)cc(O)c(C=O)c2Oc2c(O1)c(c(c(c2C)C(=O)O)O)C
INCHI=InChI=1S/C18H14O8/c1-6-4-10(20)9(5-19)16-11(6)18(24)26-15-8(3)13(21)12(17(22)23)7(2)14(15)25-16/h4-5,20-21H,1-3H3,(H,22,23)
INCHIKEY=FOKAHYDSEWGOHN-UHFFFAOYSA-N
CLASS=Depsidones
ADDUCT=[M-H]-
INSTRUMENT=Thermo Q-Exactive Focus
PRECURSOR_MZ=357.061
COMPOUND_NAME=Virensic acid
ION_MODE=negative
FORMULA=C18H14O8
50.420284 473352.53125 
68.99691 1430849.75 
91.054176 1176127.375 
91.982964 2511567.5 
107.049103 1867218.5 
151.039444 3622756.75 
163.039734 742702.375 
213.05542 13433865.0 
213.091736 4508895.5 
229.050446 22937368.0 
241.086838 8065124.0 
257.046112 5024696.0 
269.082031 30187180.0 
313.072571 5465660.5 
END IONS

BEGIN IONS
RTINSECONDS=287.975006
CHARGE=1-
MSLEVEL=2
SMILES=CCCCCc1c2c(cc(c1C(=O)O)O)oc1c2c(cc(c1)OC)CCC
INCHI=InChI=1S/C22H26O5/c1-4-6-7-9-15-20(22(24)25)16(23)12-18-21(15)19-13(8-5-2)10-14(26-3)11-17(19)27-18/h10-12,23H,4-9H2,1-3H3,(H,24,25)
INCHIKEY=IDZVZCQOFFSQMO-UHFFFAOYSA-N
CLASS=Dibenzofuranes
ADDUCT=[M-H]-
INSTRUMENT=Thermo Q-Exactive Focus
PRECURSOR_MZ=369.1702
COMPOUND_NAME=Didymic acid
ION_MODE=negative
FORMULA=C22H26O5
53.035259 1331712.625 
60.133835 58686.257812 
238.063904 9556383.0 
239.07193 5997468.0 
253.087173 2460873.0 
254.095184 11558986.0 
282.126038 2608925.75 
310.157959 223673664.0 
325.181427 24744006.0 
END IONS

BEGIN IONS
RTINSECONDS=269.415009
CHARGE=1-
MSLEVEL=2
SMILES=O=C1Oc2c(c(CC(=O)CCCCC)c(C(=O)O)c(O)c2)Oc2c1c(cc(c2)O)CC(=O)CCCCC
INCHI=InChI=1S/C28H32O9/c1-3-5-7-9-17(29)11-16-12-19(31)14-22-24(16)28(35)37-23-15-21(32)25(27(33)34)20(26(23)36-22)13-18(30)10-8-6-4-2/h12,14-15,31-32H,3-11,13H2,1-2H3,(H,33,34)
INCHIKEY=ZDIOCINAHISORH-UHFFFAOYSA-N
CLASS=Depsidones
ADDUCT=[M-H]-
INSTRUMENT=Thermo Q-Exactive Focus
PRECURSOR_MZ=511.1968
COMPOUND_NAME=Alpha-Alectoronic acid
ION_MODE=negative
FORMULA=C28H32O9
91.976616 619812.125 
123.044266 1148289.125 
149.023254 1876811.875 
203.071213 2931485.25 
219.102982 2456204.75 
226.063507 2647360.25 
227.071396 4371452.0 
247.097519 4205182.0 
270.054565 2357706.0 
271.061462 4496361.0 
301.144958 5421399.0 
325.145325 6310651.5 
327.124817 3750679.5 
339.124237 2587810.25 
354.112305 2080597.0 
368.127014 5265878.5 
369.134705 11859586.0 
399.218079 1266417.125 
423.217285 6034918.5 
424.192841 1143254.125 
425.197571 5752869.5 
449.197754 970658.0 
467.208038 14394504.0 
END IONS

BEGIN IONS
RTINSECONDS=126.434998
CHARGE=1-
MSLEVEL=2
SMILES=Cc1cc(c(c(c1)O)C=O)O
INCHI=InChI=1S/C8H8O3/c1-5-2-7(10)6(4-9)8(11)3-5/h2-4,10-11H,1H3
INCHIKEY=JASONGFGOLHLGB-UHFFFAOYSA-N
CLASS=Cleavage Products of Depsides and Depsidones
ADDUCT=[M-H]-
INSTRUMENT=Thermo Q-Exactive Focus
PRECURSOR_MZ=151.0395
COMPOUND_NAME=Atranol
ION_MODE=negative
FORMULA=C8H8O3
50.955975 1617041.875 
52.474655 1462361.875 
68.996971 3396935.5 
79.054047 57375496.0 
81.033463 45865980.0 
105.033371 13705625.0 
123.04409 443722496.0 
END IONS

BEGIN IONS
RTINSECONDS=335.419006
CHARGE=1-
MSLEVEL=2
SMILES=CCCCCCCCCCCCCC[C@H](C(=O)OC)[C@@H](C(=O)O)CC(=O)O
INCHI=InChI=1S/C21H38O6/c1-3-4-5-6-7-8-9-10-11-12-13-14-15-17(21(26)27-2)18(20(24)25)16-19(22)23/h17-18H,3-16H2,1-2H3,(H,22,23)(H,24,25)/t17-,18-/m0/s1
INCHIKEY=LGCPAGYPUFWEBQ-ROUUACIJSA-N
CLASS=Acids
ADDUCT=[2M-2H+Na]-
INSTRUMENT=Thermo Q-Exactive Focus
PRECURSOR_MZ=793.5078
COMPOUND_NAME=Rangiformic acid
ION_MODE=negative
FORMULA=C21H38O6
59.012672 51052.648438 
71.012764 58832.875 
71.049042 25793.142578 
91.981529 19408.326172 
94.588753 16724.037109 
97.999931 23357.486328 
125.564682 15018.264648 
165.919418 15548.677734 
179.87616 12285.777344 
255.233566 87258.609375 
255.941803 12024.786133 
263.391266 16536.798828 
265.254364 1194954.375 
267.234192 22692.554688 
293.213165 135207.3125 
309.244476 157574.015625 
331.226898 29140.230469 
353.234344 731594.3125 
353.277618 19200.351562 
375.216461 71602.007812 
385.260498 253640.4375 
385.310272 8094.666992 
463.843201 10129.532227 
464.524841 9063.223633 
511.495819 11259.838867 
521.555664 10731.891602 
608.006104 10208.147461 
610.269043 16259.484375 
611.019714 17940.070312 
633.649292 10652.507812 
665.78186 15132.536133 
672.852539 15114.150391 
678.913696 4268.867188 
END IONS

BEGIN IONS
RTINSECONDS=232.832993
CHARGE=1-
MSLEVEL=2
SMILES=Cc1cc(O)c2c(C(=O)c3cc(O)cc(O)c3C2=O)c1
INCHI=InChI=1S/C15H10O5/c1-6-2-8-12(10(17)3-6)15(20)13-9(14(8)19)4-7(16)5-11(13)18/h2-5,16-18H,1H3
INCHIKEY=RHMXXJGYXNZAPX-UHFFFAOYSA-N
CLASS=Quinones
ADDUCT=[M-H]-
INSTRUMENT=Thermo Q-Exactive Focus
PRECURSOR_MZ=269.045
COMPOUND_NAME=Emodin
ION_MODE=negative
FORMULA=C15H10O5
54.691742 1009994.4375 
181.066162 204187.40625 
197.060165 1366323.0 
225.056015 19720092.0 
227.0354 1400942.875 
241.051437 5843393.5 
END IONS

BEGIN IONS
RTINSECONDS=159.910004
CHARGE=1-
MSLEVEL=2
SMILES=O=C1c2cc(O)cc(O)c2C(=O)c2c1cc(C(=O)O)cc2O
INCHI=InChI=1S/C15H8O7/c16-6-3-8-12(10(18)4-6)14(20)11-7(13(8)19)1-5(15(21)22)2-9(11)17/h1-4,16-18H,(H,21,22)
INCHIKEY=ZJXVNNSMRGTDBI-UHFFFAOYSA-N
CLASS=Quinones
ADDUCT=[2M-2H+Na]-
INSTRUMENT=Thermo Q-Exactive Focus
PRECURSOR_MZ=621.0281
COMPOUND_NAME=Emodic acid
ION_MODE=negative
FORMULA=C15H8O7
54.578434 7208.337402 
56.67564 9129.704102 
88.068375 10565.729492 
91.977135 16404.546875 
113.949554 10689.838867 
115.957207 9649.307617 
130.269608 8841.538086 
153.26149 10557.238281 
183.045425 8935.632812 
199.040253 15860.854492 
203.830109 8246.177734 
211.040817 47820.78125 
227.035416 29829.308594 
255.03038 116665.546875 
259.025543 17362.111328 
271.02597 11152.357422 
273.041473 67024.171875 
299.020691 1080105.75 
314.588501 3135.642578 
333.385895 3433.715088 
353.423431 2729.735107 
404.138641 3094.199951 
434.881012 3740.363281 
462.216217 3664.387207 
475.398743 3195.18457 
546.506409 3136.473389 
END IONS

BEGIN IONS
RTINSECONDS=193.395004
CHARGE=1-
MSLEVEL=2
SMILES=Cc1c(c(O)cc(O)c1)C(=O)Oc1cc(O)c(C(=O)Oc2c(C)c(C(=O)O)c(O)cc2O)c(C)c1
INCHI=InChI=1S/C24H20O11/c1-9-4-12(25)6-14(26)18(9)23(32)34-13-5-10(2)19(15(27)7-13)24(33)35-21-11(3)20(22(30)31)16(28)8-17(21)29/h4-8,25-29H,1-3H3,(H,30,31)
INCHIKEY=PXEWPVIKVBSHLU-UHFFFAOYSA-N
CLASS=Depsides (Tridepsides)
ADDUCT=[M-H]-
INSTRUMENT=Thermo Q-Exactive Focus
PRECURSOR_MZ=483.0927
COMPOUND_NAME=Crustinic acid
ION_MODE=negative
FORMULA=C24H20O11
61.806293 189730.640625 
63.090527 448296.875 
91.977615 1742598.875 
109.028252 4267271.5 
121.02816 11295905.0 
137.023422 4681239.5 
149.023392 5429883.0 
165.01828 140622128.0 
167.034531 10991323.0 
183.028885 46805420.0 
315.051086 779616.6875 
317.06778 1767340.25 
333.061707 8534370.0 
END IONS

BEGIN IONS
RTINSECONDS=266.709015
CHARGE=1-
MSLEVEL=2
SMILES=CC(=O)CCCCCCCCCCCCC[C@@H]1OC(=O)C(=C)[C@@H]1C(=O)O
INCHI=InChI=1S/C21H34O5/c1-16(22)14-12-10-8-6-4-3-5-7-9-11-13-15-18-19(20(23)24)17(2)21(25)26-18/h18-19H,2-15H2,1H3,(H,23,24)/t18-,19-/m0/s1
INCHIKEY=SKQHRBRVCRUFSX-OALUTQOASA-N
CLASS=Paraconic acids
ADDUCT=[M-H]-
INSTRUMENT=Thermo Q-Exactive Focus
PRECURSOR_MZ=365.2328
COMPOUND_NAME=allo-Pertusaric acid
ION_MODE=negative
FORMULA=C21H34O5
50.177773 1729501.625 
57.033386 11144976.0 
69.033424 3794538.0 
91.982849 5175131.5 
277.254242 63776540.0 
277.281769 2486930.75 
321.244202 27934926.0 
END IONS

BEGIN IONS
RTINSECONDS=134.804993
CHARGE=1-
MSLEVEL=2
SMILES=O=C1c2c(C)cc(O)c(C=O)c2Oc2c(O1)c(c(c1c2C(O)OC1=O)O)CO
INCHI=InChI=1S/C18H12O10/c1-5-2-8(21)6(3-19)13-9(5)16(23)27-14-7(4-20)12(22)10-11(15(14)26-13)18(25)28-17(10)24/h2-3,18,20-22,25H,4H2,1H3
INCHIKEY=QQTKVXCQLZIJPP-UHFFFAOYSA-N
CLASS=Depsidones
ADDUCT=[M-H]-
INSTRUMENT=Thermo Q-Exactive Focus
PRECURSOR_MZ=387.0352
COMPOUND_NAME=Salazinic acid
ION_MODE=negative
FORMULA=C18H12O10
68.997063 1637809.875 
93.033394 2006511.125 
121.028435 10044180.0 
123.044182 419125.59375 
135.007751 1947482.25 
149.023712 1393095.5 
151.039444 4482966.0 
185.060379 2040192.25 
213.055695 3756831.25 
225.055557 4821341.5 
227.03479 15740747.0 
241.049927 8380850.0 
243.029602 13204835.0 
269.04599 11083358.0 
299.055847 2452957.5 
313.033905 1746598.375 
325.036102 3913376.25 
343.045868 11452477.0 
END IONS

BEGIN IONS
RTINSECONDS=224.126007
CHARGE=1-
MSLEVEL=2
SMILES=Cc1c(c(O)cc(O)c1)C(=O)Oc1cc(O)c(C(=O)Oc2cc(O)c(C(=O)O)c(C)c2)c(C)c1
INCHI=InChI=1S/C24H20O10/c1-10-4-13(25)7-16(26)20(10)23(31)34-15-6-12(3)21(18(28)9-15)24(32)33-14-5-11(2)19(22(29)30)17(27)8-14/h4-9,25-28H,1-3H3,(H,29,30)
INCHIKEY=ATQPZSQVWCPVGV-UHFFFAOYSA-N
CLASS=Depsides (Tridepsides)
ADDUCT=[2M-2H+Na]-
INSTRUMENT=Thermo Q-Exactive Focus
PRECURSOR_MZ=957.1854
COMPOUND_NAME=Gyrophoric acid
ION_MODE=negative
FORMULA=C24H20O10
79.053688 11067.513672 
81.033134 10988.141602 
91.117325 11064.297852 
91.982986 19552.554688 
105.033226 132467.828125 
123.043808 88715.953125 
149.0233 945558.75 
161.125259 9745.100586 
167.033936 885618.375 
211.369156 10465.890625 
215.272339 11578.020508 
233.982498 11510.40625 
253.034927 12236.819336 
255.065552 11472.80957 
293.221191 11036.581055 
317.066742 54777.25 
321.038025 34234.835938 
339.048676 560012.3125 
348.928802 11731.005859 
349.990723 10446.679688 
357.060028 84855.476562 
391.78479 8645.27832 
489.080597 267200.34375 
489.26416 10347.535156 
507.090942 45938.109375 
635.209351 10695.467773 
657.124573 76344.234375 
722.58551 8323.573242 
729.586731 10949.352539 
750.879456 10884.977539 
777.318298 10277.981445 
800.989441 10461.984375 
807.154358 103245.234375 
813.00708 10990.991211 
884.157166 8500.989258 
END IONS

BEGIN IONS
RTINSECONDS=211.826996
CHARGE=1-
MSLEVEL=2
SMILES=O=C1c2c(C)cc(O)c(C=O)c2Oc2c(O1)c(c(cc2C(=O)O)OC)C
INCHI=InChI=1S/C18H14O8/c1-7-4-11(20)10(6-19)15-13(7)18(23)26-14-8(2)12(24-3)5-9(17(21)22)16(14)25-15/h4-6,20H,1-3H3,(H,21,22)
INCHIKEY=FUCWJKJZOHOLEO-UHFFFAOYSA-N
CLASS=Depsidones
ADDUCT=[M-H]-
INSTRUMENT=Thermo Q-Exactive Focus
PRECURSOR_MZ=357.061
COMPOUND_NAME=Psoromic acid
ION_MODE=negative
FORMULA=C18H14O8
68.996864 12742817.0 
91.977486 745399.9375 
135.043793 716538.5625 
226.063278 6060392.0 
228.042572 28764922.0 
243.066269 2733658.25 
254.058517 11096060.0 
269.082458 2580748.0 
270.053741 3798770.75 
313.072815 2549975.25 
331.082672 11230878.0 
END IONS

BEGIN IONS
RTINSECONDS=285.295013
CHARGE=1-
MSLEVEL=2
SMILES=CC(C[C@H](NC(=O)/C(=C\1/C(=C(c2ccccc2)C(=O)O1)O)/c1ccccc1)C(=O)O)C
INCHI=InChI=1S/C24H23NO6/c1-14(2)13-17(23(28)29)25-22(27)19(16-11-7-4-8-12-16)21-20(26)18(24(30)31-21)15-9-5-3-6-10-15/h3-12,14,17,26H,13H2,1-2H3,(H,25,27)(H,28,29)/b21-19-/t17-/m0/s1
INCHIKEY=ZQLBONJLBKDOLE-UFVMTTLYSA-N
CLASS=Pulvinic Acid Derivatives
ADDUCT=[2M-2H+K]-
INSTRUMENT=Thermo Q-Exactive Focus
PRECURSOR_MZ=879.2531
COMPOUND_NAME=Norepanorin
ION_MODE=negative
FORMULA=C24H23NO6
64.794731 9280.120117 
73.560402 4523.976562 
79.413116 9585.955078 
96.549316 7899.307617 
114.878883 4406.899902 
117.033638 24253.029297 
151.210678 3907.396729 
172.040176 4890.905762 
191.086197 12030.894531 
198.454727 9851.884766 
214.124008 10584.294922 
247.078125 6661.575195 
249.093079 13536.673828 
263.07193 169314.765625 
304.090088 5579.30127 
319.030396 26661.884766 
339.000366 11205.589844 
344.026184 21801.839844 
359.087952 4688.702148 
376.155975 13969.790039 
415.089417 9433.958984 
420.146973 16409.125 
432.11441 48295.257812 
444.9776 9666.332031 
458.094727 27023.203125 
489.139709 5172.404785 
492.40155 9406.508789 
501.208374 4305.921387 
545.20105 17563.126953 
558.875488 10067.758789 
565.095276 9478.672852 
571.179565 10424.851562 
589.18866 68240.375 
606.337585 4380.742188 
722.172913 4853.762695 
745.155457 4264.856445 
748.767334 4417.382324 
794.886353 4786.532227 
854.006165 4713.54541 
856.923828 4189.368164 
908.941467 4893.512695 
END IONS

BEGIN IONS
RTINSECONDS=234.337006
CHARGE=1-
MSLEVEL=2
SMILES=O=C1C(=C(O)/C(=C(/c2ccccc2)\C(=O)N[C@@H](Cc2ccccc2)C(=O)OC)/O1)c1ccccc1
INCHI=InChI=1S/C28H23NO6/c1-34-27(32)21(17-18-11-5-2-6-12-18)29-26(31)23(20-15-9-4-10-16-20)25-24(30)22(28(33)35-25)19-13-7-3-8-14-19/h2-16,21,30H,17H2,1H3,(H,29,31)/b25-23+/t21-/m0/s1
INCHIKEY=DKDGWAKCXBFTMM-KZKMBZSSSA-N
CLASS=Pulvinic Acid Derivatives
ADDUCT=[M-H+CH3OH]-
INSTRUMENT=Thermo Q-Exactive Focus
PRECURSOR_MZ=500.1709
COMPOUND_NAME=Rhizocarpic acid
ION_MODE=negative
FORMULA=C28H23NO6
53.778156 5354.943359 
56.602089 10736.924805 
89.333878 6635.745117 
116.052361 22933.953125 
117.033875 238183.140625 
127.47081 10915.574219 
149.060547 45318.628906 
172.040771 24714.470703 
177.056152 24622.804688 
183.032669 31738.09375 
191.086304 82648.671875 
202.651703 11726.896484 
257.085419 14140.69043 
263.072052 405673.375 
264.104034 189898.703125 
315.823975 9898.004883 
325.547363 6943.122559 
345.074829 6793.117676 
350.103943 58681.792969 
385.277283 6488.243164 
423.762817 5894.611816 
424.158203 21048.910156 
452.608612 6915.053223 
457.762848 5672.921387 
476.913818 8072.35791 
526.014343 2938.908691 
END IONS

BEGIN IONS
RTINSECONDS=271.104004
CHARGE=1-
MSLEVEL=2
SMILES=CC1=C(C(=O)O)[C@@H](CCCCCCCCCCCCC(C)CO)OC1=O
INCHI=InChI=1S/C21H36O5/c1-16(15-22)13-11-9-7-5-3-4-6-8-10-12-14-18-19(20(23)24)17(2)21(25)26-18/h16,18,22H,3-15H2,1-2H3,(H,23,24)/t16?,18-/m1/s1
INCHIKEY=FEGXSCTZZUZMJG-UHUGOGIASA-N
CLASS=Paraconic acids
ADDUCT=[M-H]-
INSTRUMENT=Thermo Q-Exactive Focus
PRECURSOR_MZ=367.2484
COMPOUND_NAME=Isomurolic acid
ION_MODE=negative
FORMULA=C21H36O5
55.666504 422522.1875 
57.033257 2162492.25 
65.730965 1026515.0625 
263.238831 3575375.75 
277.254761 5215376.5 
279.270142 4649450.5 
323.259949 22820798.0 
END IONS

BEGIN IONS
RTINSECONDS=103.693001
CHARGE=1-
MSLEVEL=2
SMILES=Cc1c(O)c(C(=O)O)c(C)cc1O
INCHI=InChI=1S/C9H10O4/c1-4-3-6(10)5(2)8(11)7(4)9(12)13/h3,10-11H,1-2H3,(H,12,13)
INCHIKEY=VHNLJRRECIZZPX-UHFFFAOYSA-N
CLASS=Cleavage Products of Depsides and Depsidones
ADDUCT=[2M-2H+Na]-
INSTRUMENT=Thermo Q-Exactive Focus
PRECURSOR_MZ=385.0899
COMPOUND_NAME=b-Orcinolcarboxylic acid
ION_MODE=negative
FORMULA=C9H10O4
55.017628 111766.234375 
55.716644 102463.117188 
93.069763 587858.8125 
137.059967 6193700.5 
163.039291 649818.8125 
181.050064 12200216.0 
END IONS

BEGIN IONS
RTINSECONDS=276.493988
CHARGE=1-
MSLEVEL=2
SMILES=CC(=O)CCCCCCCCCCCCC[C@@H]1C(C(=O)O)C(=C)C(=O)O1
INCHI=InChI=1S/C21H34O5/c1-16(22)14-12-10-8-6-4-3-5-7-9-11-13-15-18-19(20(23)24)17(2)21(25)26-18/h18-19H,2-15H2,1H3,(H,23,24)/t18-,19?/m1/s1
INCHIKEY=SKQHRBRVCRUFSX-MRTLOADZSA-N
CLASS=Paraconic acids
ADDUCT=[M-H]-
INSTRUMENT=Thermo Q-Exactive Focus
PRECURSOR_MZ=365.2328
COMPOUND_NAME=Muronic acid
ION_MODE=negative
FORMULA=C21H34O5
57.033363 5481107.5 
69.033501 1416296.375 
169.158386 772029.8125 
277.254333 18318130.0 
278.257782 3842775.0 
321.244446 27789164.0 
322.247986 3913286.0 
END IONS

BEGIN IONS
RTINSECONDS=306.109009
CHARGE=1-
MSLEVEL=2
SMILES=CCCCCCCCCCCCCC[C@H](C(=O)O)[C@H](C(=O)O)CC(=O)O
INCHI=InChI=1S/C20H36O6/c1-2-3-4-5-6-7-8-9-10-11-12-13-14-16(19(23)24)17(20(25)26)15-18(21)22/h16-17H,2-15H2,1H3,(H,21,22)(H,23,24)(H,25,26)/t16-,17+/m0/s1
INCHIKEY=YBZIIVKQVVKTTD-DLBZAZTESA-N
CLASS=Acids
ADDUCT=[2M-H]-
INSTRUMENT=Thermo Q-Exactive Focus
PRECURSOR_MZ=743.4946
COMPOUND_NAME=Norrangiformic acid
ION_MODE=negative
FORMULA=C20H36O6
51.798145 25836.585938 
59.012478 337415.09375 
61.614037 31506.337891 
71.012611 238535.96875 
71.049072 97521.382812 
83.049103 36198.179688 
115.002838 70112.609375 
124.015701 41852.03125 
156.485291 31810.363281 
161.404068 34760.953125 
166.38826 20780.443359 
173.491821 18342.939453 
199.524185 21377.509766 
249.223557 45523.492188 
255.233063 188259.5625 
265.254272 3957027.0 
267.234772 122328.851562 
283.264923 233068.921875 
293.213104 558372.5625 
309.244293 430026.78125 
327.255493 55369.34375 
353.234253 3338072.5 
362.951935 22889.958984 
365.397308 12052.442383 
371.244812 1425741.125 
378.791595 23098.763672 
417.553833 12091.849609 
418.428497 22225.742188 
466.03775 21575.496094 
466.543243 15359.696289 
497.951172 22997.955078 
503.131409 17800.173828 
545.358765 19323.878906 
554.664307 16891.992188 
558.28479 19709.158203 
571.861267 19867.185547 
577.890625 17397.013672 
585.673462 18129.947266 
622.58606 21800.050781 
659.823669 21546.433594 
661.200989 44842.546875 
711.840027 5086.417969 
END IONS

BEGIN IONS
RTINSECONDS=267.31601
CHARGE=1-
MSLEVEL=2
SMILES=O=C(Oc1c(O)cc(CCCCC)c(C(=O)O)c1O)c1c(CCC)cc(OC)cc1OC
INCHI=InChI=1S/C24H30O8/c1-5-7-8-10-15-12-17(25)22(21(26)20(15)23(27)28)32-24(29)19-14(9-6-2)11-16(30-3)13-18(19)31-4/h11-13,25-26H,5-10H2,1-4H3,(H,27,28)
INCHIKEY=AAKHGLJWUOZNTQ-UHFFFAOYSA-N
CLASS=Depsides (Didepsides)
ADDUCT=[2M-2H+Na]-
INSTRUMENT=Thermo Q-Exactive Focus
PRECURSOR_MZ=913.3623
COMPOUND_NAME=Merochlorophaeic acid
ION_MODE=negative
FORMULA=C24H30O8
63.340431 23514.638672 
68.298271 23023.605469 
69.567169 20955.412109 
91.978996 22321.513672 
93.033073 63760.359375 
137.023026 40786.558594 
138.031006 255898.03125 
147.080338 35287.898438 
177.091187 71794.6875 
194.094009 495686.625 
195.101822 2817978.25 
209.117554 193530.625 
221.08136 97307.242188 
238.084122 260246.125 
239.09201 121098.523438 
263.092957 37184.792969 
310.157623 30351.953125 
312.772125 19940.339844 
323.896545 23676.679688 
325.181061 47204.011719 
351.158661 29356.433594 
369.170105 82463.28125 
383.187347 31403.066406 
401.197296 128821.835938 
417.845062 23648.154297 
427.176117 151503.75 
445.186676 1621059.5 
448.695923 11188.541016 
460.251495 10288.600586 
475.65094 12285.261719 
492.40686 4820.752441 
560.067505 4030.868896 
570.475952 18452.216797 
589.173157 7129.904785 
590.545715 17573.455078 
624.091309 11596.382812 
651.321655 10741.439453 
691.288635 12911.59375 
701.122192 16560.677734 
746.247131 12830.676758 
775.535645 9305.146484 
784.015015 10517.339844 
818.020813 10982.364258 
832.687866 17251.953125 
END IONS

BEGIN IONS
RTINSECONDS=273.519012
CHARGE=1-
MSLEVEL=2
SMILES=Cc1cc(c2c(c1)C(=O)c1c(c(cc(c1C2=O)O)O)c1c2c(c(cc1O)O)C(=O)c1c(cc(cc1C2=O)C)O)O
INCHI=InChI=1S/C30H18O10/c1-9-3-11-19(13(31)5-9)29(39)23-17(35)7-15(33)21(25(23)27(11)37)22-16(34)8-18(36)24-26(22)28(38)12-4-10(2)6-14(32)20(12)30(24)40/h3-8,31-36H,1-2H3
INCHIKEY=MQSXZQXHIJMNAF-UHFFFAOYSA-N
CLASS=Quinones
ADDUCT=[M-H]-
INSTRUMENT=Thermo Q-Exactive Focus
PRECURSOR_MZ=537.0822
COMPOUND_NAME=Skyrin
ION_MODE=negative
FORMULA=C30H18O10
50.106998 72238.765625 
51.668041 78340.351562 
58.765739 75013.054688 
98.390007 46290.210938 
175.039444 506445.3125 
201.055695 1464716.75 
225.056091 148145.171875 
265.051086 183800.875 
279.03064 108104.617188 
281.046417 481914.34375 
293.046539 96151.59375 
309.041504 1408420.625 
335.020844 439971.96875 
353.031677 145583.34375 
451.084045 469121.5625 
465.100739 202045.296875 
468.086426 189371.0 
469.094513 726861.4375 
475.083435 258619.71875 
493.095001 475981.34375 
519.074036 919090.625 
520.081848 164662.140625 
END IONS

BEGIN IONS
RTINSECONDS=238.091003
CHARGE=1-
MSLEVEL=2
SMILES=O=c1oc(CCCCC)cc2c1c(cc(c2)O)O
INCHI=InChI=1S/C14H16O4/c1-2-3-4-5-11-7-9-6-10(15)8-12(16)13(9)14(17)18-11/h6-8,15-16H,2-5H2,1H3
INCHIKEY=FIMFRMRZGBUYMV-UHFFFAOYSA-N
CLASS=Cleavage Products of Depsides and Depsidones
ADDUCT=[M+Cl]-
INSTRUMENT=Thermo Q-Exactive Focus
PRECURSOR_MZ=283.0737
COMPOUND_NAME=Olivetonide
ION_MODE=negative
FORMULA=C14H16O4
52.395252 5736.929688 
56.510708 5006.924316 
66.38855 4456.307129 
78.89299 4854.894531 
108.282845 5156.762695 
126.258705 4868.378906 
127.970589 5916.22998 
134.575027 4904.850098 
146.036514 8850.935547 
190.026596 157904.84375 
203.108002 5538.720703 
208.979874 5617.749512 
237.896622 5605.700684 
247.097794 1010178.9375 
262.408356 4974.695801 
END IONS

BEGIN IONS
RTINSECONDS=136.253006
CHARGE=1-
MSLEVEL=2
SMILES=Cc1cc(=O)c2c(c(c(cc2o1)O)C)O
INCHI=InChI=1S/C11H10O4/c1-5-3-8(13)10-9(15-5)4-7(12)6(2)11(10)14/h3-4,12,14H,1-2H3
INCHIKEY=HMAUJNAGOIPKDG-UHFFFAOYSA-N
CLASS=Chromanes and Chromones
ADDUCT=[M-H]-
INSTRUMENT=Thermo Q-Exactive Focus
PRECURSOR_MZ=205.0501
COMPOUND_NAME=Eugenitol
ION_MODE=negative
FORMULA=C11H10O4
65.001892 2082562.0 
77.038193 7777969.0 
79.017395 5072816.0 
81.033043 7748720.5 
83.01236 4891794.0 
119.048759 15898885.0 
135.044067 3728123.0 
161.05954 23590786.0 
163.038956 4768249.5 
177.054245 2477681.5 
END IONS

BEGIN IONS
RTINSECONDS=252.802994
CHARGE=1-
MSLEVEL=2
SMILES=O=C1c2c(CC(=O)CCCCC)cc(O)cc2Oc2c(O1)cc(c(c2CCCCC)C(=O)O)O
INCHI=InChI=1S/C26H30O8/c1-3-5-7-9-16(27)11-15-12-17(28)13-20-22(15)26(32)34-21-14-19(29)23(25(30)31)18(24(21)33-20)10-8-6-4-2/h12-14,28-29H,3-11H2,1-2H3,(H,30,31)
INCHIKEY=KVTYWHGIZSCFLG-UHFFFAOYSA-N
CLASS=Depsidones
ADDUCT=[2M-H]-
INSTRUMENT=Thermo Q-Exactive Focus
PRECURSOR_MZ=939.3803
COMPOUND_NAME=Physodic acid
ION_MODE=negative
FORMULA=C26H30O8
123.04406 282241.0625 
133.100433 3899889.0 
149.023712 4341539.5 
161.02388 1047750.8125 
226.064346 3867867.75 
247.097565 7666698.0 
282.12674 6928833.5 
283.134216 22151044.0 
285.113373 8262445.0 
310.122253 5508643.5 
324.137268 13349506.0 
357.207733 8284539.5 
381.207611 40229136.0 
383.186829 50904508.0 
407.188904 3593302.5 
425.197632 65466520.0 
451.17688 2302873.25 
469.187378 74976312.0 
END IONS

BEGIN IONS
RTINSECONDS=137.520004
CHARGE=1-
MSLEVEL=2
SMILES=Cc1c(c(c2c(c1)C(=O)c1cc(cc(c1C2=O)O)O)O)C(=O)O
INCHI=InChI=1S/C16H10O7/c1-5-2-7-12(14(20)10(5)16(22)23)15(21)11-8(13(7)19)3-6(17)4-9(11)18/h2-4,17-18,20H,1H3,(H,22,23)
INCHIKEY=UZOHDKGTYVTYDZ-UHFFFAOYSA-N
CLASS=Quinones
ADDUCT=[2M-H]-
INSTRUMENT=Thermo Q-Exactive Focus
PRECURSOR_MZ=627.0775
COMPOUND_NAME=Endocrocin
ION_MODE=negative
FORMULA=C16H10O7
51.040062 19650.730469 
58.5811 21885.351562 
61.337547 19127.15625 
61.779739 20177.636719 
74.415977 21754.699219 
80.075226 21089.080078 
116.075729 25289.314453 
130.750519 21472.800781 
143.942093 22602.587891 
197.061005 32948.898438 
210.032516 23871.300781 
225.055939 419134.03125 
241.051224 89261.289062 
267.929413 25438.203125 
269.046417 2161558.5 
285.627747 24236.830078 
295.025391 38233.457031 
309.737854 12142.068359 
313.036469 2296054.0 
364.00769 16411.929688 
415.645447 13117.917969 
504.30368 12476.488281 
END IONS

BEGIN IONS
RTINSECONDS=202.087997
CHARGE=1-
MSLEVEL=2
SMILES=Oc1cc(C(=O)O)cc2c1C(=O)c1c(cc(cc1O)OC)C2=O
INCHI=InChI=1S/C16H10O7/c1-23-7-4-9-13(11(18)5-7)15(20)12-8(14(9)19)2-6(16(21)22)3-10(12)17/h2-5,17-18H,1H3,(H,21,22)
INCHIKEY=HEULMVKOOVHXME-UHFFFAOYSA-N
CLASS=Quinones
ADDUCT=[2M-H]-
INSTRUMENT=Thermo Q-Exactive Focus
PRECURSOR_MZ=627.0775
COMPOUND_NAME=Parietinic acid
ION_MODE=negative
FORMULA=C16H10O7
50.344734 8860.761719 
53.593918 6660.146484 
61.714382 15321.72168 
71.31736 8859.821289 
101.554825 7227.306152 
110.679413 7954.000977 
134.676224 5284.178223 
136.176529 7062.818848 
152.971634 5812.452148 
158.30542 5021.624023 
204.511795 14437.266602 
226.027771 63865.160156 
230.022614 139641.59375 
254.022629 732286.0 
257.01001 123104.34375 
258.017548 149309.125 
269.046356 320490.65625 
287.057037 577765.75 
313.036499 470746.0625 
313.07312 26583.324219 
343.711517 8847.637695 
372.661774 15973.769531 
373.902283 5184.702148 
407.455353 6873.790039 
541.674622 3106.446533 
END IONS

BEGIN IONS
RTINSECONDS=277.809998
CHARGE=1-
MSLEVEL=2
SMILES=CC(=O)CCCCCCCCCCCCC[C@H]1OC(=O)C(=C1C(=O)O)C
INCHI=InChI=1S/C21H34O5/c1-16(22)14-12-10-8-6-4-3-5-7-9-11-13-15-18-19(20(23)24)17(2)21(25)26-18/h18H,3-15H2,1-2H3,(H,23,24)/t18-/m1/s1
INCHIKEY=KYSXDEQQOVVLIN-GOSISDBHSA-N
CLASS=Paraconic acids
ADDUCT=[2M-H]-
INSTRUMENT=Thermo Q-Exactive Focus
PRECURSOR_MZ=731.4734
COMPOUND_NAME=Isomuronic acid
ION_MODE=negative
FORMULA=C21H34O5
57.033325 6403998.5 
69.03334 503227.15625 
71.049049 1508884.625 
91.976692 1659145.0 
93.060013 29976.035156 
169.159576 2693655.25 
183.17482 569053.5 
277.254333 125763824.0 
321.244232 24126574.0 
365.234283 76052776.0 
END IONS

BEGIN IONS
RTINSECONDS=333.881989
CHARGE=1-
MSLEVEL=2
SMILES=CCCCCCCCCCCCC[C@H]1[C@H]([C@H](C(=O)O1)C)C(=O)O
INCHI=InChI=1S/C19H34O4/c1-3-4-5-6-7-8-9-10-11-12-13-14-16-17(18(20)21)15(2)19(22)23-16/h15-17H,3-14H2,1-2H3,(H,20,21)/t15-,16+,17+/m1/s1
INCHIKEY=WLGALFYTFVOQPY-IKGGRYGDSA-N
CLASS=Paraconic acids
ADDUCT=[M-H]-
INSTRUMENT=Thermo Q-Exactive Focus
PRECURSOR_MZ=325.2379
COMPOUND_NAME=Nephromopsic acid
ION_MODE=negative
FORMULA=C19H34O4
69.033554 1547196.75 
91.976723 1986394.375 
113.023422 10694624.0 
281.249451 10515185.0 
END IONS

BEGIN IONS
RTINSECONDS=216.940994
CHARGE=1-
MSLEVEL=2
SMILES=O=C1c2c(c(Cl)c(c(C=O)c2Oc2c(C)c(c(O)c(C)c2O1)C(=O)O)O)C
INCHI=InChI=1S/C18H13ClO8/c1-5-10-16(8(4-20)13(22)11(5)19)26-14-6(2)9(17(23)24)12(21)7(3)15(14)27-18(10)25/h4,21-22H,1-3H3,(H,23,24)
INCHIKEY=NLEQXKZDZFGBFP-UHFFFAOYSA-N
CLASS=Depsidones
ADDUCT=[M-H]-
INSTRUMENT=Thermo Q-Exactive Focus
PRECURSOR_MZ=391.0221
COMPOUND_NAME=Chlorovirensic acid
ION_MODE=negative
FORMULA=C18H13ClO8
68.996834 367025.96875 
91.978195 31410.666016 
185.000595 42696.34375 
195.080887 208239.09375 
196.052429 49292.949219 
211.076141 253583.671875 
239.071106 1310313.75 
263.011871 206137.53125 
267.066467 170187.828125 
283.061584 348440.40625 
303.04306 403856.46875 
311.05658 315114.1875 
347.033386 118267.789062 
355.046448 727786.6875 
END IONS

BEGIN IONS
RTINSECONDS=262.911987
CHARGE=1-
MSLEVEL=2
SMILES=Oc1c(C(=O)C)c2OC3(C(C)(C(=O)C(=C(C3)O)C(=O)C)c2c(O)c1C)OC
INCHI=InChI=1S/C19H20O8/c1-7-14(23)12(9(3)21)16-13(15(7)24)18(4)17(25)11(8(2)20)10(22)6-19(18,26-5)27-16/h22-24H,6H2,1-5H3
INCHIKEY=WWSUFZCWOJULTK-UHFFFAOYSA-N
CLASS=Dibenzofuranes
ADDUCT=[2M-2H+K]-
INSTRUMENT=Thermo Q-Exactive Focus
PRECURSOR_MZ=789.1797
COMPOUND_NAME=Pseudoplacodiolic acid
ION_MODE=negative
FORMULA=C19H20O8
65.644707 9022.310547 
83.012619 28141.189453 
91.980347 51516.402344 
92.18782 9142.876953 
120.086922 9850.599609 
129.621552 9352.053711 
144.40506 9253.834961 
180.042572 29669.201172 
202.169128 11710.323242 
231.06665 21091.638672 
255.066742 21336.539062 
257.082611 14639.495117 
259.061584 28431.144531 
299.093323 70778.351562 
301.072418 62630.25 
325.073334 12236.022461 
328.060913 16408.341797 
343.082977 62210.527344 
375.109222 286365.84375 
401.36084 9860.541016 
417.292389 10047.586914 
465.292267 9957.350586 
472.643738 8363.211914 
509.275635 9837.616211 
530.74646 9915.080078 
532.95752 9080.570312 
544.932068 8390.452148 
558.538025 9409.027344 
611.983032 10179.629883 
711.508057 9816.250977 
713.869202 9289.753906 
814.500732 9528.338867 
816.401001 9616.767578 
822.455505 9223.930664 
END IONS

BEGIN IONS
RTINSECONDS=124.129997
CHARGE=1-
MSLEVEL=2
SMILES=O[C@H]1[C@H](O)[C@@H](O)[C@H](Oc2c(C)c3oc(C)cc(=O)c3c(O)c2C)O[C@@H]1COC(=O)C
INCHI=InChI=1S/C20H24O10/c1-7-5-11(22)13-14(23)8(2)18(9(3)19(13)28-7)30-20-17(26)16(25)15(24)12(29-20)6-27-10(4)21/h5,12,15-17,20,23-26H,6H2,1-4H3/t12-,15-,16+,17-,20+/m1/s1
INCHIKEY=NJRLDXGREKHXGV-IVABAYMNSA-N
CLASS=Chromanes and Chromones
ADDUCT=[M+Cl]-
INSTRUMENT=Thermo Q-Exactive Focus
PRECURSOR_MZ=459.1058
COMPOUND_NAME=Galapagin
ION_MODE=negative
FORMULA=C20H24O10
64.876434 5317.247559 
84.88501 6196.712402 
91.976471 11066.546875 
219.065643 92729.085938 
END IONS

BEGIN IONS
RTINSECONDS=125.084
CHARGE=1-
MSLEVEL=2
SMILES=O[C@H]1[C@H](O)[C@@H](O)[C@H](Oc2c(C)c3oc(C)cc(=O)c3c(O)c2C)O[C@@H]1COC(=O)C
INCHI=InChI=1S/C20H24O10/c1-7-5-11(22)13-14(23)8(2)18(9(3)19(13)28-7)30-20-17(26)16(25)15(24)12(29-20)6-27-10(4)21/h5,12,15-17,20,23-26H,6H2,1-4H3/t12-,15-,16+,17-,20+/m1/s1
INCHIKEY=NJRLDXGREKHXGV-IVABAYMNSA-N
CLASS=Chromanes and Chromones
ADDUCT=[M-H+HCOOH]-
INSTRUMENT=Thermo Q-Exactive Focus
PRECURSOR_MZ=469.1346
COMPOUND_NAME=Galapagin
ION_MODE=negative
FORMULA=C20H24O10
91.97628 564586.9375 
218.057846 6257534.5 
219.065704 27011466.0 
219.08609 1699128.875 
261.077454 455358.28125 
423.129211 6065276.5 
END IONS

BEGIN IONS
RTINSECONDS=188.798996
CHARGE=1-
MSLEVEL=2
SMILES=O=C1c2c(C)cc(OC)c(C)c2Oc2c(O1)cc(c(c2C)C(=O)O)O
INCHI=InChI=1S/C18H16O7/c1-7-5-11(23-4)8(2)16-13(7)18(22)24-12-6-10(19)14(17(20)21)9(3)15(12)25-16/h5-6,19H,1-4H3,(H,20,21)
INCHIKEY=IXEVSIMCIWOSQO-UHFFFAOYSA-N
CLASS=Depsidones
ADDUCT=[M-H]-
INSTRUMENT=Thermo Q-Exactive Focus
PRECURSOR_MZ=343.0818
COMPOUND_NAME=Notatic acid
ION_MODE=negative
FORMULA=C18H16O7
53.78236 574855.3125 
79.054161 1069785.625 
88.634872 2279113.0 
91.053864 7099788.0 
91.980408 1596137.125 
119.049164 6264101.5 
137.059967 2916259.25 
149.060074 1840804.625 
163.039246 4612174.5 
197.060349 19067230.0 
216.079254 13784203.0 
240.078979 139353360.0 
242.058548 10764986.0 
255.102524 39553884.0 
257.081604 16160051.0 
299.093018 11046072.0 
END IONS

BEGIN IONS
RTINSECONDS=135.697998
CHARGE=1-
MSLEVEL=2
SMILES=Cc1cc(O)cc(O)c1C(=O)Oc1cc(O)c(C(=O)OC[C@@H](O)[C@@H](O)CO)c(C)c1
INCHI=InChI=1S/C20H22O10/c1-9-3-11(22)5-13(23)18(9)20(28)30-12-4-10(2)17(14(24)6-12)19(27)29-8-16(26)15(25)7-21/h3-6,15-16,21-26H,7-8H2,1-2H3/t15-,16+/m0/s1
INCHIKEY=BUBBEHCXSMCYNY-JKSUJKDBSA-N
CLASS=Depsides (Didepsides)
ADDUCT=[2M-H]-
INSTRUMENT=Thermo Q-Exactive Focus
PRECURSOR_MZ=843.2348
COMPOUND_NAME=Erythrin
ION_MODE=negative
FORMULA=C20H22O10
68.677628 42013.191406 
71.527458 44961.832031 
79.053627 48259.144531 
90.304008 60343.425781 
105.03318 1470610.625 
123.04287 1028879.25 
149.023209 11599046.0 
167.033798 8922262.0 
187.583786 81120.835938 
219.378006 93450.25 
221.483704 85316.367188 
255.064438 52131.253906 
271.082153 3162086.0 
271.110992 66822.773438 
284.985535 17377.443359 
292.63855 31099.380859 
321.050568 27981.888672 
338.986145 108360.90625 
402.172607 111133.101562 
402.240112 17068.216797 
402.781891 25463.552734 
403.104645 60518.289062 
421.113861 1698968.0 
486.363831 9532.501953 
513.164307 52958.785156 
571.145752 150624.75 
590.639832 28187.701172 
663.845947 64779.210938 
676.963135 17781.771484 
680.939331 10236.24707 
705.457153 51786.886719 
742.792175 24287.376953 
1302.77002 148890.96875 
END IONS

BEGIN IONS
RTINSECONDS=335.859985
CHARGE=1-
MSLEVEL=2
SMILES=CCCCCCCCCCCCC[C@@H]1[C@@H](C(=O)O)[C@H](C)C(=O)O1
INCHI=InChI=1S/C19H34O4/c1-3-4-5-6-7-8-9-10-11-12-13-14-16-17(18(20)21)15(2)19(22)23-16/h15-17H,3-14H2,1-2H3,(H,20,21)/t15-,16+,17-/m0/s1
INCHIKEY=WLGALFYTFVOQPY-BBWFWOEESA-N
CLASS=Paraconic acids
ADDUCT=[M-H]-
INSTRUMENT=Thermo Q-Exactive Focus
PRECURSOR_MZ=325.2379
COMPOUND_NAME=Roccellaric acid
ION_MODE=negative
FORMULA=C19H34O4
57.47728 1078523.0 
91.978256 2425409.75 
113.023399 7504548.0 
281.249542 10784920.0 
END IONS

BEGIN IONS
RTINSECONDS=274.54599
CHARGE=1-
MSLEVEL=2
SMILES=Oc1cc(OC(=O)c2c(O)cc(OC)cc2CCC(=O)CC)cc(CCCCC)c1C(=O)O
INCHI=InChI=1S/C25H30O8/c1-4-6-7-8-15-12-19(14-20(27)22(15)24(29)30)33-25(31)23-16(9-10-17(26)5-2)11-18(32-3)13-21(23)28/h11-14,27-28H,4-10H2,1-3H3,(H,29,30)
INCHIKEY=UCYIOAVHQGSYLP-UHFFFAOYSA-N
CLASS=Depsides (Didepsides)
ADDUCT=[2M-H]-
INSTRUMENT=Thermo Q-Exactive Focus
PRECURSOR_MZ=915.3803
COMPOUND_NAME=Miriquidic acid
ION_MODE=negative
FORMULA=C25H30O8
65.870041 74349.640625 
72.0252 324336.65625 
82.522476 298971.40625 
91.017441 597403.5 
91.982643 739205.875 
92.498825 212571.78125 
137.096085 447572.9375 
161.096115 1458405.125 
169.177048 368599.3125 
179.106781 9790267.0 
205.086395 46775756.0 
223.097122 24354896.0 
224.582123 319197.5625 
251.092239 363042.1875 
258.935822 73140.046875 
283.718353 12128.089844 
297.149261 43528.03125 
334.775024 12857.444336 
342.13269 88706.710938 
353.177612 21865.484375 
363.497314 60264.585938 
369.207306 591108.8125 
403.967529 31362.867188 
429.248627 211972.265625 
449.597565 232216.421875 
457.187103 12717726.0 
457.250427 449000.75 
500.964539 338663.75 
562.611877 15465.383789 
571.911987 228801.703125 
585.323181 405187.59375 
600.62323 376180.4375 
655.218567 213686.953125 
658.593628 75985.101562 
694.799316 242386.21875 
702.344666 434044.0 
711.83197 13273.688477 
739.064087 237243.0625 
795.278442 87936.257812 
814.253174 291646.71875 
END IONS

BEGIN IONS
RTINSECONDS=135.464005
CHARGE=1-
MSLEVEL=2
SMILES=O=C1c2c(C)cc(O)c(C=O)c2Oc2c(O1)c(c(c1c2C(O)OC1=O)O)CO
INCHI=InChI=1S/C18H12O10/c1-5-2-8(21)6(3-19)13-9(5)16(23)27-14-7(4-20)12(22)10-11(15(14)26-13)18(25)28-17(10)24/h2-3,18,20-22,25H,4H2,1H3
INCHIKEY=QQTKVXCQLZIJPP-UHFFFAOYSA-N
CLASS=Depsidones
ADDUCT=[2M-H]-
INSTRUMENT=Thermo Q-Exactive Focus
PRECURSOR_MZ=775.0783
COMPOUND_NAME=Salazinic acid
ION_MODE=negative
FORMULA=C18H12O10
58.355156 147960.15625 
68.996933 230601.890625 
121.028282 2104475.25 
123.043816 215672.875 
135.007904 403684.53125 
151.039108 1350922.125 
165.018417 383019.09375 
213.055771 595612.25 
225.055618 1388301.875 
227.034698 3447634.75 
241.050446 1693794.25 
243.029953 3441570.75 
269.045746 3652680.75 
299.05658 1023285.8125 
313.03598 774740.9375 
325.035645 1064349.875 
343.046356 5165002.0 
374.808044 58870.253906 
387.036346 5758252.0 
413.664215 57243.925781 
458.663452 8219.274414 
482.792694 165385.015625 
521.063416 51488.214844 
530.218689 22572.789062 
584.549744 23435.773438 
618.372803 8819.677734 
675.648438 63635.347656 
693.986755 194986.84375 
808.954651 21744.732422 
END IONS

BEGIN IONS
RTINSECONDS=296.834991
CHARGE=1-
MSLEVEL=2
SMILES=CCCCCCCCCCCC1[C@H](C(=O)O)C(C)C(=O)O1
INCHI=InChI=1S/C17H30O4/c1-3-4-5-6-7-8-9-10-11-12-14-15(16(18)19)13(2)17(20)21-14/h13-15H,3-12H2,1-2H3,(H,18,19)/t13?,14?,15-/m1/s1
INCHIKEY=PKXAQFKGSXYQJX-YMAMQOFZSA-N
CLASS=Paraconic acids
ADDUCT=[2M-2H+Na]-
INSTRUMENT=Thermo Q-Exactive Focus
PRECURSOR_MZ=617.4029
COMPOUND_NAME=Nephrosteranic acid
ION_MODE=negative
FORMULA=C17H30O4
51.129097 80646.171875 
52.485107 88831.53125 
68.755989 97230.929688 
91.469055 97508.554688 
91.97805 203625.65625 
100.11187 109620.296875 
105.828278 97012.296875 
113.02346 624260.6875 
169.270935 58080.292969 
191.784317 73983.804688 
196.727798 101796.015625 
229.556778 100491.078125 
240.915787 99166.03125 
241.84407 100231.71875 
253.217743 2254847.25 
283.963654 74532.09375 
297.207916 1446653.625 
358.868164 12685.100586 
412.524445 57394.035156 
413.166656 24754.845703 
433.226196 53968.121094 
489.262756 23073.318359 
524.601868 13399.779297 
530.478027 74883.09375 
537.870117 46417.113281 
573.417053 279506.3125 
END IONS

BEGIN IONS
RTINSECONDS=321.890991
CHARGE=1-
MSLEVEL=2
SMILES=CC(C)(C)CCCCCCCCCC1C(C(=O)O)C(C(=O)O1)C
INCHI=InChI=1S/C19H34O4/c1-14-16(17(20)21)15(23-18(14)22)12-10-8-6-5-7-9-11-13-19(2,3)4/h14-16H,5-13H2,1-4H3,(H,20,21)
INCHIKEY=NRFWTRPHJATQOB-UHFFFAOYSA-N
CLASS=Paraconic acids
ADDUCT=[M-H+CH3OH]-
INSTRUMENT=Thermo Q-Exactive Focus
PRECURSOR_MZ=357.2641
COMPOUND_NAME=Neodihydroprotolichesterinic acid
ION_MODE=negative
FORMULA=C19H34O4
69.033356 37564.695312 
69.558449 7257.706543 
86.070549 7682.019531 
95.903679 7604.809082 
97.815765 8315.217773 
113.023422 281345.75 
139.190933 3348.174561 
159.116791 6593.087891 
173.817749 4780.763184 
214.262299 5439.773438 
220.905655 8056.959961 
227.563461 5823.730469 
260.791565 4871.04248 
262.807892 2738.614746 
281.249146 46239.027344 
296.837738 2605.586182 
323.188202 5722.696289 
325.239105 66370.554688 
END IONS

BEGIN IONS
RTINSECONDS=268.595001
CHARGE=1-
MSLEVEL=2
SMILES=C[C@H](O)CCCCCCCCCCCCC[C@@H]1C(C(=O)O)C(=C)C(=O)O1
INCHI=InChI=1S/C21H36O5/c1-16(22)14-12-10-8-6-4-3-5-7-9-11-13-15-18-19(20(23)24)17(2)21(25)26-18/h16,18-19,22H,2-15H2,1H3,(H,23,24)/t16-,18+,19?/m0/s1
INCHIKEY=UYUDMGMNHAKPEV-CXEJCQMISA-N
CLASS=Paraconic acids
ADDUCT=[M-H+CH3OH]-
INSTRUMENT=Thermo Q-Exactive Focus
PRECURSOR_MZ=399.2747
COMPOUND_NAME=Murolic acid
ION_MODE=negative
FORMULA=C21H36O5
60.289551 6594.956543 
72.938698 6198.081543 
89.241631 6551.037109 
91.98291 13194.479492 
96.085411 6280.658691 
99.237946 7524.056641 
155.143829 8779.905273 
158.685471 5735.359375 
173.309448 6566.758301 
181.870392 7870.497559 
184.703491 6072.902344 
186.761429 6044.886719 
263.238403 18970.511719 
277.254517 18935.326172 
279.268677 6618.263184 
285.944275 6634.473145 
295.266266 13888.40332 
323.260193 205918.59375 
354.979187 5506.753906 
366.598755 5601.195312 
367.248779 9577.134766 
421.223724 5500.195801 
END IONS

BEGIN IONS
RTINSECONDS=135.862
CHARGE=1-
MSLEVEL=2
SMILES=O=C1c2c(C)cc(O)c(C=O)c2Oc2c(O1)c(c(c1c2C(O)OC1=O)O)CO
INCHI=InChI=1S/C18H12O10/c1-5-2-8(21)6(3-19)13-9(5)16(23)27-14-7(4-20)12(22)10-11(15(14)26-13)18(25)28-17(10)24/h2-3,18,20-22,25H,4H2,1H3
INCHIKEY=QQTKVXCQLZIJPP-UHFFFAOYSA-N
CLASS=Depsidones
ADDUCT=[2M-2H+Na]-
INSTRUMENT=Thermo Q-Exactive Focus
PRECURSOR_MZ=797.0602
COMPOUND_NAME=Salazinic acid
ION_MODE=negative
FORMULA=C18H12O10
55.549049 11729.777344 
68.40049 11438.105469 
68.99688 15663.569336 
91.977341 15416.15918 
93.033195 22653.279297 
121.028267 117224.132812 
123.0439 26279.511719 
135.007492 44227.0625 
151.03923 62804.179688 
165.018677 29717.289062 
177.018356 26969.367188 
213.05545 51627.269531 
225.055603 97322.328125 
227.034866 232392.15625 
241.050217 117608.992188 
243.029877 211670.515625 
269.045715 233322.890625 
299.056732 50383.878906 
313.036316 49491.757812 
325.03595 80872.523438 
343.046295 297178.875 
359.350372 8407.992188 
387.036224 282374.46875 
400.294342 8202.916016 
409.067505 10086.049805 
413.597748 13162.213867 
441.261658 9481.644531 
518.357666 10039.460938 
635.531067 11603.873047 
639.851501 10031.547852 
716.921814 9604.791016 
738.105713 11855.947266 
END IONS

BEGIN IONS
RTINSECONDS=104.954002
CHARGE=1-
MSLEVEL=2
SMILES=Cc1cc(c(c2c1C(=O)Oc1c(O2)c2c(c(c1CO)O)C(=O)OC2O)C=O)OC
INCHI=InChI=1S/C19H14O10/c1-6-3-9(26-2)7(4-20)14-10(6)17(23)28-15-8(5-21)13(22)11-12(16(15)27-14)19(25)29-18(11)24/h3-4,19,21-22,25H,5H2,1-2H3
INCHIKEY=FYPCEUKJORJHDL-UHFFFAOYSA-N
CLASS=Depsidones
ADDUCT=[M-H]-
INSTRUMENT=Thermo Q-Exactive Focus
PRECURSOR_MZ=401.0509
COMPOUND_NAME=Constictic acid
ION_MODE=negative
FORMULA=C19H14O10
69.862892 472478.8125 
71.012535 58458.839844 
91.98349 176099.671875 
93.03331 713335.9375 
121.028152 4076479.5 
135.007828 1410809.75 
137.059891 923286.875 
165.055008 1006788.8125 
211.039703 865266.25 
212.047653 2999957.5 
240.042511 8992393.0 
241.048691 941179.1875 
268.038025 4271224.0 
270.053925 1148972.125 
283.061096 4195607.0 
298.048126 1105069.875 
313.072357 937740.0625 
327.050232 517306.125 
357.062012 3605052.0 
END IONS

BEGIN IONS
RTINSECONDS=240.932999
CHARGE=1-
MSLEVEL=2
SMILES=Oc1c(C(=O)Oc2cc(O)c(C(=O)O)c(CC(=O)CCC)c2)c(CC(=O)CCC)cc(OC)c1
INCHI=InChI=1S/C25H28O9/c1-4-6-16(26)8-14-11-19(13-20(28)22(14)24(30)31)34-25(32)23-15(9-17(27)7-5-2)10-18(33-3)12-21(23)29/h10-13,28-29H,4-9H2,1-3H3,(H,30,31)
INCHIKEY=QZZMDINWSWWNKM-UHFFFAOYSA-N
CLASS=Depsides (Didepsides)
ADDUCT=[2M-2H+Na]-
INSTRUMENT=Thermo Q-Exactive Focus
PRECURSOR_MZ=965.3208
COMPOUND_NAME=Glomellic acid
ION_MODE=negative
FORMULA=C25H28O9
81.033211 21855.904297 
93.03315 14281.352539 
105.033272 18712.980469 
123.043739 188481.796875 
146.036346 34742.050781 
149.023254 176600.34375 
149.096069 20860.929688 
167.034027 28110.662109 
193.086044 514719.875 
219.065659 996880.875 
233.081543 16593.902344 
237.076263 846048.0625 
243.101974 18829.990234 
299.453461 11853.564453 
313.145111 16069.441406 
313.757538 10841.166992 
315.450165 7949.833984 
379.249878 6903.6875 
383.186401 18747.703125 
414.984436 13860.6875 
470.826141 10590.879883 
471.165802 211165.84375 
471.230682 16215.607422 
493.149109 13293.731445 
497.142639 42878.074219 
531.616394 12404.364258 
557.183838 12346.990234 
686.547485 12272.719727 
720.084534 8842.583984 
731.231812 210718.34375 
815.801758 13486.211914 
END IONS

BEGIN IONS
RTINSECONDS=336.257996
CHARGE=1-
MSLEVEL=2
SMILES=CCCCCCCCCCCCCC[C@H](C(=O)OC)[C@@H](C(=O)O)CC(=O)O
INCHI=InChI=1S/C21H38O6/c1-3-4-5-6-7-8-9-10-11-12-13-14-15-17(21(26)27-2)18(20(24)25)16-19(22)23/h17-18H,3-16H2,1-2H3,(H,22,23)(H,24,25)/t17-,18-/m0/s1
INCHIKEY=LGCPAGYPUFWEBQ-ROUUACIJSA-N
CLASS=Acids
ADDUCT=[M-H]-
INSTRUMENT=Thermo Q-Exactive Focus
PRECURSOR_MZ=385.259
COMPOUND_NAME=Rangiformic acid
ION_MODE=negative
FORMULA=C21H38O6
59.012661 4428915.0 
71.01268 4877348.0 
71.04908 2136446.5 
97.999817 1869041.625 
112.7798 1417490.75 
115.002678 1727819.625 
255.232925 3584946.75 
265.254272 73675264.0 
267.234314 322253.0 
293.212891 9896431.0 
309.244873 9133648.0 
353.234344 27666840.0 
END IONS

BEGIN IONS
RTINSECONDS=260.859009
CHARGE=1-
MSLEVEL=2
SMILES=O=C1c2c(CC(=O)CCCCC)cc(OC)c(O)c2Oc2c(O1)cc(c(c2CCCCC)C(=O)O)O
INCHI=InChI=1S/C27H32O9/c1-4-6-8-10-16(28)12-15-13-19(34-3)23(30)25-21(15)27(33)35-20-14-18(29)22(26(31)32)17(24(20)36-25)11-9-7-5-2/h13-14,29-30H,4-12H2,1-3H3,(H,31,32)
INCHIKEY=YFNNJORBJZUGCV-UHFFFAOYSA-N
CLASS=Depsidones
ADDUCT=[2M-2H+Na]-
INSTRUMENT=Thermo Q-Exactive Focus
PRECURSOR_MZ=1021.3834
COMPOUND_NAME=Lividic acid
ION_MODE=negative
FORMULA=C27H32O9
74.254463 10987.729492 
85.427071 12040.762695 
91.976883 20805.259766 
107.46077 12785.256836 
127.446358 12200.760742 
133.101059 14239.314453 
137.096054 14119.172852 
179.106812 246790.78125 
205.086929 31167.541016 
249.113098 230467.140625 
275.092712 110034.867188 
297.113403 213158.125 
327.088013 109255.929688 
341.103058 104482.804688 
342.111023 129047.992188 
353.140625 67881.734375 
356.126617 69652.734375 
396.194336 291953.40625 
411.218292 242486.890625 
413.197052 115062.195312 
455.207733 167677.734375 
499.197937 369870.1875 
499.266479 23138.230469 
521.180481 85567.890625 
526.885681 11010.417969 
533.65094 12046.859375 
576.534851 10985.698242 
624.444275 11002.429688 
631.072327 12874.759766 
658.033997 11028.944336 
664.699646 11823.333984 
700.164001 13861.620117 
767.332458 12593.105469 
776.92395 11252.463867 
788.218262 11549.977539 
800.904602 12511.693359 
801.97644 9041.296875 
827.645874 11755.245117 
869.378723 10500.807617 
872.901184 12519.206055 
899.091064 14434.837891 
910.189087 11075.780273 
965.651733 10349.283203 
1038.003296 10682.136719 
END IONS

BEGIN IONS
RTINSECONDS=338.97699
CHARGE=1-
MSLEVEL=2
SMILES=CCCCCCCCCCCCC[C@H]1[C@H]([C@H](C(=O)O1)C)C(=O)O
INCHI=InChI=1S/C19H34O4/c1-3-4-5-6-7-8-9-10-11-12-13-14-16-17(18(20)21)15(2)19(22)23-16/h15-17H,3-14H2,1-2H3,(H,20,21)/t15-,16+,17+/m1/s1
INCHIKEY=WLGALFYTFVOQPY-IKGGRYGDSA-N
CLASS=Paraconic acids
ADDUCT=[M-H+CH3OH]-
INSTRUMENT=Thermo Q-Exactive Focus
PRECURSOR_MZ=357.2641
COMPOUND_NAME=Nephromopsic acid
ION_MODE=negative
FORMULA=C19H34O4
55.592705 6386.859863 
69.033348 20499.632812 
73.179337 6420.94873 
81.052376 6214.562012 
93.768852 5841.680664 
113.02327 172741.296875 
152.29155 6554.431641 
156.902176 7330.875 
166.432846 5883.19873 
180.544296 6977.827637 
215.389526 5478.027832 
224.783569 5467.433594 
266.634125 5636.963867 
281.24942 30153.248047 
301.35495 6036.861816 
324.910553 6199.785645 
325.239258 62817.929688 
331.660706 5613.248047 
END IONS

BEGIN IONS
RTINSECONDS=274.544006
CHARGE=1-
MSLEVEL=2
SMILES=CC(=O)CCCCCCCCCCCCC[C@@H]1C(C(C)C(=O)O1)C(=O)O
INCHI=InChI=1S/C21H36O5/c1-16(22)14-12-10-8-6-4-3-5-7-9-11-13-15-18-19(20(23)24)17(2)21(25)26-18/h17-19H,3-15H2,1-2H3,(H,23,24)/t17?,18-,19?/m1/s1
INCHIKEY=SPGPUDJMXMJNCU-JLAWEPINSA-N
CLASS=Paraconic acids
ADDUCT=[2M-H]-
INSTRUMENT=Thermo Q-Exactive Focus
PRECURSOR_MZ=735.5047
COMPOUND_NAME=Dihydromuronic acid
ION_MODE=negative
FORMULA=C21H36O5
52.817696 2169964.0 
54.708111 2161699.25 
57.033195 1027744.875 
61.54277 2455456.5 
74.110023 2143675.75 
88.996414 2142904.0 
113.023399 871377.9375 
114.292992 711388.125 
123.743034 688770.3125 
154.590073 281658.21875 
161.384872 297340.21875 
174.587845 322753.0 
202.78334 66746.46875 
206.263031 370975.5625 
263.630219 2708256.25 
274.362762 2467830.25 
277.252747 3009346.75 
278.256989 2718911.5 
279.269043 69224928.0 
323.259094 29279502.0 
345.325562 312128.375 
364.46344 654641.3125 
366.237366 1208278.375 
367.24823 53057008.0 
367.294891 471339.59375 
455.024323 335849.3125 
460.747131 70677.289062 
471.87027 9173.837891 
507.692474 78820.4375 
529.643738 48430.863281 
546.263245 772982.75 
570.041443 301216.65625 
583.074402 8572.49707 
592.673218 2585788.5 
601.849854 8081.838379 
617.514587 39656.480469 
626.562683 41535.296875 
653.944946 10246.685547 
680.547668 2505759.75 
717.004944 7910.260254 
764.64447 67942.914062 
768.009399 337293.75 
END IONS

BEGIN IONS
RTINSECONDS=223.421005
CHARGE=1-
MSLEVEL=2
SMILES=Cc1cc(O)c2c(C(=O)c3cc(O)cc(O)c3C2=O)c1
INCHI=InChI=1S/C15H10O5/c1-6-2-8-12(10(17)3-6)15(20)13-9(14(8)19)4-7(16)5-11(13)18/h2-5,16-18H,1H3
INCHIKEY=RHMXXJGYXNZAPX-UHFFFAOYSA-N
CLASS=Quinones
ADDUCT=[2M-H]-
INSTRUMENT=Thermo Q-Exactive Focus
PRECURSOR_MZ=539.0978
COMPOUND_NAME=Emodin
ION_MODE=negative
FORMULA=C15H10O5
58.341774 14232.426758 
60.36208 16215.870117 
61.506191 15685.499023 
79.236435 18761.490234 
91.975983 9566.957031 
117.438492 6940.37793 
121.324844 9339.540039 
134.269073 18451.275391 
181.065918 13582.629883 
182.037415 16691.441406 
221.236755 19960.550781 
225.056046 229774.96875 
240.043991 14776.605469 
241.051178 52451.761719 
269.046356 3634616.0 
283.723328 6569.067871 
290.176819 6704.435059 
348.164429 7323.005859 
350.294403 6400.533691 
358.494904 7593.362793 
371.436096 7309.025879 
402.040314 7459.904785 
412.788391 6474.554688 
436.501587 12892.896484 
459.54187 6671.56543 
475.245483 6739.156738 
END IONS

BEGIN IONS
RTINSECONDS=292.578003
CHARGE=1-
MSLEVEL=2
SMILES=O=C1Oc2c(c3C[C@@](O)(CCCCC)OC(=O)c3c(O)c2)Oc2c1c(cc(c2)OC)CC(=O)CCCCC
INCHI=InChI=1S/C29H34O9/c1-4-6-8-10-18(30)12-17-13-19(35-3)14-22-24(17)27(32)37-23-15-21(31)25-20(26(23)36-22)16-29(34,38-28(25)33)11-9-7-5-2/h13-15,31,34H,4-12,16H2,1-3H3/t29-/m1/s1
INCHIKEY=DQYWDDCXRXABIH-GDLZYMKVSA-N
CLASS=Depsidones
ADDUCT=[2M-H]-
INSTRUMENT=Thermo Q-Exactive Focus
PRECURSOR_MZ=1051.4327
COMPOUND_NAME=Alpha-collatolic acid
ION_MODE=negative
FORMULA=C29H34O9
80.798157 30081.958984 
91.98243 395157.375 
93.033157 17611.625 
111.007622 49755.085938 
123.007622 421649.0625 
137.02327 388806.03125 
165.018433 1089019.75 
213.091904 584698.1875 
217.086929 519800.875 
219.102341 1640780.5 
226.063416 929009.9375 
285.077484 2443431.0 
285.113647 2257358.75 
298.121063 1890738.25 
300.136993 3350102.0 
315.160889 4500082.5 
367.118835 4799058.5 
368.126953 5686494.5 
383.150391 22245864.0 
422.211365 552401.3125 
437.23584 1296194.25 
463.214935 672681.75 
465.192291 1343501.0 
466.201019 796596.0625 
481.223877 4877698.5 
507.202698 39430.808594 
525.213501 23173732.0 
END IONS

BEGIN IONS
RTINSECONDS=129.712997
CHARGE=1-
MSLEVEL=2
SMILES=c1c(cc2c(c1O)C(=O)c1c(cc(cc1C2=O)O)O)CO
INCHI=InChI=1S/C15H10O6/c16-5-6-1-8-12(10(18)2-6)15(21)13-9(14(8)20)3-7(17)4-11(13)19/h1-4,16-19H,5H2
INCHIKEY=YQHZABGPIPECSQ-UHFFFAOYSA-N
CLASS=Quinones
ADDUCT=[M-H]-
INSTRUMENT=Thermo Q-Exactive Focus
PRECURSOR_MZ=285.0399
COMPOUND_NAME=Citreorosein
ION_MODE=negative
FORMULA=C15H10O6
63.341888 117443.335938 
65.071159 135431.84375 
211.03981 2255160.0 
224.048279 2631898.25 
239.033051 1708170.125 
241.05069 7053306.0 
257.046265 4823412.0 
268.038666 300227.84375 
END IONS

BEGIN IONS
RTINSECONDS=18.012501
CHARGE=1-
MSLEVEL=2
SMILES=C(=C\C(=O)O)/C(=O)O
INCHI=InChI=1S/C4H4O4/c5-3(6)1-2-4(7)8/h1-2H,(H,5,6)(H,7,8)/b2-1+
INCHIKEY=VZCYOOQTPOCHFL-OWOJBTEDSA-N
CLASS=Acids
ADDUCT=[2M-H]-
INSTRUMENT=Thermo Q-Exactive Focus
PRECURSOR_MZ=231.0141
COMPOUND_NAME=Fumaric acid
ION_MODE=negative
FORMULA=C4H4O4
60.075352 241242.53125 
61.520756 252672.390625 
63.762569 252238.96875 
71.012321 12853083.0 
87.8694 254195.578125 
115.002197 19795040.0 
135.355881 273591.5 
147.333572 275242.03125 
181.088181 263481.0625 
183.846298 32991.699219 
198.680847 33350.539062 
251.989166 107305.421875 
END IONS

BEGIN IONS
RTINSECONDS=138.557999
CHARGE=1-
MSLEVEL=2
SMILES=O=C1OCc2c1c(cc1c2c2c(C)cc(O)cc2o1)O
INCHI=InChI=1S/C15H10O5/c1-6-2-7(16)3-10-12(6)14-8-5-19-15(18)13(8)9(17)4-11(14)20-10/h2-4,16-17H,5H2,1H3
INCHIKEY=OOXFLIUVCWLPKE-UHFFFAOYSA-N
CLASS=Dibenzofuranes
ADDUCT=[M-H]-
INSTRUMENT=Thermo Q-Exactive Focus
PRECURSOR_MZ=269.045
COMPOUND_NAME=Strepsilin
ION_MODE=negative
FORMULA=C15H10O5
169.065155 827808.1875 
182.036041 345438.5625 
196.053085 369661.625 
197.060501 8618753.0 
215.071625 388383.6875 
225.055634 7918955.0 
END IONS

BEGIN IONS
RTINSECONDS=349.054993
CHARGE=1-
MSLEVEL=2
SMILES=CCCCCCCCCCCCC[C@H]1C(=C(C(=O)O1)C)C(=O)O
INCHI=InChI=1S/C19H32O4/c1-3-4-5-6-7-8-9-10-11-12-13-14-16-17(18(20)21)15(2)19(22)23-16/h16H,3-14H2,1-2H3,(H,20,21)/t16-/m0/s1
INCHIKEY=SLQVVNFTCYVCPB-INIZCTEOSA-N
CLASS=Paraconic acids
ADDUCT=[2M-2H+K]-
INSTRUMENT=Thermo Q-Exactive Focus
PRECURSOR_MZ=685.4082
COMPOUND_NAME=Lichesterinic acid
ION_MODE=negative
FORMULA=C19H32O4
65.18692 7930.450684 
66.155685 7695.146484 
66.621185 7707.680664 
67.450577 7977.87793 
82.280777 7399.951172 
126.508415 9206.31543 
168.470261 8298.988281 
204.712433 7851.744141 
205.944687 7840.612305 
222.248596 7862.749023 
225.126282 7304.781738 
231.812302 8488.229492 
259.53595 7488.71875 
277.78656 7620.82373 
279.23349 24602.638672 
321.931824 9041.336914 
323.223541 53369.199219 
384.82608 7639.050781 
436.592926 8363.829102 
443.982117 8415.095703 
530.28595 9016.275391 
558.384338 8440.679688 
576.390442 7858.05127 
END IONS

BEGIN IONS
RTINSECONDS=334.834991
CHARGE=1-
MSLEVEL=2
SMILES=CCCCCCCCCCCCCC[C@H](C(=O)OC)[C@@H](C(=O)O)CC(=O)O
INCHI=InChI=1S/C21H38O6/c1-3-4-5-6-7-8-9-10-11-12-13-14-15-17(21(26)27-2)18(20(24)25)16-19(22)23/h17-18H,3-16H2,1-2H3,(H,22,23)(H,24,25)/t17-,18-/m0/s1
INCHIKEY=LGCPAGYPUFWEBQ-ROUUACIJSA-N
CLASS=Acids
ADDUCT=[2M-H]-
INSTRUMENT=Thermo Q-Exactive Focus
PRECURSOR_MZ=771.5259
COMPOUND_NAME=Rangiformic acid
ION_MODE=negative
FORMULA=C21H38O6
59.012596 3792159.25 
71.012688 2675856.0 
71.04911 1724572.5 
80.679131 931726.9375 
91.976585 927853.625 
97.999863 822402.25 
122.523811 497869.96875 
133.134567 476449.125 
140.056808 485963.1875 
147.070786 452825.5 
176.435516 968782.3125 
179.299316 350656.78125 
197.385406 247733.640625 
212.660721 425081.8125 
232.952042 1020364.3125 
255.234421 4351752.5 
265.254364 69879312.0 
267.234406 1769950.25 
293.184631 1275069.0 
293.213348 7611822.5 
309.244781 9575206.0 
341.272278 1256962.75 
348.072449 1023884.0625 
353.234406 37647948.0 
385.260773 29161016.0 
401.521332 942081.3125 
423.430603 255446.921875 
451.766388 1018405.75 
492.981354 1091896.375 
513.174988 10420.004883 
541.350708 431453.0 
555.754517 6403.830566 
557.137634 246943.625 
571.291321 271996.78125 
669.289856 9979.566406 
678.712402 31234.841797 
716.949768 470571.90625 
END IONS

BEGIN IONS
RTINSECONDS=199.167999
CHARGE=1-
MSLEVEL=2
SMILES=c1ccc(cc1)C1=C(C(=C2c3ccccc3OC2=O)OC1=O)O
INCHI=InChI=1S/C18H10O5/c19-15-13(10-6-2-1-3-7-10)17(20)23-16(15)14-11-8-4-5-9-12(11)22-18(14)21/h1-9,19H
INCHIKEY=CGRCGRBHNKRILW-UHFFFAOYSA-N
CLASS=Pulvinic Acid Derivatives
ADDUCT=[M-H]-
INSTRUMENT=Thermo Q-Exactive Focus
PRECURSOR_MZ=305.045
COMPOUND_NAME=Calycin
ION_MODE=negative
FORMULA=C18H10O5
74.925285 13889.885742 
79.856316 30740.242188 
117.033875 41174.113281 
125.038681 86989.15625 
155.025391 38724.1875 
177.069931 36731.386719 
205.066086 185303.890625 
233.06105 4605327.5 
261.056976 30304.378906 
END IONS

BEGIN IONS
RTINSECONDS=316.528992
CHARGE=1-
MSLEVEL=2
SMILES=CCCCCCCCCCCCCCC(C(=O)O)C(CC(=O)OC)(C(=O)O)O
INCHI=InChI=1S/C21H38O7/c1-3-4-5-6-7-8-9-10-11-12-13-14-15-17(19(23)24)21(27,20(25)26)16-18(22)28-2/h17,27H,3-16H2,1-2H3,(H,23,24)(H,25,26)
INCHIKEY=HMJJWFFZRCLIDN-UHFFFAOYSA-N
CLASS=Acids
ADDUCT=[M-H]-
INSTRUMENT=Thermo Q-Exactive Focus
PRECURSOR_MZ=401.2539
COMPOUND_NAME=Caperatic acid
ION_MODE=negative
FORMULA=C21H38O7
73.027908 13266672.0 
87.007271 2066600.0 
91.9786 4379172.5 
112.98687 2393634.25 
124.015228 4739602.5 
145.013031 2436778.0 
237.222229 1977061.125 
253.253098 18108606.0 
263.23822 5736580.0 
281.24881 1849933.25 
283.2276 26692678.0 
307.191956 1173994.375 
307.227753 47289444.0 
307.26059 780206.375 
END IONS

BEGIN IONS
RTINSECONDS=284.502014
CHARGE=1-
MSLEVEL=2
SMILES=CC(C[C@H](NC(=O)/C(=C\1/C(=C(c2ccccc2)C(=O)O1)O)/c1ccccc1)C(=O)O)C
INCHI=InChI=1S/C24H23NO6/c1-14(2)13-17(23(28)29)25-22(27)19(16-11-7-4-8-12-16)21-20(26)18(24(30)31-21)15-9-5-3-6-10-15/h3-12,14,17,26H,13H2,1-2H3,(H,25,27)(H,28,29)/b21-19-/t17-/m0/s1
INCHIKEY=ZQLBONJLBKDOLE-UFVMTTLYSA-N
CLASS=Pulvinic Acid Derivatives
ADDUCT=[M-2H+Na]-
INSTRUMENT=Thermo Q-Exactive Focus
PRECURSOR_MZ=442.1267
COMPOUND_NAME=Norepanorin
ION_MODE=negative
FORMULA=C24H23NO6
101.038612 29556.449219 
117.03363 93594.617188 
191.086731 18834.990234 
203.086838 23619.769531 
234.069382 21102.070312 
247.076935 82481.976562 
248.084732 297093.25 
262.064911 25142.431641 
263.071991 275266.71875 
285.054443 22563.550781 
333.151276 6847.414062 
424.117065 9727.554688 
END IONS

BEGIN IONS
RTINSECONDS=104.309998
CHARGE=1-
MSLEVEL=2
SMILES=Cc1cc(O)c2c(oc3c2c(C)c(C(=O)O)c(O)c3)c1C(=O)O
INCHI=InChI=1S/C16H12O7/c1-5-3-7(17)13-12-6(2)11(16(21)22)8(18)4-9(12)23-14(13)10(5)15(19)20/h3-4,17-18H,1-2H3,(H,19,20)(H,21,22)
INCHIKEY=ZVWOMGLVQVBJQN-UHFFFAOYSA-N
CLASS=Dibenzofuranes
ADDUCT=[M-H]-
INSTRUMENT=Thermo Q-Exactive Focus
PRECURSOR_MZ=315.0505
COMPOUND_NAME=Pannaric acid
ION_MODE=negative
FORMULA=C16H12O7
56.988647 5003.109863 
77.77356 13419.577148 
171.081146 168474.3125 
197.060562 1125703.875 
199.076157 7445265.5 
212.047806 6167981.0 
225.055573 3580702.75 
227.07132 12809497.0 
253.050568 4625629.5 
271.061859 11144077.0 
297.040863 7999774.0 
END IONS

BEGIN IONS
RTINSECONDS=316.632996
CHARGE=1-
MSLEVEL=2
SMILES=CCCCCCCCCCCCCCC(C(=O)O)C(CC(=O)OC)(C(=O)O)O
INCHI=InChI=1S/C21H38O7/c1-3-4-5-6-7-8-9-10-11-12-13-14-15-17(19(23)24)21(27,20(25)26)16-18(22)28-2/h17,27H,3-16H2,1-2H3,(H,23,24)(H,25,26)
INCHIKEY=HMJJWFFZRCLIDN-UHFFFAOYSA-N
CLASS=Acids
ADDUCT=[2M-2H+Na]-
INSTRUMENT=Thermo Q-Exactive Focus
PRECURSOR_MZ=825.4976
COMPOUND_NAME=Caperatic acid
ION_MODE=negative
FORMULA=C21H38O7
67.601105 14565.943359 
73.028038 117141.390625 
87.007317 26673.306641 
91.980888 17707.978516 
112.986794 35479.269531 
124.015221 46484.574219 
133.840027 13223.975586 
145.013199 46063.804688 
192.409027 8787.981445 
221.224945 9233.331055 
221.328079 8794.964844 
237.22197 20583.074219 
253.253159 244540.46875 
263.237793 58889.761719 
281.248688 33311.6875 
283.22757 370534.65625 
307.227692 724336.3125 
323.220642 48549.886719 
339.253876 37503.949219 
348.616333 13063.841797 
369.227905 16000.128906 
401.253845 198748.09375 
407.336456 8331.34082 
471.594055 7344.244629 
510.300415 5668.867188 
518.133789 11184.501953 
626.206848 10781.323242 
644.65448 8821.779297 
710.412415 11292.246094 
770.500427 5929.492188 
793.467712 13233.110352 
804.048157 10512.072266 
857.047607 11588.889648 
END IONS

BEGIN IONS
RTINSECONDS=334.609985
CHARGE=1-
MSLEVEL=2
SMILES=CCCCCCCCCCCCC[C@@H]1OC(=O)C(=C)[C@@H]1C(=O)O
INCHI=InChI=1S/C19H32O4/c1-3-4-5-6-7-8-9-10-11-12-13-14-16-17(18(20)21)15(2)19(22)23-16/h16-17H,2-14H2,1H3,(H,20,21)/t16-,17-/m0/s1
INCHIKEY=WZYZDHVPSZCEEP-IRXDYDNUSA-N
CLASS=Paraconic acids
ADDUCT=[M-H]-
INSTRUMENT=Thermo Q-Exactive Focus
PRECURSOR_MZ=323.2222
COMPOUND_NAME=allo-Protolichesterinic acid
ION_MODE=negative
FORMULA=C19H32O4
91.980553 1465712.625 
279.233643 11880630.0 
END IONS

BEGIN IONS
RTINSECONDS=314.274994
CHARGE=1-
MSLEVEL=2
SMILES=O=C1C(=C(O)/C(=C(/c2ccccc2)\C(=O)N[C@@H](Cc2ccccc2)C(=O)OC)/O1)c1ccccc1
INCHI=InChI=1S/C28H23NO6/c1-34-27(32)21(17-18-11-5-2-6-12-18)29-26(31)23(20-15-9-4-10-16-20)25-24(30)22(28(33)35-25)19-13-7-3-8-14-19/h2-16,21,30H,17H2,1H3,(H,29,31)/b25-23+/t21-/m0/s1
INCHIKEY=DKDGWAKCXBFTMM-KZKMBZSSSA-N
CLASS=Pulvinic Acid Derivatives
ADDUCT=[M-H]-
INSTRUMENT=Thermo Q-Exactive Focus
PRECURSOR_MZ=468.1447
COMPOUND_NAME=Rhizocarpic acid
ION_MODE=negative
FORMULA=C28H23NO6
60.784958 50760.03125 
91.976791 225338.265625 
117.033607 32401418.0 
191.086426 13249935.0 
234.068619 781138.375 
263.072052 77828768.0 
301.075775 4770066.0 
END IONS

BEGIN IONS
RTINSECONDS=292.316986
CHARGE=1-
MSLEVEL=2
SMILES=CC12C(=O)C(=C(C=C1Oc1c2c(O)c(C)c(O)c1C(=O)C)O)C(=O)C
INCHI=InChI=1S/C18H16O7/c1-6-14(22)12(8(3)20)16-13(15(6)23)18(4)10(25-16)5-9(21)11(7(2)19)17(18)24/h5,21-23H,1-4H3
INCHIKEY=WEYVVCKOOFYHRW-UHFFFAOYSA-N
CLASS=Dibenzofuranes
ADDUCT=[2M-2H+Na]-
INSTRUMENT=Thermo Q-Exactive Focus
PRECURSOR_MZ=709.1533
COMPOUND_NAME=Usnic acid
ION_MODE=negative
FORMULA=C18H16O7
69.222939 113122.828125 
83.012619 3713230.5 
91.98201 320970.34375 
231.066452 3525381.0 
255.067581 376965.53125 
257.083374 254763.890625 
259.061493 8139041.5 
299.092773 1566685.5 
301.07254 733685.625 
313.03653 999432.875 
315.088806 272390.65625 
328.059631 14517332.0 
343.082886 19753112.0 
END IONS

BEGIN IONS
RTINSECONDS=310.173004
CHARGE=1-
MSLEVEL=2
SMILES=Cc1c2c(Oc3c(OC2=O)c(c(c(c3C)Cl)OC)C)c(C=O)c(O)c1Cl
INCHI=InChI=1S/C18H14Cl2O6/c1-6-10-17(9(5-21)13(22)11(6)19)25-15-7(2)12(20)14(24-4)8(3)16(15)26-18(10)23/h5,22H,1-4H3
INCHIKEY=SNNDIPJEAQAKTJ-UHFFFAOYSA-N
CLASS=Depsidones
ADDUCT=[2M-2H+Na]-
INSTRUMENT=Thermo Q-Exactive Focus
PRECURSOR_MZ=813.0076
COMPOUND_NAME=Argopsin
ION_MODE=negative
FORMULA=C18H14Cl2O6
63.624905 9221.212891 
68.996819 182090.34375 
79.216454 9042.09082 
91.975693 27416.171875 
129.067093 9043.944336 
131.982117 11672.777344 
140.345245 12027.250977 
170.013184 27376.378906 
179.174744 10524.206055 
182.985229 41538.195312 
211.932419 9068.923828 
244.02951 10811.575195 
272.025421 35103.277344 
276.020538 26930.865234 
288.021179 28466.611328 
308.001404 103944.59375 
316.014496 77807.851562 
331.038818 44639.679688 
335.996552 131424.21875 
344.010834 40666.289062 
359.032684 85471.921875 
395.009705 562056.375 
398.092926 12489.408203 
475.715454 9084.652344 
511.06366 10722.807617 
551.103516 9644.088867 
634.027771 10935.486328 
656.781616 9493.161133 
668.390686 9064.555664 
731.861816 14234.991211 
763.962769 9929.569336 
END IONS

BEGIN IONS
RTINSECONDS=274.877991
CHARGE=1-
MSLEVEL=2
SMILES=Oc1c(C(=O)Oc2cc(O)c(C(=O)O)c(CCCCC)c2)c(CC(=O)CCC)cc(OC)c1
INCHI=InChI=1S/C25H30O8/c1-4-6-7-9-15-11-19(14-20(27)22(15)24(29)30)33-25(31)23-16(10-17(26)8-5-2)12-18(32-3)13-21(23)28/h11-14,27-28H,4-10H2,1-3H3,(H,29,30)
INCHIKEY=PKLMGLZTAHCGBQ-UHFFFAOYSA-N
CLASS=Depsides (Didepsides)
ADDUCT=[2M-H]-
INSTRUMENT=Thermo Q-Exactive Focus
PRECURSOR_MZ=915.3803
COMPOUND_NAME=Glomelliferic acid
ION_MODE=negative
FORMULA=C25H30O8
68.322945 295754.46875 
83.188988 125871.5 
88.472969 178299.0625 
91.017487 398571.53125 
127.672173 340288.75 
135.11673 540089.8125 
137.096085 549095.6875 
161.096268 1161153.0 
179.106705 8285099.0 
199.803635 337535.03125 
205.086273 40723028.0 
223.097015 25606126.0 
223.119949 230111.828125 
233.081482 913285.0 
283.133972 213878.25 
284.139984 66038.179688 
299.164856 1012120.875 
352.112793 35612.4375 
354.338562 31739.154297 
368.665344 139786.25 
369.207428 632522.4375 
399.671143 47873.769531 
413.195648 110339.453125 
457.123901 83355.546875 
457.186798 17556298.0 
457.248627 65592.195312 
466.429352 406342.65625 
487.086365 349888.125 
645.055664 49933.902344 
712.875671 10965.861328 
746.338684 43922.261719 
780.630127 10537.74707 
849.164978 41582.910156 
856.518799 42960.628906 
863.695129 13799.427734 
END IONS

BEGIN IONS
RTINSECONDS=125.478996
CHARGE=1-
MSLEVEL=2
SMILES=c1ccc(cc1)C1=C(C(=C2c3ccccc3OC2=O)OC1=O)O
INCHI=InChI=1S/C18H10O5/c19-15-13(10-6-2-1-3-7-10)17(20)23-16(15)14-11-8-4-5-9-12(11)22-18(14)21/h1-9,19H
INCHIKEY=CGRCGRBHNKRILW-UHFFFAOYSA-N
CLASS=Pulvinic Acid Derivatives
ADDUCT=[M-H+CH3OH]-
INSTRUMENT=Thermo Q-Exactive Focus
PRECURSOR_MZ=337.0712
COMPOUND_NAME=Calycin
ION_MODE=negative
FORMULA=C18H10O5
91.983238 124588.070312 
92.02565 144059.671875 
117.033401 1445489.5 
132.020996 182275.421875 
133.028671 3248968.0 
149.060303 405909.0 
205.065704 589704.375 
206.073822 544451.5625 
217.065994 477345.25 
233.06102 11737460.0 
261.056396 867191.875 
278.059357 1358852.75 
293.083008 652311.3125 
305.046509 877835.5 
END IONS

BEGIN IONS
RTINSECONDS=213.541
CHARGE=1-
MSLEVEL=2
SMILES=Oc1c(Oc2cc(OC)cc3c2C(=O)OC3(O)CCCC)c(CCCCC)c(c(c1)O)C(=O)O
INCHI=InChI=1S/C25H30O9/c1-4-6-8-9-15-20(23(28)29)17(26)13-18(27)22(15)33-19-12-14(32-3)11-16-21(19)24(30)34-25(16,31)10-7-5-2/h11-13,26-27,31H,4-10H2,1-3H3,(H,28,29)
INCHIKEY=BWRBGHBJBQFFAW-UHFFFAOYSA-N
CLASS=Diphenylethers
ADDUCT=[2M-H]-
INSTRUMENT=Thermo Q-Exactive Focus
PRECURSOR_MZ=947.3701
COMPOUND_NAME=Lobariolcarboxylic acid (Lobarin)
ION_MODE=negative
FORMULA=C25H30O9
67.528755 483813.15625 
70.240082 76218.09375 
72.125473 403886.96875 
91.980194 1028055.125 
99.783638 481939.09375 
112.270485 479139.09375 
175.075958 889991.375 
192.079132 1032903.8125 
207.102509 8297116.5 
220.073654 1275002.375 
221.08194 12372982.0 
239.092743 1731537.125 
251.093079 1011048.8125 
298.087036 1006776.25 
312.101562 1828190.875 
327.124695 3418215.75 
351.161163 1089637.625 
367.192291 1177492.25 
383.187103 3577757.75 
385.202789 2122981.5 
411.181946 41389608.0 
429.192352 1098333.375 
446.456848 97375.757812 
455.172516 1122064.625 
460.367126 36274.125 
473.182678 6052899.0 
525.447266 4763.983887 
527.230957 38889.078125 
581.212769 5327.62207 
600.160461 5524.335449 
629.533997 20562.28125 
758.947266 6431.473145 
813.207275 784335.75 
901.652405 21428.160156 
925.761963 21077.494141 
963.893677 237287.6875 
984.763245 5401.869141 
END IONS

BEGIN IONS
RTINSECONDS=332.877014
CHARGE=1-
MSLEVEL=2
SMILES=CCCCCCCCCCCCC[C@@H]1OC(=O)C(=C)[C@@H]1C(=O)O
INCHI=InChI=1S/C19H32O4/c1-3-4-5-6-7-8-9-10-11-12-13-14-16-17(18(20)21)15(2)19(22)23-16/h16-17H,2-14H2,1H3,(H,20,21)/t16-,17-/m0/s1
INCHIKEY=WZYZDHVPSZCEEP-IRXDYDNUSA-N
CLASS=Paraconic acids
ADDUCT=[2M-H]-
INSTRUMENT=Thermo Q-Exactive Focus
PRECURSOR_MZ=647.4523
COMPOUND_NAME=allo-Protolichesterinic acid
ION_MODE=negative
FORMULA=C19H32O4
91.983009 1250595.375 
279.233612 81741592.0 
323.223785 36151488.0 
END IONS

BEGIN IONS
RTINSECONDS=265.609009
CHARGE=1-
MSLEVEL=2
SMILES=CC(=O)CCCCCCCCCCCCC[C@@H]1OC(=O)C(=C)[C@@H]1C(=O)O
INCHI=InChI=1S/C21H34O5/c1-16(22)14-12-10-8-6-4-3-5-7-9-11-13-15-18-19(20(23)24)17(2)21(25)26-18/h18-19H,2-15H2,1H3,(H,23,24)/t18-,19-/m0/s1
INCHIKEY=SKQHRBRVCRUFSX-OALUTQOASA-N
CLASS=Paraconic acids
ADDUCT=[2M-H]-
INSTRUMENT=Thermo Q-Exactive Focus
PRECURSOR_MZ=731.4734
COMPOUND_NAME=allo-Pertusaric acid
ION_MODE=negative
FORMULA=C21H34O5
57.03336 7445015.0 
69.033348 1572483.5 
91.978439 1154360.0 
169.15918 1492581.125 
183.174927 824894.875 
223.206879 733856.4375 
261.223022 1075438.875 
277.25415 124549992.0 
293.249725 921567.3125 
321.244263 55933884.0 
365.233978 49434372.0 
END IONS

BEGIN IONS
RTINSECONDS=79.742798
CHARGE=1-
MSLEVEL=2
SMILES=Cc1cc(cc(c1C(=O)O)O)O
INCHI=InChI=1S/C8H8O4/c1-4-2-5(9)3-6(10)7(4)8(11)12/h2-3,9-10H,1H3,(H,11,12)
INCHIKEY=AMKYESDOVDKZKV-UHFFFAOYSA-N
CLASS=Cleavage Products of Depsides and Depsidones
ADDUCT=[M-H]-
INSTRUMENT=Thermo Q-Exactive Focus
PRECURSOR_MZ=167.0344
COMPOUND_NAME=Orsellinic acid
ION_MODE=negative
FORMULA=C8H8O4
79.054024 60791100.0 
81.033325 46848596.0 
123.04409 279707136.0 
END IONS

BEGIN IONS
RTINSECONDS=136.936005
CHARGE=1-
MSLEVEL=2
SMILES=O=C1c2c(C)cc(OC)c(C=O)c2Oc2c(O1)c(c(c1c2C(O)OC1=O)O)C
INCHI=InChI=1S/C19H14O9/c1-6-4-9(25-3)8(5-20)15-10(6)17(22)27-14-7(2)13(21)11-12(16(14)26-15)19(24)28-18(11)23/h4-5,19,21,24H,1-3H3
INCHIKEY=SKCUFZLDTAYNBZ-UHFFFAOYSA-N
CLASS=Depsidones
ADDUCT=[M-H+CH3OH]-
INSTRUMENT=Thermo Q-Exactive Focus
PRECURSOR_MZ=417.0822
COMPOUND_NAME=Stictic acid
ION_MODE=negative
FORMULA=C19H14O9
52.834003 188270.015625 
84.408539 108622.179688 
91.981293 246579.46875 
107.049019 333721.15625 
121.02832 177758.59375 
149.023727 484759.46875 
225.055435 2412165.25 
227.034668 2474718.5 
239.034805 2074249.25 
241.050598 2569202.5 
254.058182 4467664.5 
267.029755 2829922.0 
282.054108 1277937.25 
297.077118 1886886.0 
329.103607 636341.375 
341.067444 1703293.375 
373.093262 621557.25 
385.056702 1638934.75 
END IONS

BEGIN IONS
RTINSECONDS=278.644012
CHARGE=1-
MSLEVEL=2
SMILES=O=C1c2c(CCCCC)cc(OC)c(O)c2Oc2c(O1)cc(c(c2CCCCC)C(=O)O)O
INCHI=InChI=1S/C25H30O8/c1-4-6-8-10-14-12-17(31-3)21(27)23-19(14)25(30)32-18-13-16(26)20(24(28)29)15(22(18)33-23)11-9-7-5-2/h12-13,26-27H,4-11H2,1-3H3,(H,28,29)
INCHIKEY=VZPSCITXDMDLDC-UHFFFAOYSA-N
CLASS=Depsidones
ADDUCT=[M-H]-
INSTRUMENT=Thermo Q-Exactive Focus
PRECURSOR_MZ=457.1862
COMPOUND_NAME=3-Hydroxycolensoic acid
ION_MODE=negative
FORMULA=C25H30O8
79.24807 705492.8125 
91.976578 3438268.0 
133.101044 2483402.25 
179.107208 7193509.0 
205.086273 861533.0625 
207.102875 1922605.375 
221.081009 2281666.5 
283.098633 3052483.25 
297.11377 11569181.0 
299.093048 4290854.0 
311.129395 16421986.0 
327.087708 15323135.0 
342.110748 11424913.0 
354.184326 31532974.0 
369.206543 13315651.0 
371.186646 4389030.0 
413.197937 8883127.0 
END IONS

BEGIN IONS
RTINSECONDS=169.688004
CHARGE=1-
MSLEVEL=2
SMILES=Oc1c(C(=O)Oc2cc(C)c(C(=O)O)c(O)c2)c(C)cc(O)c1
INCHI=InChI=1S/C16H14O7/c1-7-3-9(17)5-11(18)14(7)16(22)23-10-4-8(2)13(15(20)21)12(19)6-10/h3-6,17-19H,1-2H3,(H,20,21)
INCHIKEY=HEMSJKZDHNSSEW-UHFFFAOYSA-N
CLASS=Depsides (Didepsides)
ADDUCT=[2M-H]-
INSTRUMENT=Thermo Q-Exactive Focus
PRECURSOR_MZ=635.1401
COMPOUND_NAME=Lecanoric acid
ION_MODE=negative
FORMULA=C16H14O7
51.521381 72475.023438 
79.053864 272128.0625 
81.033142 254241.296875 
103.02417 88091.804688 
105.03315 400419.28125 
123.043823 3253724.25 
149.0233 2453775.5 
167.03389 17948292.0 
175.468307 72375.671875 
209.889969 77671.921875 
216.809326 22621.298828 
234.939362 50948.527344 
235.676926 21699.570312 
250.911713 80818.859375 
273.167755 69862.46875 
300.55777 51363.324219 
317.066925 923745.9375 
357.891235 27443.712891 
382.360229 7412.900879 
410.25415 88575.882812 
423.644501 21968.425781 
424.998535 8218.574219 
500.476868 24937.941406 
541.835327 7764.953613 
542.165527 74735.757812 
604.44751 85503.335938 
END IONS

BEGIN IONS
RTINSECONDS=200.983002
CHARGE=1-
MSLEVEL=2
SMILES=Cc1cc(c(c(c1C(=O)O)O)C=O)O
INCHI=InChI=1S/C9H8O5/c1-4-2-6(11)5(3-10)8(12)7(4)9(13)14/h2-3,11-12H,1H3,(H,13,14)
INCHIKEY=KCOOTJRKKIDHTM-UHFFFAOYSA-N
CLASS=Cleavage Products of Depsides and Depsidones
ADDUCT=[M-H]-
INSTRUMENT=Thermo Q-Exactive Focus
PRECURSOR_MZ=195.0293
COMPOUND_NAME=Haematommic acid
ION_MODE=negative
FORMULA=C9H8O5
70.44883 7227.787109 
79.054161 435261.125 
81.033401 317671.65625 
123.044106 3548089.5 
136.052185 134957.890625 
149.023743 465223.5625 
151.039322 2631167.75 
END IONS

BEGIN IONS
RTINSECONDS=14.4469
CHARGE=1-
MSLEVEL=2
SMILES=OC[C@@H](O)[C@@H](O)[C@H](O)[C@H](O)CO
INCHI=InChI=1S/C6H14O6/c7-1-3(9)5(11)6(12)4(10)2-8/h3-12H,1-2H2/t3-,4-,5-,6-/m1/s1
INCHIKEY=FBPFZTCFMRRESA-KVTDHHQDSA-N
CLASS="Polyols, Monosaccharides, Carbohydrates"
ADDUCT=[M-H+HCOOH]-
INSTRUMENT=Thermo Q-Exactive Focus
PRECURSOR_MZ=227.0767
COMPOUND_NAME=D-Mannitol
ION_MODE=negative
FORMULA=C6H14O6
59.012558 2938370.25 
71.012566 3459403.75 
73.028214 823784.4375 
85.028229 899039.625 
89.023186 3709697.5 
101.023239 4720090.0 
163.06015 1636007.625 
179.055634 121074.140625 
181.071213 19408724.0 
END IONS

BEGIN IONS
RTINSECONDS=244.692001
CHARGE=1-
MSLEVEL=2
SMILES=CCCCCC(=O)Cc1cc(cc(c1C(=O)Oc1cc(c(c(c1)CC(=O)CCCCC)C(=O)O)OC)O)O
INCHI=InChI=1S/C29H36O9/c1-4-6-8-10-20(30)12-18-14-22(32)16-24(33)26(18)29(36)38-23-15-19(13-21(31)11-9-7-5-2)27(28(34)35)25(17-23)37-3/h14-17,32-33H,4-13H2,1-3H3,(H,34,35)
INCHIKEY=DGXLEDCXMIJNPJ-UHFFFAOYSA-N
CLASS=Depsides (Didepsides)
ADDUCT=[M-H+HCOOH]-
INSTRUMENT=Thermo Q-Exactive Focus
PRECURSOR_MZ=573.2336
COMPOUND_NAME=Arthoniaic acid
ION_MODE=negative
FORMULA=C29H36O9
81.033447 12818.625977 
84.774605 7059.379395 
105.033318 18734.126953 
123.043678 46263.136719 
137.059448 25015.689453 
146.036133 26891.261719 
149.023148 128548.5 
167.033844 18065.486328 
221.117538 57960.449219 
228.076797 10146.641602 
235.133575 54123.566406 
243.102463 20389.650391 
247.097031 251664.421875 
265.10788 98318.257812 
279.123291 22201.376953 
293.103241 19845.632812 
315.757721 7214.652832 
341.175171 14854.985352 
345.5513 6969.777344 
360.082001 6751.561523 
395.603088 7720.654785 
413.518677 8710.408203 
423.329987 7337.894043 
439.250366 19485.736328 
475.768158 7321.28125 
490.385223 6914.679688 
509.853363 8775.921875 
511.966339 7977.188477 
516.945007 7254.817383 
537.609131 7285.448242 
600.575195 7542.667969 
END IONS

BEGIN IONS
RTINSECONDS=279.527008
CHARGE=1-
MSLEVEL=2
SMILES=O=C(OC)/C(=C\1/OC(=O)C(=C1O)c1ccccc1)/c1c(OC)cccc1
INCHI=InChI=1S/C20H16O6/c1-24-14-11-7-6-10-13(14)16(19(22)25-2)18-17(21)15(20(23)26-18)12-8-4-3-5-9-12/h3-11,21H,1-2H3/b18-16+
INCHIKEY=IWYVMUDIEOXASM-FBMGVBCBSA-N
CLASS=Pulvinic Acid Derivatives
ADDUCT=[2M-2H+Na]-
INSTRUMENT=Thermo Q-Exactive Focus
PRECURSOR_MZ=725.1635
COMPOUND_NAME=Leprapinic acid
ION_MODE=negative
FORMULA=C20H16O6
91.98304 42390.332031 
101.03862 464280.25 
117.033539 599394.375 
132.020706 93822.46875 
147.044693 203906.125 
191.034546 577630.5625 
231.081772 625100.125 
233.061081 1820134.25 
264.079834 1685676.75 
279.103424 2477656.75 
291.067352 968395.8125 
292.075592 1006617.5 
307.098419 667545.875 
351.088501 9284564.0 
END IONS

BEGIN IONS
RTINSECONDS=293.072998
CHARGE=1-
MSLEVEL=2
SMILES=Cc1c2c(Oc3c(OC2=O)c(c(c(c3C)Cl)OC)C)c(Cl)c(O)c1Cl
INCHI=InChI=1S/C17H13Cl3O5/c1-5-8-16(11(20)12(21)9(5)18)24-14-6(2)10(19)13(23-4)7(3)15(14)25-17(8)22/h21H,1-4H3
INCHIKEY=MTWNEIGWRWQLFS-UHFFFAOYSA-N
CLASS=Depsidones
ADDUCT=[2M-2H+Na]-
INSTRUMENT=Thermo Q-Exactive Focus
PRECURSOR_MZ=824.9398
COMPOUND_NAME=Caloploicin
ION_MODE=negative
FORMULA=C17H13Cl3O5
58.151478 8168.976562 
62.081142 8807.298828 
73.085083 8774.023438 
115.45079 8897.089844 
119.482597 9113.936523 
130.108124 8961.053711 
153.999039 8851.599609 
178.105682 8844.99707 
194.494965 9308.982422 
221.71875 7961.369629 
221.89711 8271.996094 
234.650208 8026.994141 
277.990173 4050.158936 
293.986572 7871.948242 
305.98587 10106.193359 
321.981201 17430.810547 
341.962494 48569.84375 
349.97583 63471.128906 
356.985565 12921.726562 
364.999237 59430.863281 
392.437347 3923.656494 
400.975952 162073.171875 
426.803253 9096.396484 
539.223694 9218.279297 
543.642273 9346.049805 
701.673157 10727.543945 
735.793335 9423.003906 
845.617615 11582.668945 
END IONS

BEGIN IONS
RTINSECONDS=243.160995
CHARGE=1-
MSLEVEL=2
SMILES=CCCCCC(=O)Cc1cc(cc(c1C(=O)Oc1cc(c(c(c1)CC(=O)CCCCC)C(=O)O)OC)O)O
INCHI=InChI=1S/C29H36O9/c1-4-6-8-10-20(30)12-18-14-22(32)16-24(33)26(18)29(36)38-23-15-19(13-21(31)11-9-7-5-2)27(28(34)35)25(17-23)37-3/h14-17,32-33H,4-13H2,1-3H3,(H,34,35)
INCHIKEY=DGXLEDCXMIJNPJ-UHFFFAOYSA-N
CLASS=Depsides (Didepsides)
ADDUCT=[2M-H]-
INSTRUMENT=Thermo Q-Exactive Focus
PRECURSOR_MZ=1055.464
COMPOUND_NAME=Arthoniaic acid
ION_MODE=negative
FORMULA=C29H36O9
81.032997 1729109.75 
93.032593 782474.375 
105.033058 2805092.25 
123.043633 6310200.0 
137.059402 1959200.0 
146.036041 3226778.0 
149.023163 17593138.0 
167.033829 842183.5625 
203.106949 896079.5 
205.08638 770853.0625 
221.117569 9613554.0 
235.133179 4035328.25 
247.097 34854820.0 
265.107758 30608398.0 
279.123322 2245661.25 
326.600708 82930.578125 
337.983368 124047.078125 
341.175903 90194.265625 
353.139374 120749.273438 
359.487823 75927.796875 
390.578888 118233.664062 
424.539337 68218.601562 
438.708832 14344.141602 
439.247681 220678.703125 
449.624359 62316.125 
451.211426 621594.5 
489.746857 349082.28125 
495.202759 517686.4375 
507.157471 12602.875 
509.21875 135185.65625 
513.210449 955519.875 
642.213562 90293.070312 
703.971313 72528.226562 
841.242859 13463.586914 
871.50293 85566.929688 
934.39624 80517.65625 
END IONS

BEGIN IONS
RTINSECONDS=14.65
CHARGE=1-
MSLEVEL=2
SMILES=OC[C@@H](O)[C@@H](O)C(O)[C@H](O)[C@H](O)CO
INCHI=InChI=1S/C7H16O7/c8-1-3(10)5(12)7(14)6(13)4(11)2-9/h3-14H,1-2H2/t3-,4-,5-,6-/m1/s1
INCHIKEY=OXQKEKGBFMQTML-KVTDHHQDSA-N
CLASS="Polyols, Monosaccharides, Carbohydrates"
ADDUCT=[M-H+HCOOH]-
INSTRUMENT=Thermo Q-Exactive Focus
PRECURSOR_MZ=257.0873
COMPOUND_NAME=Volemitol
ION_MODE=negative
FORMULA=C7H16O7
59.012394 1113384.75 
71.012321 1108355.25 
73.027954 459935.5 
89.022888 1152812.5 
101.022865 1884351.75 
119.033653 415521.53125 
131.033752 230018.046875 
149.044403 154099.953125 
182.953415 6076.328613 
193.070724 677631.625 
210.949585 8671.383789 
211.081543 5302182.5 
219.394974 5232.422852 
END IONS

BEGIN IONS
RTINSECONDS=245.591995
CHARGE=1-
MSLEVEL=2
SMILES=c1ccc(cc1)C1=C(C(=C2c3ccccc3OC2=O)OC1=O)O
INCHI=InChI=1S/C18H10O5/c19-15-13(10-6-2-1-3-7-10)17(20)23-16(15)14-11-8-4-5-9-12(11)22-18(14)21/h1-9,19H
INCHIKEY=CGRCGRBHNKRILW-UHFFFAOYSA-N
CLASS=Pulvinic Acid Derivatives
ADDUCT=[2M-2H+Na]-
INSTRUMENT=Thermo Q-Exactive Focus
PRECURSOR_MZ=633.0798
COMPOUND_NAME=Calycin
ION_MODE=negative
FORMULA=C18H10O5
62.597626 42815.320312 
71.065086 29578.335938 
78.48188 46188.015625 
205.065659 16196.324219 
233.061005 7003337.5 
261.055573 112511.4375 
305.046448 2090260.375 
END IONS

BEGIN IONS
RTINSECONDS=268.138
CHARGE=1-
MSLEVEL=2
SMILES=C[C@H](O)CCCCCCCCCCCCC[C@@H]1C(C(=O)O)C(=C)C(=O)O1
INCHI=InChI=1S/C21H36O5/c1-16(22)14-12-10-8-6-4-3-5-7-9-11-13-15-18-19(20(23)24)17(2)21(25)26-18/h16,18-19,22H,2-15H2,1H3,(H,23,24)/t16-,18+,19?/m0/s1
INCHIKEY=UYUDMGMNHAKPEV-CXEJCQMISA-N
CLASS=Paraconic acids
ADDUCT=[2M-2H+Na]-
INSTRUMENT=Thermo Q-Exactive Focus
PRECURSOR_MZ=757.4867
COMPOUND_NAME=Murolic acid
ION_MODE=negative
FORMULA=C21H36O5
53.45565 19895.947266 
57.033409 24804.021484 
61.678581 20527.628906 
96.738136 21690.267578 
119.375977 23330.873047 
143.958939 24375.121094 
153.037689 23887.978516 
155.143539 25497.771484 
162.356003 12180.566406 
225.291473 21815.023438 
233.230164 11287.099609 
263.238525 60470.304688 
277.254364 52873.867188 
279.270325 27619.732422 
297.22113 122375.71875 
299.235901 88445.132812 
323.26004 437546.09375 
343.22644 351657.53125 
345.242157 181099.21875 
367.249268 69115.59375 
389.232544 157940.375 
410.745453 27654.220703 
433.222443 21261.699219 
496.883911 9450.804688 
713.503235 13682.898438 
END IONS

BEGIN IONS
RTINSECONDS=239.847
CHARGE=1-
MSLEVEL=2
SMILES=Oc1c(C(=O)Oc2cc(O)c(C(=O)O)c(CC(=O)CCC)c2)c(CC(=O)CCC)cc(OC)c1
INCHI=InChI=1S/C25H28O9/c1-4-6-16(26)8-14-11-19(13-20(28)22(14)24(30)31)34-25(32)23-15(9-17(27)7-5-2)10-18(33-3)12-21(23)29/h10-13,28-29H,4-9H2,1-3H3,(H,30,31)
INCHIKEY=QZZMDINWSWWNKM-UHFFFAOYSA-N
CLASS=Depsides (Didepsides)
ADDUCT=[M-H]-
INSTRUMENT=Thermo Q-Exactive Focus
PRECURSOR_MZ=471.1655
COMPOUND_NAME=Glomellic acid
ION_MODE=negative
FORMULA=C25H28O9
81.033241 1414201.75 
93.033348 513743.15625 
93.895706 334719.25 
123.043648 12435927.0 
124.047112 2075548.0 
146.036102 2802014.0 
149.023224 12694544.0 
150.026642 2755424.75 
193.086151 23835938.0 
194.089371 6616094.0 
219.065628 49831656.0 
220.069061 15817966.0 
237.076416 23356990.0 
238.079834 4732461.0 
243.102341 500880.4375 
313.145081 445683.8125 
END IONS

BEGIN IONS
RTINSECONDS=278.852997
CHARGE=1-
MSLEVEL=2
SMILES=O=C1c2c(CCCCC)cc(OC)c(O)c2Oc2c(O1)cc(c(c2CCCCC)C(=O)O)O
INCHI=InChI=1S/C25H30O8/c1-4-6-8-10-14-12-17(31-3)21(27)23-19(14)25(30)32-18-13-16(26)20(24(28)29)15(22(18)33-23)11-9-7-5-2/h12-13,26-27H,4-11H2,1-3H3,(H,28,29)
INCHIKEY=VZPSCITXDMDLDC-UHFFFAOYSA-N
CLASS=Depsidones
ADDUCT=[2M-2H+Na]-
INSTRUMENT=Thermo Q-Exactive Focus
PRECURSOR_MZ=937.3623
COMPOUND_NAME=3-Hydroxycolensoic acid
ION_MODE=negative
FORMULA=C25H30O8
68.49073 16963.841797 
69.93792 22295.503906 
82.237335 22344.847656 
91.978828 28854.693359 
94.643753 18891.691406 
133.101151 56178.285156 
149.274612 23640.375 
164.047424 25793.193359 
179.106857 224434.859375 
205.08696 101811.125 
207.10257 53807.84375 
221.081985 59795.59375 
222.089661 25390.417969 
283.098236 84148.375 
297.114014 265185.5 
311.129517 307857.90625 
327.087982 405082.1875 
342.111176 393513.125 
354.184113 973883.0625 
369.20752 512883.40625 
371.186859 204746.453125 
413.197052 366134.9375 
457.187195 816951.0 
474.560486 4433.725098 
479.168396 99879.390625 
532.505859 4839.738281 
539.967285 19142.367188 
560.569824 22941.472656 
589.391296 10335.351562 
589.49707 9890.191406 
590.439636 18645.314453 
632.027893 14151.967773 
637.543396 9269.96582 
689.13678 15066.242188 
728.958069 17088.597656 
744.715576 10064.643555 
747.807068 4510.865234 
753.689026 13385.000977 
785.878418 20898.208984 
813.689819 4602.166992 
832.965942 17836.013672 
877.450378 15684.407227 
894.259277 10218.692383 
958.893982 12207.979492 
965.138733 15948.34082 
END IONS

BEGIN IONS
RTINSECONDS=124.805
CHARGE=1-
MSLEVEL=2
SMILES=O=C(O)c1c(CCC)cc(O)cc1O
INCHI=InChI=1S/C10H12O4/c1-2-3-6-4-7(11)5-8(12)9(6)10(13)14/h4-5,11-12H,2-3H2,1H3,(H,13,14)
INCHIKEY=RIVVNGIVVYEIRS-UHFFFAOYSA-N
CLASS=Cleavage Products of Depsides and Depsidones
ADDUCT=[2M-2H+Na]-
INSTRUMENT=Thermo Q-Exactive Focus
PRECURSOR_MZ=413.1212
COMPOUND_NAME=Divaric acid
ION_MODE=negative
FORMULA=C10H12O4
52.788147 13932.242188 
64.159058 81326.25 
81.033295 71054.6875 
91.983421 21372.988281 
107.085686 289283.53125 
109.064964 323609.90625 
151.075729 4786471.0 
195.065964 5876668.5 
END IONS

BEGIN IONS
RTINSECONDS=266.51001
CHARGE=1-
MSLEVEL=2
SMILES=CC(=O)CCCCCCCCCCCCCC1C(C(=C)C(=O)O1)C(=O)O
INCHI=InChI=1S/C21H34O5/c1-16(22)14-12-10-8-6-4-3-5-7-9-11-13-15-18-19(20(23)24)17(2)21(25)26-18/h18-19H,2-15H2,1H3,(H,23,24)
INCHIKEY=SKQHRBRVCRUFSX-UHFFFAOYSA-N
CLASS=Paraconic acids
ADDUCT=[2M-2H+Na]-
INSTRUMENT=Thermo Q-Exactive Focus
PRECURSOR_MZ=753.4554
COMPOUND_NAME=Pertusaric acid
ION_MODE=negative
FORMULA=C21H34O5
57.033352 185628.296875 
69.03347 39744.257812 
69.104851 22532.166016 
91.9785 73694.960938 
111.00798 50969.191406 
169.159302 50854.320312 
183.176056 22800.03125 
261.223755 7705.710938 
277.254395 2588996.5 
297.221283 66017.367188 
299.236633 92835.101562 
321.244476 1086190.25 
343.226227 174126.390625 
365.234222 572990.1875 
387.216278 65069.789062 
665.479797 138925.75 
709.470337 84677.789062 
END IONS

BEGIN IONS
RTINSECONDS=14.5977
CHARGE=1-
MSLEVEL=2
SMILES=OC[C@@H](O)[C@@H](O)[C@H](O)[C@H](O)CO
INCHI=InChI=1S/C6H14O6/c7-1-3(9)5(11)6(12)4(10)2-8/h3-12H,1-2H2/t3-,4-,5-,6-/m1/s1
INCHIKEY=FBPFZTCFMRRESA-KVTDHHQDSA-N
CLASS="Polyols, Monosaccharides, Carbohydrates"
ADDUCT=[M-H-H2O]-
INSTRUMENT=Thermo Q-Exactive Focus
PRECURSOR_MZ=163.0606
COMPOUND_NAME=D-Mannitol
ION_MODE=negative
FORMULA=C6H14O6
59.012619 81994.140625 
70.0765 18495.800781 
71.012665 35845.363281 
85.028343 98258.960938 
101.023346 74217.242188 
103.65995 20319.181641 
129.169312 18863.603516 
182.306244 20893.400391 
183.400299 18788.666016 
END IONS

BEGIN IONS
RTINSECONDS=154.873001
CHARGE=1-
MSLEVEL=2
SMILES=O=C(C)O[C@@H]1[C@@H](O)[C@H](O)[C@@H](COC(=O)C)O[C@H]1Oc1cc2oc(C)cc(=O)c2c(O)c1C
INCHI=InChI=1S/C21H24O11/c1-8-5-12(24)16-14(29-8)6-13(9(2)17(16)25)31-21-20(30-11(4)23)19(27)18(26)15(32-21)7-28-10(3)22/h5-6,15,18-21,25-27H,7H2,1-4H3/t15-,18-,19+,20-,21-/m1/s1
INCHIKEY=AFCAWRFTSGVRQA-CMWLGVBASA-N
CLASS=Chromanes and Chromones
ADDUCT=[2M-H+HCOOH]-
INSTRUMENT=Thermo Q-Exactive Focus
PRECURSOR_MZ=949.2614
COMPOUND_NAME=Roccellin
ION_MODE=negative
FORMULA=C21H24O11
65.95417 106413.460938 
79.285736 314669.21875 
91.980713 973363.75 
101.53949 74658.023438 
117.123344 358219.53125 
136.097198 85067.960938 
164.84819 316292.53125 
176.624695 121150.773438 
190.02832 336800.21875 
204.041977 4717026.0 
205.049942 16877410.0 
229.049942 162531.703125 
251.304184 288755.0 
252.750854 312740.1875 
282.23407 284201.65625 
290.622589 311285.6875 
331.081757 55002.410156 
349.090607 36311.546875 
361.58493 23244.025391 
365.116852 313185.59375 
391.102478 384464.78125 
409.113403 54372.957031 
443.022339 9246.291016 
451.124939 8505303.0 
493.136719 31428.009766 
497.130341 1329256.0 
611.396484 341313.96875 
655.19928 9350.095703 
883.902283 72961.320312 
884.230957 319593.59375 
916.668945 367863.40625 
END IONS

BEGIN IONS
RTINSECONDS=280.243988
CHARGE=1-
MSLEVEL=2
SMILES=CCCc1cc(cc(c1C(=O)Oc1cc(c(c(c1)CCC)C(=O)O)O)O)OC
INCHI=InChI=1S/C21H24O7/c1-4-6-12-9-15(11-16(22)18(12)20(24)25)28-21(26)19-13(7-5-2)8-14(27-3)10-17(19)23/h8-11,22-23H,4-7H2,1-3H3,(H,24,25)
INCHIKEY=FSRDIJIAQPSMMR-UHFFFAOYSA-N
CLASS=Depsides (Didepsides)
ADDUCT=[2M-2H+Na]-
INSTRUMENT=Thermo Q-Exactive Focus
PRECURSOR_MZ=797.2785
COMPOUND_NAME=Divaricatic acid
ION_MODE=negative
FORMULA=C21H24O7
91.017586 32955.363281 
91.976662 22598.876953 
107.08519 24328.037109 
109.064262 17546.294922 
133.064697 61525.863281 
151.075562 575940.9375 
177.054733 1807819.875 
195.065536 2265520.75 
199.640869 15459.726562 
200.14888 16321.610352 
254.447021 15723.222656 
266.725586 11577.921875 
273.013916 14559.499023 
299.16571 24544.613281 
327.922607 9327.177734 
334.02066 10733.744141 
335.149628 10943.989258 
387.145264 164812.28125 
395.111481 19827.351562 
409.126984 15167.449219 
413.12204 213044.828125 
424.757263 14384.932617 
480.056702 16493.492188 
491.764313 12041.374023 
568.055969 11950.03418 
568.251892 11541.883789 
605.103088 19335.308594 
605.200745 363998.3125 
606.188416 10654.220703 
767.609985 11147.787109 
END IONS

BEGIN IONS
RTINSECONDS=163.240005
CHARGE=1-
MSLEVEL=2
SMILES=O=C1c2c(C)cc(O)c(C)c2Oc2c(O1)cc(c(c2C)C(=O)O)O
INCHI=InChI=1S/C17H14O7/c1-6-4-9(18)7(2)15-12(6)17(22)23-11-5-10(19)13(16(20)21)8(3)14(11)24-15/h4-5,18-19H,1-3H3,(H,20,21)
INCHIKEY=HETZRHDDRHBPKX-UHFFFAOYSA-N
CLASS=Depsidones
ADDUCT=[M-H]-
INSTRUMENT=Thermo Q-Exactive Focus
PRECURSOR_MZ=329.0661
COMPOUND_NAME=Nornotatic acid
ION_MODE=negative
FORMULA=C17H14O7
50.196804 1892561.625 
51.901157 940848.0625 
61.674023 939557.375 
91.976349 4249877.5 
119.048866 3431894.5 
169.101318 4698879.5 
175.039352 4540728.5 
201.055328 11071746.0 
213.09227 6172404.5 
217.086639 13640877.0 
226.063232 5486701.5 
241.086823 96091896.0 
243.065964 10300110.0 
285.077301 7347800.0 
END IONS

BEGIN IONS
RTINSECONDS=168.621002
CHARGE=1-
MSLEVEL=2
SMILES=Oc1c(C(=O)Oc2cc(C)c(C(=O)O)c(O)c2)c(C)cc(O)c1
INCHI=InChI=1S/C16H14O7/c1-7-3-9(17)5-11(18)14(7)16(22)23-10-4-8(2)13(15(20)21)12(19)6-10/h3-6,17-19H,1-2H3,(H,20,21)
INCHIKEY=HEMSJKZDHNSSEW-UHFFFAOYSA-N
CLASS=Depsides (Didepsides)
ADDUCT=[M-H]-
INSTRUMENT=Thermo Q-Exactive Focus
PRECURSOR_MZ=317.0661
COMPOUND_NAME=Lecanoric acid
ION_MODE=negative
FORMULA=C16H14O7
53.379147 14340.799805 
79.053917 4544614.0 
81.03315 2787223.75 
91.980133 75927.390625 
92.668243 19237.376953 
105.03347 6919082.0 
123.043839 44168436.0 
149.023438 16647544.0 
167.03389 72775248.0 
END IONS

BEGIN IONS
RTINSECONDS=240.546997
CHARGE=1-
MSLEVEL=2
SMILES=Oc1c(C(=O)Oc2cc(O)c(C(=O)O)c(CC(=O)CCC)c2)c(CC(=O)CCC)cc(OC)c1
INCHI=InChI=1S/C25H28O9/c1-4-6-16(26)8-14-11-19(13-20(28)22(14)24(30)31)34-25(32)23-15(9-17(27)7-5-2)10-18(33-3)12-21(23)29/h10-13,28-29H,4-9H2,1-3H3,(H,30,31)
INCHIKEY=QZZMDINWSWWNKM-UHFFFAOYSA-N
CLASS=Depsides (Didepsides)
ADDUCT=[2M-H]-
INSTRUMENT=Thermo Q-Exactive Focus
PRECURSOR_MZ=943.3388
COMPOUND_NAME=Glomellic acid
ION_MODE=negative
FORMULA=C25H28O9
70.700363 110306.398438 
81.033051 355684.75 
91.98233 118249.335938 
93.033173 200907.578125 
105.033089 368484.21875 
123.043503 3734005.0 
146.036102 778352.4375 
149.023254 3816584.0 
149.096039 341183.1875 
167.033691 308862.4375 
193.08609 10829251.0 
218.057663 184099.421875 
219.065659 22741934.0 
233.081833 329948.96875 
237.076324 11450961.0 
243.101547 301406.34375 
313.144684 273547.65625 
318.878326 6835.534668 
325.021637 50533.222656 
333.005646 20463.265625 
369.546509 20089.927734 
383.185577 465688.53125 
390.615234 71091.804688 
405.634033 106445.117188 
427.176941 18579.886719 
456.919037 12806.196289 
471.165894 3023867.25 
481.327911 5886.64209 
577.113953 68714.234375 
586.173401 10913.4375 
597.075317 54484.449219 
612.639221 65332.820312 
617.483826 53019.21875 
657.909546 11193.879883 
691.571716 62817.226562 
821.18512 107995.414062 
838.902466 8176.223633 
849.996094 67424.109375 
855.642456 113002.65625 
END IONS

BEGIN IONS
RTINSECONDS=189.740005
CHARGE=1-
MSLEVEL=2
SMILES=O=C1c2c(C)cc(O)c(C)c2Oc2c(O1)c(c(c(c2C)C(=O)O)O)C
INCHI=InChI=1S/C18H16O7/c1-6-5-10(19)7(2)14-11(6)18(23)25-16-9(4)13(20)12(17(21)22)8(3)15(16)24-14/h5,19-20H,1-4H3,(H,21,22)
INCHIKEY=CFPLLTGKDKZLIH-UHFFFAOYSA-N
CLASS=Depsidones
ADDUCT=[2M-H]-
INSTRUMENT=Thermo Q-Exactive Focus
PRECURSOR_MZ=687.1714
COMPOUND_NAME=Hypoprotocetraric acid
ION_MODE=negative
FORMULA=C18H16O7
81.567474 1077092.875 
91.054001 5554825.0 
91.390381 1088053.625 
91.446587 1125216.625 
91.983047 2252817.75 
119.049057 5801848.0 
137.060394 3341622.0 
163.039215 5903947.0 
183.117584 2399370.25 
211.11348 3184335.25 
227.10759 12280643.0 
237.092773 2160860.5 
240.079498 5115214.0 
243.065994 8766717.0 
255.102676 71592504.0 
299.093445 14215658.0 
313.880188 430866.1875 
325.072144 2002988.5 
330.97345 250782.484375 
343.082703 48405744.0 
389.552307 3657.806152 
396.7258 34559.738281 
432.39917 43158.328125 
447.153442 133464.84375 
499.543976 3000.192627 
518.704956 1322114.25 
540.612061 440200.90625 
668.374817 935529.3125 
END IONS

BEGIN IONS
RTINSECONDS=270.256012
CHARGE=1-
MSLEVEL=2
SMILES=CC1=C(C(=O)O)[C@@H](CCCCCCCCCCCCC(C)CO)OC1=O
INCHI=InChI=1S/C21H36O5/c1-16(15-22)13-11-9-7-5-3-4-6-8-10-12-14-18-19(20(23)24)17(2)21(25)26-18/h16,18,22H,3-15H2,1-2H3,(H,23,24)/t16?,18-/m1/s1
INCHIKEY=FEGXSCTZZUZMJG-UHUGOGIASA-N
CLASS=Paraconic acids
ADDUCT=[2M-H]-
INSTRUMENT=Thermo Q-Exactive Focus
PRECURSOR_MZ=735.5047
COMPOUND_NAME=Isomurolic acid
ION_MODE=negative
FORMULA=C21H36O5
57.033306 739416.9375 
62.371319 421854.21875 
80.680466 397113.78125 
86.429543 383061.78125 
91.982689 740176.1875 
129.23996 370061.96875 
142.092758 150026.609375 
155.143738 415222.90625 
164.107468 148601.390625 
169.159378 124529.140625 
201.77858 374838.375 
233.227356 1065523.625 
263.238434 1040214.6875 
265.656067 433143.375 
277.253906 2355004.5 
279.270233 1970707.875 
323.26004 17123466.0 
352.418976 528952.875 
355.444427 417856.8125 
358.27655 181759.328125 
365.234833 181737.28125 
367.249878 28040438.0 
471.027069 3444.926514 
488.80249 62435.035156 
494.614929 6565.09375 
516.134705 3225.520752 
605.15625 31840.632812 
631.713562 182607.359375 
637.358154 33726.621094 
681.401978 359394.8125 
689.422607 33361.296875 
END IONS

BEGIN IONS
RTINSECONDS=292.764008
CHARGE=1-
MSLEVEL=2
SMILES=O=C1c2c(C)c(Cl)c(OC)cc2Oc2c(O1)c(c(c(c2C)Cl)OC)Cl
INCHI=InChI=1S/C17H13Cl3O5/c1-6-10-8(5-9(22-3)11(6)18)24-14-7(2)12(19)15(23-4)13(20)16(14)25-17(10)21/h5H,1-4H3
INCHIKEY=HEZSUFJPGFDKIG-UHFFFAOYSA-N
CLASS=Depsidones
ADDUCT=[M-H+CH3OH]-
INSTRUMENT=Thermo Q-Exactive Focus
PRECURSOR_MZ=433.0012
COMPOUND_NAME=3-Dechloro-4-O-methyldiploicin
ION_MODE=negative
FORMULA=C17H13Cl3O5
176.950775 8626058.0 
204.946014 71528592.0 
229.028198 377054.4375 
366.978241 222152.46875 
END IONS

BEGIN IONS
RTINSECONDS=173.072998
CHARGE=1-
MSLEVEL=2
SMILES=CCCCCc1cc(cc(c1C(=O)O)O)O
INCHI=InChI=1S/C12H16O4/c1-2-3-4-5-8-6-9(13)7-10(14)11(8)12(15)16/h6-7,13-14H,2-5H2,1H3,(H,15,16)
INCHIKEY=SXFKFRRXJUJGSS-UHFFFAOYSA-N
CLASS=Cleavage Products of Depsides and Depsidones
ADDUCT=[2M-2H+Na]-
INSTRUMENT=Thermo Q-Exactive Focus
PRECURSOR_MZ=469.1838
COMPOUND_NAME=Olivetolcarboxylic acid
ION_MODE=negative
FORMULA=C12H16O4
58.54295 65636.960938 
64.209503 55646.484375 
81.033325 32042.412109 
124.662666 60828.636719 
135.117035 530136.0625 
137.095932 574876.8125 
179.107132 7958897.5 
223.09758 7555970.5 
END IONS

BEGIN IONS
RTINSECONDS=258.076996
CHARGE=1-
MSLEVEL=2
SMILES=CC(=O)CCCCCCCCCCCCC[C@H]1[C@H](C(C)C(=O)O1)C(=O)O
INCHI=InChI=1S/C21H36O5/c1-16(22)14-12-10-8-6-4-3-5-7-9-11-13-15-18-19(20(23)24)17(2)21(25)26-18/h17-19H,3-15H2,1-2H3,(H,23,24)/t17?,18-,19-/m0/s1
INCHIKEY=SPGPUDJMXMJNCU-MNNMKWMVSA-N
CLASS=Paraconic acids
ADDUCT=[2M-H]-
INSTRUMENT=Thermo Q-Exactive Focus
PRECURSOR_MZ=735.5047
COMPOUND_NAME=Dihydropertusaric
ION_MODE=negative
FORMULA=C21H36O5
57.033375 818857.75 
74.322182 392515.21875 
84.371979 411920.03125 
91.98288 604144.125 
113.02346 3099472.0 
118.727386 415672.96875 
160.282578 384165.21875 
164.802216 357599.59375 
169.159561 51377.589844 
203.102722 406456.1875 
235.072952 267278.96875 
263.238464 1148911.75 
277.255127 1227008.125 
279.270233 9671839.0 
321.244568 583819.375 
322.250031 544901.8125 
323.26004 11044646.0 
367.249786 24814476.0 
368.252747 430513.5625 
395.738403 21683.970703 
434.874146 9821.891602 
449.602936 304885.71875 
473.625549 307393.78125 
543.235535 27535.015625 
555.356384 20886.275391 
561.890076 9249.604492 
606.766785 6921.62793 
670.980103 566981.8125 
END IONS

BEGIN IONS
RTINSECONDS=260.022003
CHARGE=1-
MSLEVEL=2
SMILES=O=C1c2c(CC(=O)CCCCC)cc(OC)c(O)c2Oc2c(O1)cc(c(c2CCCCC)C(=O)O)O
INCHI=InChI=1S/C27H32O9/c1-4-6-8-10-16(28)12-15-13-19(34-3)23(30)25-21(15)27(33)35-20-14-18(29)22(26(31)32)17(24(20)36-25)11-9-7-5-2/h13-14,29-30H,4-12H2,1-3H3,(H,31,32)
INCHIKEY=YFNNJORBJZUGCV-UHFFFAOYSA-N
CLASS=Depsidones
ADDUCT=[2M-H]-
INSTRUMENT=Thermo Q-Exactive Focus
PRECURSOR_MZ=999.4014
COMPOUND_NAME=Lividic acid
ION_MODE=negative
FORMULA=C27H32O9
82.106293 255770.6875 
90.341766 386939.6875 
91.982414 457564.46875 
112.749138 471860.28125 
124.439178 247907.03125 
137.096191 731263.5 
179.10675 9140475.0 
184.342224 453840.53125 
205.086807 968658.4375 
206.094299 1028964.375 
249.113052 6565002.5 
273.113556 1259111.125 
275.092743 2564997.0 
297.113464 8302679.5 
327.08786 3592582.0 
339.124908 2150377.75 
341.103455 3130746.5 
342.111145 3811904.25 
353.140198 3013080.0 
396.194183 9234766.0 
411.217896 8257016.5 
413.197418 4257581.0 
440.184998 477847.125 
455.207581 4929489.0 
481.184814 275422.25 
499.197784 37057472.0 
503.553192 162526.796875 
507.993622 464670.71875 
627.242981 28702.259766 
669.305664 213159.59375 
737.295715 32049.169922 
776.191101 28457.396484 
790.050354 62183.78125 
829.699341 24797.033203 
926.234375 64114.578125 
949.392517 32373.970703 
1024.171753 6390.326172 
END IONS

BEGIN IONS
RTINSECONDS=201.738007
CHARGE=1-
MSLEVEL=2
SMILES=Cc1c(C(=O)OC)c(OC)cc2c1c1c(cc(c(C(=O)O)c1o2)C)OC
INCHI=InChI=1S/C19H18O7/c1-8-6-10(23-3)16-14-9(2)15(19(22)25-5)11(24-4)7-12(14)26-17(16)13(8)18(20)21/h6-7H,1-5H3,(H,20,21)
INCHIKEY=WBIQYHZEYQDKCL-UHFFFAOYSA-N
CLASS=Dibenzofuranes
ADDUCT=[M-H]-
INSTRUMENT=Thermo Q-Exactive Focus
PRECURSOR_MZ=357.0974
COMPOUND_NAME=Schizopeltic acid
ION_MODE=negative
FORMULA=C19H18O7
251.035538 1855890.75 
255.066132 689289.625 
283.061737 21841034.0 
298.085175 5319413.0 
313.108856 6811363.5 
315.052246 3756569.5 
315.087799 1381192.125 
END IONS

BEGIN IONS
RTINSECONDS=137.378998
CHARGE=1-
MSLEVEL=2
SMILES=O=C1c2c(C)cc(O)cc2Oc2c(O1)cc1c(c2O)C(=O)OC1
INCHI=InChI=1S/C16H10O7/c1-6-2-8(17)4-9-11(6)16(20)23-10-3-7-5-21-15(19)12(7)13(18)14(10)22-9/h2-4,17-18H,5H2,1H3
INCHIKEY=LPUOVEFMUOQBFV-UHFFFAOYSA-N
CLASS=Depsidones
ADDUCT=[2M-H]-
INSTRUMENT=Thermo Q-Exactive Focus
PRECURSOR_MZ=627.0775
COMPOUND_NAME=Variolaric acid
ION_MODE=negative
FORMULA=C16H10O7
51.441986 704857.8125 
52.11673 689779.6875 
55.943073 714886.5 
56.572433 742271.0625 
61.38126 657268.6875 
69.125641 718454.75 
121.034859 811744.75 
122.6521 915876.1875 
149.023254 1654424.125 
163.003235 1946597.75 
169.064209 1016239.625 
181.065659 1019901.75 
197.060699 14961942.0 
213.055679 2762963.75 
225.055344 34212456.0 
241.050385 11167693.0 
245.045059 1200314.125 
269.045654 51122036.0 
285.248535 765762.625 
313.035767 57785268.0 
337.330017 23276.306641 
352.489075 800315.1875 
368.767975 23985.337891 
378.811951 639515.25 
386.392761 775900.375 
408.251556 23657.005859 
459.702515 668762.1875 
460.720917 987350.0 
463.547974 20570.28125 
525.124939 110774.085938 
539.861511 18905.583984 
END IONS

BEGIN IONS
RTINSECONDS=136.496002
CHARGE=1-
MSLEVEL=2
SMILES=Cc1cc(O)cc(O)c1C(=O)Oc1cc(O)c(C(=O)OC[C@@H](O)[C@@H](O)CO)c(C)c1
INCHI=InChI=1S/C20H22O10/c1-9-3-11(22)5-13(23)18(9)20(28)30-12-4-10(2)17(14(24)6-12)19(27)29-8-16(26)15(25)7-21/h3-6,15-16,21-26H,7-8H2,1-2H3/t15-,16+/m0/s1
INCHIKEY=BUBBEHCXSMCYNY-JKSUJKDBSA-N
CLASS=Depsides (Didepsides)
ADDUCT=[M+Cl]-
INSTRUMENT=Thermo Q-Exactive Focus
PRECURSOR_MZ=457.0901
COMPOUND_NAME=Erythrin
ION_MODE=negative
FORMULA=C20H22O10
59.879745 5835.120117 
68.137039 6488.941406 
91.983101 22573.652344 
105.033165 88931.210938 
123.043831 36274.101562 
149.023193 446553.9375 
152.51181 6894.411621 
167.033493 251595.390625 
182.478378 6456.137207 
184.567551 6365.163574 
196.453537 6250.272949 
233.119843 5826.054199 
252.988998 5914.543945 
261.098145 6268.429199 
271.082611 41453.675781 
329.025238 6061.209473 
340.627869 7349.697266 
355.400452 8226.486328 
358.44455 6523.95752 
367.129059 6575.781738 
410.364014 6420.237305 
420.527924 7027.964844 
421.11322 24649.837891 
END IONS

BEGIN IONS
RTINSECONDS=263.34201
CHARGE=1-
MSLEVEL=2
SMILES=CC12C(=O)C(=C(C=C1Oc1c2c(O)c(C)c(O)c1C(=O)C)O)C(=O)C
INCHI=InChI=1S/C18H16O7/c1-6-14(22)12(8(3)20)16-13(15(6)23)18(4)10(25-16)5-9(21)11(7(2)19)17(18)24/h5,21-23H,1-4H3
INCHIKEY=WEYVVCKOOFYHRW-UHFFFAOYSA-N
CLASS=Dibenzofuranes
ADDUCT=[M-H+CH3OH]-
INSTRUMENT=Thermo Q-Exactive Focus
PRECURSOR_MZ=375.108
COMPOUND_NAME=Usnic acid
ION_MODE=negative
FORMULA=C18H16O7
83.012413 1897515.0 
95.048813 267409.0 
139.0392 224305.53125 
179.033798 155357.8125 
180.042236 613419.5 
229.08696 284640.84375 
231.06601 1201934.125 
255.066162 1064209.5 
259.061646 947708.875 
286.049164 588016.875 
299.092896 2533234.75 
301.072266 1782121.25 
315.088898 483504.1875 
343.082794 2079896.125 
END IONS

BEGIN IONS
RTINSECONDS=183.746002
CHARGE=1-
MSLEVEL=2
SMILES=O=C1OC2=C(c3ccccc3)C(=O)OC2=C1c1ccccc1
INCHI=InChI=1S/C18H10O4/c19-17-13(11-7-3-1-4-8-11)15-16(22-17)14(18(20)21-15)12-9-5-2-6-10-12/h1-10H
INCHIKEY=KQTXUHHOWJUFOZ-UHFFFAOYSA-N
CLASS=Pulvinic Acid Derivatives
ADDUCT=[M-H+CH3OH]-
INSTRUMENT=Thermo Q-Exactive Focus
PRECURSOR_MZ=321.0763
COMPOUND_NAME=Pulvinic acid dilactone
ION_MODE=negative
FORMULA=C18H10O4
82.394287 462719.90625 
93.03347 5604435.5 
101.038597 12719609.0 
117.033607 25504982.0 
145.028824 114308.539062 
189.070312 1082113.375 
190.078583 21959914.0 
219.082108 3211601.0 
234.069885 35794584.0 
249.092545 75328848.0 
262.064209 21835352.0 
277.088501 2982813.25 
END IONS

BEGIN IONS
RTINSECONDS=280.669006
CHARGE=1-
MSLEVEL=2
SMILES=CCCc1cc(cc(c1C(=O)Oc1cc(c(c(c1)CCC)C(=O)O)O)O)OC
INCHI=InChI=1S/C21H24O7/c1-4-6-12-9-15(11-16(22)18(12)20(24)25)28-21(26)19-13(7-5-2)8-14(27-3)10-17(19)23/h8-11,22-23H,4-7H2,1-3H3,(H,24,25)
INCHIKEY=FSRDIJIAQPSMMR-UHFFFAOYSA-N
CLASS=Depsides (Didepsides)
ADDUCT=[2M-H]-
INSTRUMENT=Thermo Q-Exactive Focus
PRECURSOR_MZ=775.2966
COMPOUND_NAME=Divaricatic acid
ION_MODE=negative
FORMULA=C21H24O7
74.243065 97392.664062 
91.017509 201594.5625 
107.085396 165215.875 
109.440598 115151.859375 
133.064621 571297.3125 
151.075409 3373478.5 
160.511581 101191.8125 
177.054718 11533580.0 
195.065536 10203704.0 
215.973633 54561.957031 
232.436752 99242.539062 
241.848618 110751.921875 
243.515747 43345.476562 
291.42453 104487.742188 
299.165649 161694.21875 
356.416962 42673.246094 
366.118622 42408.3125 
387.144836 3645430.5 
387.195435 82692.976562 
395.662201 52879.023438 
403.059082 18174.339844 
468.549683 7510.640625 
492.929016 37687.347656 
514.933533 102123.5625 
515.233093 12954.675781 
595.39624 22295.476562 
601.866516 41152.476562 
675.859314 122312.484375 
700.882507 24976.982422 
738.163452 105327.296875 
754.699585 101414.054688 
791.317322 124420.75 
END IONS

BEGIN IONS
RTINSECONDS=201.356003
CHARGE=1-
MSLEVEL=2
SMILES=O=C(O)c1c(CCC)c(Cl)c(OC)cc1O
INCHI=InChI=1S/C11H13ClO4/c1-3-4-6-9(11(14)15)7(13)5-8(16-2)10(6)12/h5,13H,3-4H2,1-2H3,(H,14,15)
INCHIKEY=JRBWSDAHJPBRDM-UHFFFAOYSA-N
CLASS=Cleavage Products of Depsides and Depsidones
ADDUCT=[2M-2H+Na]-
INSTRUMENT=Thermo Q-Exactive Focus
PRECURSOR_MZ=509.0746
COMPOUND_NAME=5-Chlorodivaricatinic acid
ION_MODE=negative
FORMULA=C11H13ClO4
53.407547 81122.664062 
155.997742 618661.5625 
184.02916 6611904.5 
199.052856 9920573.0 
243.043121 6842358.5 
END IONS

BEGIN IONS
RTINSECONDS=205.317993
CHARGE=1-
MSLEVEL=2
SMILES=O=C(OC)/C(=C\1/OC(=O)C(=C1OC)c1ccccc1)/c1c(OC)cccc1
INCHI=InChI=1S/C21H18O6/c1-24-15-12-8-7-11-14(15)17(20(22)26-3)19-18(25-2)16(21(23)27-19)13-9-5-4-6-10-13/h4-12H,1-3H3/b19-17+
INCHIKEY=WGZKMINRLLRJPF-HTXNQAPBSA-N
CLASS=Pulvinic Acid Derivatives
ADDUCT=[M-H+CH3OH]-
INSTRUMENT=Thermo Q-Exactive Focus
PRECURSOR_MZ=397.1287
COMPOUND_NAME=Leprapinic acid methyl ether
ION_MODE=negative
FORMULA=C21H18O6
51.827461 10010.654297 
57.651657 8895.361328 
101.038574 129442.90625 
115.05471 15618.977539 
117.033737 27940.486328 
131.049347 13999.269531 
132.020996 39711.691406 
147.044449 65749.351562 
159.043228 12314.321289 
233.061386 54346.957031 
233.097534 29168.609375 
235.077286 32896.125 
263.072083 80845.929688 
264.079956 72060.421875 
291.067413 86507.835938 
292.075165 90314.492188 
307.098816 139030.84375 
333.077454 15491.200195 
351.089081 66991.226562 
END IONS

BEGIN IONS
RTINSECONDS=307.619995
CHARGE=1-
MSLEVEL=2
SMILES=CCCCCCCCCCCCCC[C@H](C(=O)O)[C@H](C(=O)O)CC(=O)O
INCHI=InChI=1S/C20H36O6/c1-2-3-4-5-6-7-8-9-10-11-12-13-14-16(19(23)24)17(20(25)26)15-18(21)22/h16-17H,2-15H2,1H3,(H,21,22)(H,23,24)(H,25,26)/t16-,17+/m0/s1
INCHIKEY=YBZIIVKQVVKTTD-DLBZAZTESA-N
CLASS=Acids
ADDUCT=[M-H-H2O]-
INSTRUMENT=Thermo Q-Exactive Focus
PRECURSOR_MZ=353.2328
COMPOUND_NAME=Norrangiformic acid
ION_MODE=negative
FORMULA=C20H36O6
59.012562 768423.1875 
71.01265 234097.875 
71.049034 302995.8125 
83.049118 97168.796875 
91.9823 57934.3125 
124.015442 51453.375 
249.222534 58304.140625 
255.233368 769548.6875 
265.254333 6578939.0 
267.233398 60084.433594 
293.213409 830672.3125 
309.244293 99017.078125 
END IONS

BEGIN IONS
RTINSECONDS=153.220993
CHARGE=1-
MSLEVEL=2
SMILES=O=C1c2c(C)cc(OC)c(C=O)c2Oc2c(O1)c(c(c1c2C(O)OC1=O)O)C
INCHI=InChI=1S/C19H14O9/c1-6-4-9(25-3)8(5-20)15-10(6)17(22)27-14-7(2)13(21)11-12(16(14)26-15)19(24)28-18(11)23/h4-5,19,21,24H,1-3H3
INCHIKEY=SKCUFZLDTAYNBZ-UHFFFAOYSA-N
CLASS=Depsidones
ADDUCT=[2M-H]-
INSTRUMENT=Thermo Q-Exactive Focus
PRECURSOR_MZ=771.1197
COMPOUND_NAME=Stictic acid
ION_MODE=negative
FORMULA=C19H14O9
55.017628 405127.90625 
61.509876 119703.375 
76.321266 114328.46875 
89.231812 127575.117188 
91.976181 289318.9375 
129.873398 146315.03125 
132.269272 135647.078125 
149.023575 496918.53125 
165.055038 202255.3125 
209.060272 616608.625 
210.068222 887939.625 
225.05542 675696.5625 
226.063599 1021915.5625 
238.063477 1167602.75 
254.058563 3637498.0 
267.029999 3958891.0 
282.053497 2101428.25 
297.07724 2149801.25 
332.430573 14652.300781 
341.066711 2123168.0 
381.713776 34405.253906 
385.056732 2702137.75 
385.915314 12768.775391 
396.905609 126083.296875 
413.050507 14075.917969 
460.737518 146811.15625 
467.24353 3460.406738 
496.60202 8290.425781 
529.779663 62618.429688 
550.276367 69429.390625 
569.528992 90113.539062 
576.326233 79675.507812 
596.687622 13848.338867 
618.283936 8966.195312 
628.944641 35447.039062 
793.343384 3948.151367 
END IONS

BEGIN IONS
RTINSECONDS=267.38501
CHARGE=1-
MSLEVEL=2
SMILES=CC(=O)CCCCCCCCCCCCCC1C(C(=C)C(=O)O1)C(=O)O
INCHI=InChI=1S/C21H34O5/c1-16(22)14-12-10-8-6-4-3-5-7-9-11-13-15-18-19(20(23)24)17(2)21(25)26-18/h18-19H,2-15H2,1H3,(H,23,24)
INCHIKEY=SKQHRBRVCRUFSX-UHFFFAOYSA-N
CLASS=Paraconic acids
ADDUCT=[M-H]-
INSTRUMENT=Thermo Q-Exactive Focus
PRECURSOR_MZ=365.2328
COMPOUND_NAME=Pertusaric acid
ION_MODE=negative
FORMULA=C21H34O5
57.033314 5586706.5 
69.033348 1837503.5 
112.525528 172074.25 
169.159378 710600.8125 
183.174545 847170.0625 
277.254395 36965328.0 
321.244537 30527852.0 
END IONS

BEGIN IONS
RTINSECONDS=217.837997
CHARGE=1-
MSLEVEL=2
SMILES=Cc1c(c(O)cc(O)c1)C(=O)Oc1cc(OC)c(C(=O)Oc2cc(O)c(C(=O)O)c(C)c2)c(C)c1
INCHI=InChI=1S/C25H22O10/c1-11-5-14(26)8-17(27)21(11)24(31)35-16-7-13(3)22(19(10-16)33-4)25(32)34-15-6-12(2)20(23(29)30)18(28)9-15/h5-10,26-28H,1-4H3,(H,29,30)
INCHIKEY=BXLGBRLDRRZQKR-UHFFFAOYSA-N
CLASS=Depsides (Tridepsides)
ADDUCT=[M-H]-
INSTRUMENT=Thermo Q-Exactive Focus
PRECURSOR_MZ=481.1135
COMPOUND_NAME=Ovoic acid
ION_MODE=negative
FORMULA=C25H22O10
79.053879 494405.0 
81.033073 789167.8125 
105.033424 5177380.5 
123.043968 9095826.0 
149.023376 86785960.0 
167.033752 39526748.0 
317.066742 1482928.875 
331.081757 6781943.5 
END IONS

BEGIN IONS
RTINSECONDS=95.375702
CHARGE=1-
MSLEVEL=2
SMILES=O=C(O)c1c(C)c(Cl)c(O)cc1O
INCHI=InChI=1S/C8H7ClO4/c1-3-6(8(12)13)4(10)2-5(11)7(3)9/h2,10-11H,1H3,(H,12,13)
INCHIKEY=GZQRFGTYUAPOOM-UHFFFAOYSA-N
CLASS=Cleavage Products of Depsides and Depsidones
ADDUCT=[2M-2H+Na]-
INSTRUMENT=Thermo Q-Exactive Focus
PRECURSOR_MZ=424.9807
COMPOUND_NAME=5-Chloroorsellinic acid
ION_MODE=negative
FORMULA=C8H7ClO4
72.402519 31716.806641 
81.228683 51749.394531 
91.979218 83115.242188 
93.033272 1329188.125 
121.028435 681725.5625 
136.533401 69586.648438 
157.005432 2197879.0 
200.995773 4286533.0 
END IONS

BEGIN IONS
RTINSECONDS=136.835007
CHARGE=1-
MSLEVEL=2
SMILES=Cc1cc(=O)c2c(c(c(cc2o1)O)C)O
INCHI=InChI=1S/C11H10O4/c1-5-3-8(13)10-9(15-5)4-7(12)6(2)11(10)14/h3-4,12,14H,1-2H3
INCHIKEY=HMAUJNAGOIPKDG-UHFFFAOYSA-N
CLASS=Chromanes and Chromones
ADDUCT=[2M-H]-
INSTRUMENT=Thermo Q-Exactive Focus
PRECURSOR_MZ=411.108
COMPOUND_NAME=Eugenitol
ION_MODE=negative
FORMULA=C11H10O4
58.025753 53228.960938 
60.417324 52627.109375 
64.836418 50512.796875 
81.032837 74991.765625 
100.336006 57950.296875 
119.048569 116953.953125 
137.291443 54987.328125 
161.059708 162415.4375 
163.039474 37353.277344 
205.049866 8231899.0 
225.78476 68279.085938 
228.448807 28969.052734 
250.664978 6400.078125 
270.112976 2876.159668 
289.396545 5044.191406 
301.252228 5069.375488 
325.554718 5175.919922 
330.861115 15867.805664 
333.450012 5280.646973 
352.348724 5481.95752 
386.391144 14202.503906 
393.806824 57189.371094 
END IONS

BEGIN IONS
RTINSECONDS=296.662994
CHARGE=1-
MSLEVEL=2
SMILES=CCCCCCCCCCCC1[C@H](C(=O)O)C(C)C(=O)O1
INCHI=InChI=1S/C17H30O4/c1-3-4-5-6-7-8-9-10-11-12-14-15(16(18)19)13(2)17(20)21-14/h13-15H,3-12H2,1-2H3,(H,18,19)/t13?,14?,15-/m1/s1
INCHIKEY=PKXAQFKGSXYQJX-YMAMQOFZSA-N
CLASS=Paraconic acids
ADDUCT=[M-H]-
INSTRUMENT=Thermo Q-Exactive Focus
PRECURSOR_MZ=297.2066
COMPOUND_NAME=Nephrosteranic acid
ION_MODE=negative
FORMULA=C17H30O4
69.033424 1709481.875 
91.977821 9947973.0 
113.023041 9348390.0 
253.217819 11537748.0 
END IONS

BEGIN IONS
RTINSECONDS=333.061005
CHARGE=1-
MSLEVEL=2
SMILES=CCCCCCCCCCCCC[C@H]1[C@H]([C@H](C(=O)O1)C)C(=O)O
INCHI=InChI=1S/C19H34O4/c1-3-4-5-6-7-8-9-10-11-12-13-14-16-17(18(20)21)15(2)19(22)23-16/h15-17H,3-14H2,1-2H3,(H,20,21)/t15-,16+,17+/m1/s1
INCHIKEY=WLGALFYTFVOQPY-IKGGRYGDSA-N
CLASS=Paraconic acids
ADDUCT=[2M-H]-
INSTRUMENT=Thermo Q-Exactive Focus
PRECURSOR_MZ=651.4836
COMPOUND_NAME=Nephromopsic acid
ION_MODE=negative
FORMULA=C19H34O4
69.03334 1635022.75 
91.982742 5412963.0 
113.023376 37077268.0 
281.249207 61012868.0 
281.277863 2888842.0 
325.239319 153280656.0 
END IONS

BEGIN IONS
RTINSECONDS=142.087997
CHARGE=1-
MSLEVEL=2
SMILES=[C@@H]1(CC(=O)N2[C@H](C(=O)N[C@H](CC(=O)N3[C@@H](C(=O)N1)CCC3)c1ccccc1)CCC2)c1ccccc1
INCHI=InChI=1S/C28H32N4O4/c33-25-17-21(19-9-3-1-4-10-19)29-27(35)23-13-7-16-32(23)26(34)18-22(20-11-5-2-6-12-20)30-28(36)24-14-8-15-31(24)25/h1-6,9-12,21-24H,7-8,13-18H2,(H,29,35)(H,30,36)/t21-,22-,23-,24+/m1/s1
INCHIKEY=PDLPVRYEPINIBU-YCAMKHIRSA-N
CLASS=N-Containing Compounds
ADDUCT=[M-H+HCOOH]-
INSTRUMENT=Thermo Q-Exactive Focus
PRECURSOR_MZ=533.24
COMPOUND_NAME=Roccanin
ION_MODE=negative
FORMULA=C28H32N4O4
98.362709 1416629.625 
100.225258 41731.875 
113.071129 3246116.5 
151.167343 40125.816406 
198.092361 4771600.0 
200.1082 4398270.0 
243.114212 66369556.0 
487.236877 17474578.0 
END IONS

BEGIN IONS
RTINSECONDS=187.669006
CHARGE=1-
MSLEVEL=2
SMILES=O=C1c2c(C)cc(O)c(C)c2Oc2c(O1)c(c(c(c2C)C(=O)O)O)C
INCHI=InChI=1S/C18H16O7/c1-6-5-10(19)7(2)14-11(6)18(23)25-16-9(4)13(20)12(17(21)22)8(3)15(16)24-14/h5,19-20H,1-4H3,(H,21,22)
INCHIKEY=CFPLLTGKDKZLIH-UHFFFAOYSA-N
CLASS=Depsidones
ADDUCT=[2M-2H+Na]-
INSTRUMENT=Thermo Q-Exactive Focus
PRECURSOR_MZ=709.1533
COMPOUND_NAME=Hypoprotocetraric acid
ION_MODE=negative
FORMULA=C18H16O7
57.618954 37200.089844 
67.964531 36837.730469 
69.008965 37481.902344 
91.054024 153839.734375 
102.887062 39490.414062 
119.049072 149631.765625 
119.862694 40501.027344 
137.05986 91562.804688 
149.059601 67476.8125 
163.03923 177169.625 
183.117279 71498.085938 
196.089066 100920.859375 
211.112656 126421.929688 
227.107681 369210.96875 
240.079193 184964.09375 
243.066177 315249.5 
255.102753 2286381.25 
281.082245 96747.578125 
299.092926 577033.5 
325.072998 79604.210938 
332.200287 41970.28125 
343.082733 1465683.875 
343.125183 75312.84375 
377.095795 11564.650391 
398.123962 9380.429688 
429.171844 31612.710938 
438.539581 21715.992188 
463.046509 15317.292969 
467.250061 38604.84375 
478.127838 19340.363281 
496.847198 42950.488281 
512.684387 8946.466797 
518.278198 32274.175781 
596.057922 41191.15625 
652.485474 8866.306641 
END IONS

BEGIN IONS
RTINSECONDS=201.494003
CHARGE=1-
MSLEVEL=2
SMILES=O=C1C(=C(O)/C(=C(/c2ccccc2)\C(=O)O)/O1)c1ccccc1
INCHI=InChI=1S/C18H12O5/c19-15-13(11-7-3-1-4-8-11)18(22)23-16(15)14(17(20)21)12-9-5-2-6-10-12/h1-10,19H,(H,20,21)/b16-14+
INCHIKEY=CMFBGFRHPQTELQ-JQIJEIRASA-N
CLASS=Pulvinic Acid Derivatives
ADDUCT=[M-H]-
INSTRUMENT=Thermo Q-Exactive Focus
PRECURSOR_MZ=307.0606
COMPOUND_NAME=Pulvinic acid
ION_MODE=negative
FORMULA=C18H12O5
53.411362 176998.90625 
57.213978 25922.113281 
101.038528 39058.984375 
117.033577 8930753.0 
191.086273 3155378.75 
219.081604 290154.53125 
263.072021 11235456.0 
END IONS

BEGIN IONS
RTINSECONDS=266.290985
CHARGE=1-
MSLEVEL=2
SMILES=CC(=O)CCCCCCCCCCCCC[C@@H]1OC(=O)C(=C)[C@@H]1C(=O)O
INCHI=InChI=1S/C21H34O5/c1-16(22)14-12-10-8-6-4-3-5-7-9-11-13-15-18-19(20(23)24)17(2)21(25)26-18/h18-19H,2-15H2,1H3,(H,23,24)/t18-,19-/m0/s1
INCHIKEY=SKQHRBRVCRUFSX-OALUTQOASA-N
CLASS=Paraconic acids
ADDUCT=[2M-2H+Na]-
INSTRUMENT=Thermo Q-Exactive Focus
PRECURSOR_MZ=753.4554
COMPOUND_NAME=allo-Pertusaric acid
ION_MODE=negative
FORMULA=C21H34O5
57.033306 203233.078125 
69.033409 65028.390625 
71.04892 50504.078125 
91.975639 51193.640625 
111.007828 33028.214844 
169.15947 62585.585938 
183.175232 29272.833984 
277.254242 2812402.0 
297.221069 83570.125 
299.236206 130463.40625 
321.244415 1150275.5 
343.226074 213987.953125 
365.234009 682137.6875 
387.217041 85350.890625 
665.477966 124615.03125 
709.467773 99154.390625 
END IONS

BEGIN IONS
RTINSECONDS=214.942993
CHARGE=1-
MSLEVEL=2
SMILES=Oc1c(Oc2cc(OC)cc3c2C(=O)OC3(O)CCCC)c(CCCCC)c(c(c1)O)C(=O)O
INCHI=InChI=1S/C25H30O9/c1-4-6-8-9-15-20(23(28)29)17(26)13-18(27)22(15)33-19-12-14(32-3)11-16-21(19)24(30)34-25(16,31)10-7-5-2/h11-13,26-27,31H,4-10H2,1-3H3,(H,28,29)
INCHIKEY=BWRBGHBJBQFFAW-UHFFFAOYSA-N
CLASS=Diphenylethers
ADDUCT=[M-H]-
INSTRUMENT=Thermo Q-Exactive Focus
PRECURSOR_MZ=473.1812
COMPOUND_NAME=Lobariolcarboxylic acid (Lobarin)
ION_MODE=negative
FORMULA=C25H30O9
91.980362 7696246.5 
108.020782 1060128.25 
122.036247 762313.875 
123.007805 2401391.0 
165.091385 2637193.0 
192.079163 3884640.25 
193.086853 4103359.25 
195.102798 2701214.25 
207.1026 18526192.0 
221.082077 14911756.0 
239.093719 2101802.75 
295.09729 134221.796875 
297.077576 2794105.0 
298.085663 1987828.625 
311.128723 671187.0 
312.101227 5639154.5 
327.125092 6827966.0 
351.162415 2668264.5 
367.192871 3659505.75 
383.186676 5601746.5 
385.203522 4650674.0 
411.182098 50702972.0 
429.194824 1817841.0 
455.172638 4496635.0 
END IONS

BEGIN IONS
RTINSECONDS=367.140015
CHARGE=1-
MSLEVEL=2
SMILES=COc1cc(O)c2c(C(=O)c3c(C2=O)c(O)c(C(=O)CCCCC)c(O)c3)c1
INCHI=InChI=1S/C21H20O7/c1-3-4-5-6-13(22)18-15(24)9-12-17(21(18)27)20(26)16-11(19(12)25)7-10(28-2)8-14(16)23/h7-9,23-24,27H,3-6H2,1-2H3
INCHIKEY=MLTVHORGISIISB-UHFFFAOYSA-N
CLASS=Quinones
ADDUCT=[M-H]-
INSTRUMENT=Thermo Q-Exactive Focus
PRECURSOR_MZ=383.1131
COMPOUND_NAME=Solorinic acid
ION_MODE=negative
FORMULA=C21H20O7
53.858425 71901.203125 
64.031677 5474.145996 
77.666748 3676.923096 
241.014313 13195.131836 
242.022903 137649.765625 
270.017761 1243526.125 
284.03363 401136.9375 
298.013885 223861.015625 
312.029633 161662.46875 
325.036469 1931302.0 
340.096893 236406.078125 
365.103027 166545.078125 
END IONS

BEGIN IONS
RTINSECONDS=269.154999
CHARGE=1-
MSLEVEL=2
SMILES=O=C1Oc2c(c(CC(=O)CCCCC)c(C(=O)O)c(O)c2)Oc2c1c(cc(c2)O)CC(=O)CCCCC
INCHI=InChI=1S/C28H32O9/c1-3-5-7-9-17(29)11-16-12-19(31)14-22-24(16)28(35)37-23-15-21(32)25(27(33)34)20(26(23)36-22)13-18(30)10-8-6-4-2/h12,14-15,31-32H,3-11,13H2,1-2H3,(H,33,34)
INCHIKEY=ZDIOCINAHISORH-UHFFFAOYSA-N
CLASS=Depsidones
ADDUCT=[2M-H]-
INSTRUMENT=Thermo Q-Exactive Focus
PRECURSOR_MZ=1023.4014
COMPOUND_NAME=Alpha-Alectoronic acid
ION_MODE=negative
FORMULA=C28H32O9
84.927841 483339.84375 
87.369942 510328.78125 
91.976898 705303.0625 
94.479767 524386.5625 
119.305183 509070.96875 
123.044029 1519982.625 
149.023453 1334686.375 
161.023209 494999.03125 
203.070663 1283757.125 
219.102661 3687464.0 
226.062973 1752948.5 
227.071228 3325965.0 
247.097519 8485704.0 
271.061401 3888101.25 
301.144897 6135472.5 
324.137115 3056715.5 
325.144897 8768253.0 
327.12439 5656399.0 
368.127167 8683141.0 
369.134613 23265484.0 
381.208221 2378752.25 
399.217377 2614332.5 
423.218506 8440237.0 
425.197662 12925746.0 
449.198059 2585227.25 
467.208038 52814684.0 
493.185486 583533.375 
511.197754 61585388.0 
531.576111 353184.25 
534.810791 382796.96875 
594.157593 13957.345703 
643.139771 48266.078125 
742.866577 637993.625 
743.00061 196139.015625 
747.634033 309373.71875 
786.512512 21774.029297 
835.581543 46055.414062 
854.31134 187132.265625 
866.671082 207673.15625 
912.011719 98218.132812 
935.076538 13288.470703 
975.700928 353898.34375 
1046.344482 15109.213867 
END IONS

BEGIN IONS
RTINSECONDS=193.552002
CHARGE=1-
MSLEVEL=2
SMILES=Cc1c(c(O)cc(O)c1)C(=O)Oc1cc(O)c(C(=O)Oc2c(C)c(C(=O)O)c(O)cc2O)c(C)c1
INCHI=InChI=1S/C24H20O11/c1-9-4-12(25)6-14(26)18(9)23(32)34-13-5-10(2)19(15(27)7-13)24(33)35-21-11(3)20(22(30)31)16(28)8-17(21)29/h4-8,25-29H,1-3H3,(H,30,31)
INCHIKEY=PXEWPVIKVBSHLU-UHFFFAOYSA-N
CLASS=Depsides (Tridepsides)
ADDUCT=[2M-H]-
INSTRUMENT=Thermo Q-Exactive Focus
PRECURSOR_MZ=967.1933
COMPOUND_NAME=Crustinic acid
ION_MODE=negative
FORMULA=C24H20O11
72.746078 122340.8125 
109.028236 457540.625 
121.028214 993138.4375 
137.023315 563156.125 
149.023392 1029578.5 
165.018265 24693170.0 
167.034164 1052826.25 
183.028976 13259315.0 
255.064575 184899.328125 
263.062592 68954.320312 
271.061096 250798.984375 
290.551178 183241.015625 
315.051758 714802.625 
317.06662 222619.5625 
333.061951 4097693.25 
369.98761 148490.9375 
398.478638 135811.375 
444.890045 73534.625 
465.07843 77159.679688 
483.094177 1503747.5 
484.214233 10823.135742 
566.954712 160423.21875 
604.487549 51994.988281 
612.956604 57663.890625 
618.634827 68984.21875 
839.462952 71867.054688 
END IONS

BEGIN IONS
RTINSECONDS=237.891006
CHARGE=1-
MSLEVEL=2
SMILES=O=c1oc(CCCCC)cc2c1c(cc(c2)O)O
INCHI=InChI=1S/C14H16O4/c1-2-3-4-5-11-7-9-6-10(15)8-12(16)13(9)14(17)18-11/h6-8,15-16H,2-5H2,1H3
INCHIKEY=FIMFRMRZGBUYMV-UHFFFAOYSA-N
CLASS=Cleavage Products of Depsides and Depsidones
ADDUCT=[M-H]-
INSTRUMENT=Thermo Q-Exactive Focus
PRECURSOR_MZ=247.097
COMPOUND_NAME=Olivetonide
ION_MODE=negative
FORMULA=C14H16O4
62.514107 1985486.125 
137.096146 3540483.0 
146.036484 14855515.0 
190.026642 132109072.0 
203.107925 5938407.0 
205.087311 4544145.5 
END IONS

BEGIN IONS
RTINSECONDS=255.289001
CHARGE=1-
MSLEVEL=2
SMILES=CCCCCC1=CC(=O)C=C(OC)C21C(=O)Oc1c2c(c(c(c1)O)C(=O)O)CCCCC
INCHI=InChI=1S/C25H30O7/c1-4-6-8-10-15-12-16(26)13-20(31-3)25(15)22-17(11-9-7-5-2)21(23(28)29)18(27)14-19(22)32-24(25)30/h12-14,27H,4-11H2,1-3H3,(H,28,29)
INCHIKEY=LOGCRVAWKCZXQM-UHFFFAOYSA-N
CLASS=Depsones
ADDUCT=[2M-H]-
INSTRUMENT=Thermo Q-Exactive Focus
PRECURSOR_MZ=883.3905
COMPOUND_NAME=Picrolichenic acid
ION_MODE=negative
FORMULA=C25H30O7
66.345909 114619.765625 
69.554283 85170.109375 
91.977058 387618.5 
122.036247 307167.4375 
164.084167 491842.90625 
191.107529 1380082.75 
205.086823 2756577.0 
218.095245 1561894.625 
267.102753 5266527.0 
268.11084 1550816.625 
281.118225 4236026.0 
282.126648 4070110.5 
283.098663 1903545.625 
296.143066 1666580.5 
338.18927 33929248.0 
353.213593 1854307.75 
382.178955 3299972.75 
397.202393 70267192.0 
441.192352 41615904.0 
END IONS

BEGIN IONS
RTINSECONDS=332.588013
CHARGE=1-
MSLEVEL=2
SMILES=O=C(O)C[C@@H]([C@H](CCCCCCCCCCCCCC)C(=O)O)C(=O)OC
INCHI=InChI=1S/C21H38O6/c1-3-4-5-6-7-8-9-10-11-12-13-14-15-17(20(24)25)18(16-19(22)23)21(26)27-2/h17-18H,3-16H2,1-2H3,(H,22,23)(H,24,25)/t17-,18-/m0/s1
INCHIKEY=MZWQZYDNVSKPPF-ROUUACIJSA-N
CLASS=Acids
ADDUCT=[M-H]-
INSTRUMENT=Thermo Q-Exactive Focus
PRECURSOR_MZ=385.259
COMPOUND_NAME=Isorangiformic acid
ION_MODE=negative
FORMULA=C21H38O6
57.033291 801835.3125 
59.012474 5666272.5 
71.012619 3566995.5 
71.048996 1908454.375 
83.04911 1067065.5 
115.003021 615295.6875 
124.01577 949044.625 
237.223007 377064.8125 
249.223373 1165620.5 
255.233475 3750728.5 
265.254303 53457908.0 
267.234711 1553688.5 
293.213165 8107061.0 
309.244202 4329647.5 
353.234344 32555890.0 
END IONS

BEGIN IONS
RTINSECONDS=253.556
CHARGE=1-
MSLEVEL=2
SMILES=CC(=O)CCCCCCCCCCCCC[C@@H]1C(C(C)C(=O)O1)C(=O)O
INCHI=InChI=1S/C21H36O5/c1-16(22)14-12-10-8-6-4-3-5-7-9-11-13-15-18-19(20(23)24)17(2)21(25)26-18/h17-19H,3-15H2,1-2H3,(H,23,24)/t17?,18-,19?/m1/s1
INCHIKEY=SPGPUDJMXMJNCU-JLAWEPINSA-N
CLASS=Paraconic acids
ADDUCT=[M-H+CH3OH]-
INSTRUMENT=Thermo Q-Exactive Focus
PRECURSOR_MZ=399.2747
COMPOUND_NAME=Dihydromuronic acid
ION_MODE=negative
FORMULA=C21H36O5
51.473763 16995.025391 
59.040527 17692.722656 
69.033081 94856.84375 
88.984612 18742.412109 
113.023209 580853.125 
127.348755 17703.015625 
179.094711 17518.869141 
208.746628 17163.125 
235.802536 19793.173828 
238.082764 4890.418457 
251.236389 5993.443359 
279.269226 260558.8125 
305.953644 18676.076172 
307.672913 2516.409424 
323.259277 86855.492188 
367.248322 124407.054688 
373.963318 2950.713135 
416.163879 19173.220703 
END IONS

BEGIN IONS
RTINSECONDS=346.604004
CHARGE=1-
MSLEVEL=2
SMILES=CCCCCCCCCCCCC[C@H]1C(=C(C(=O)O1)C)C(=O)O
INCHI=InChI=1S/C19H32O4/c1-3-4-5-6-7-8-9-10-11-12-13-14-16-17(18(20)21)15(2)19(22)23-16/h16H,3-14H2,1-2H3,(H,20,21)/t16-/m0/s1
INCHIKEY=SLQVVNFTCYVCPB-INIZCTEOSA-N
CLASS=Paraconic acids
ADDUCT=[2M-2H+Na]-
INSTRUMENT=Thermo Q-Exactive Focus
PRECURSOR_MZ=669.4342
COMPOUND_NAME=Lichesterinic acid
ION_MODE=negative
FORMULA=C19H32O4
61.759441 115299.007812 
63.049953 118411.65625 
76.839966 111311.171875 
76.869255 116252.84375 
82.393394 126772.828125 
91.981255 350974.4375 
135.18129 121576.328125 
137.548416 119788.453125 
162.623169 107381.726562 
200.975891 91074.78125 
220.815613 99431.179688 
227.570068 97184.367188 
255.633575 108203.0625 
273.748627 129468.90625 
279.233704 1252139.75 
322.215515 137438.421875 
323.223846 1480838.5 
335.60376 70291.742188 
336.701813 99310.632812 
363.217712 187085.875 
392.406982 39077.972656 
394.545929 8094.69873 
427.500366 7323.832031 
483.354187 6997.502441 
552.071289 123665.5625 
563.032532 38870.824219 
610.930359 7472.133301 
625.446533 210345.03125 
END IONS

BEGIN IONS
RTINSECONDS=287.105011
CHARGE=1-
MSLEVEL=2
SMILES=CCCCCc1c2c(cc(c1C(=O)O)O)oc1c2c(cc(c1)OC)CCC
INCHI=InChI=1S/C22H26O5/c1-4-6-7-9-15-20(22(24)25)16(23)12-18-21(15)19-13(8-5-2)10-14(26-3)11-17(19)27-18/h10-12,23H,4-9H2,1-3H3,(H,24,25)
INCHIKEY=IDZVZCQOFFSQMO-UHFFFAOYSA-N
CLASS=Dibenzofuranes
ADDUCT=[2M-2H+Na]-
INSTRUMENT=Thermo Q-Exactive Focus
PRECURSOR_MZ=761.3302
COMPOUND_NAME=Didymic acid
ION_MODE=negative
FORMULA=C22H26O5
67.364548 12459.295898 
70.113876 16069.378906 
70.814308 14563.652344 
90.461128 19665.060547 
91.979279 23568.5 
98.953781 13782.490234 
148.471115 20247.613281 
168.275848 21020.765625 
170.119431 17313.078125 
189.006638 20903.283203 
200.347916 20948.591797 
200.687454 19585.660156 
238.062881 31169.158203 
239.07103 25739.46875 
254.094879 52834.148438 
310.157898 3085361.75 
325.181366 660014.0 
325.219757 22468.396484 
363.123779 17099.222656 
368.164642 10431.045898 
369.171143 852768.0 
397.20752 10314.84375 
444.629303 9960.308594 
446.574097 9611.032227 
449.461761 10753.095703 
464.085358 10131.386719 
534.007996 14487.787109 
561.423279 3959.779053 
565.881226 3733.5 
612.913696 10791.395508 
625.787109 24440.978516 
627.797852 15389.481445 
END IONS

BEGIN IONS
RTINSECONDS=242.895996
CHARGE=1-
MSLEVEL=2
SMILES=CCCCCC(=O)Cc1cc(cc(c1C(=O)Oc1cc(c(c(c1)CC(=O)CCCCC)C(=O)O)OC)O)O
INCHI=InChI=1S/C29H36O9/c1-4-6-8-10-20(30)12-18-14-22(32)16-24(33)26(18)29(36)38-23-15-19(13-21(31)11-9-7-5-2)27(28(34)35)25(17-23)37-3/h14-17,32-33H,4-13H2,1-3H3,(H,34,35)
INCHIKEY=DGXLEDCXMIJNPJ-UHFFFAOYSA-N
CLASS=Depsides (Didepsides)
ADDUCT=[M-H]-
INSTRUMENT=Thermo Q-Exactive Focus
PRECURSOR_MZ=527.2281
COMPOUND_NAME=Arthoniaic acid
ION_MODE=negative
FORMULA=C29H36O9
63.022461 235472.140625 
81.032249 972222.1875 
91.977325 680108.875 
93.033157 701746.25 
105.033104 3187644.0 
123.043701 2597383.75 
137.059387 2104195.75 
146.036118 2545077.5 
149.023178 13944690.0 
150.026505 1066380.75 
167.033813 895515.375 
203.107056 641792.125 
221.117584 3268107.25 
235.133209 2172691.5 
247.097046 15213995.0 
248.100372 1472411.75 
265.107788 6369932.5 
279.123962 907889.875 
END IONS

BEGIN IONS
RTINSECONDS=201.815002
CHARGE=1-
MSLEVEL=2
SMILES=O=C(O)c1c(CCC)c(Cl)c(OC)cc1O
INCHI=InChI=1S/C11H13ClO4/c1-3-4-6-9(11(14)15)7(13)5-8(16-2)10(6)12/h5,13H,3-4H2,1-2H3,(H,14,15)
INCHIKEY=JRBWSDAHJPBRDM-UHFFFAOYSA-N
CLASS=Cleavage Products of Depsides and Depsidones
ADDUCT=[2M-H]-
INSTRUMENT=Thermo Q-Exactive Focus
PRECURSOR_MZ=487.0926
COMPOUND_NAME=5-Chlorodivaricatinic acid
ION_MODE=negative
FORMULA=C11H13ClO4
55.351925 62353.664062 
61.418724 63062.726562 
84.89933 73577.578125 
90.516586 66691.523438 
91.976227 143306.8125 
106.408699 67911.890625 
146.988052 28645.544922 
155.99765 707481.9375 
161.707474 76405.820312 
169.651596 27180.539062 
184.029037 5306866.5 
199.052841 6616170.5 
220.946381 18618.0625 
243.043091 3753325.0 
273.353485 25759.894531 
273.384216 16816.808594 
288.545837 18168.478516 
305.522461 61945.066406 
342.355103 27413.017578 
352.047485 69966.859375 
353.053528 8414.05957 
384.074554 72411.796875 
390.037842 8590.826172 
404.724396 7004.800781 
412.37204 9052.402344 
452.135986 7210.250488 
END IONS

BEGIN IONS
RTINSECONDS=135.235001
CHARGE=1-
MSLEVEL=2
SMILES=OC1=C(OC)C(=O)c2c(O)c3oc(C(=O)C)c(O)c3c(O)c2C1=O
INCHI=InChI=1S/C15H10O9/c1-3(16)13-11(21)6-7(17)4-5(9(19)14(6)24-13)10(20)15(23-2)12(22)8(4)18/h17,19,21-22H,1-2H3
INCHIKEY=ILUWXELFYCLFHQ-UHFFFAOYSA-N
CLASS=Quinones
ADDUCT=[M-H]-
INSTRUMENT=Thermo Q-Exactive Focus
PRECURSOR_MZ=333.0247
COMPOUND_NAME=Chiodectonic acid
ION_MODE=negative
FORMULA=C15H10O9
50.426914 4793.772949 
91.978134 321505.84375 
126.829796 123868.523438 
134.000259 270633.1875 
149.99527 1216479.5 
177.990891 89551.664062 
178.027206 101396.007812 
206.022766 164324.359375 
218.022568 28806.072266 
234.017487 426753.875 
261.004517 21814.439453 
262.012695 327383.96875 
289.000885 70986.734375 
290.007996 2441091.25 
END IONS

BEGIN IONS
RTINSECONDS=307.05899
CHARGE=1-
MSLEVEL=2
SMILES=Cc1c(c(C(=O)C)c(c2c1OC1=CC(=C(C(=O)C21C)C(=O)C)O)O)O
INCHI=InChI=1S/C18H16O7/c1-6-14(22)12(8(3)20)15(23)13-16(6)25-10-5-9(21)11(7(2)19)17(24)18(10,13)4/h5,21-23H,1-4H3
INCHIKEY=GRIDHCOCFJSWSY-UHFFFAOYSA-N
CLASS=Dibenzofuranes
ADDUCT=[2M-2H+Na]-
INSTRUMENT=Thermo Q-Exactive Focus
PRECURSOR_MZ=709.1533
COMPOUND_NAME=Isousnic acid
ION_MODE=negative
FORMULA=C18H16O7
83.012581 4793993.5 
91.981895 756884.4375 
117.488342 13151.46875 
140.115524 442361.78125 
231.066162 3405113.0 
255.066254 731077.5625 
259.061279 4642443.5 
299.093048 1282701.875 
301.072388 734221.5 
313.036163 3803422.5 
325.072571 483424.65625 
328.059448 48694960.0 
343.082855 24247840.0 
END IONS

BEGIN IONS
RTINSECONDS=221.932999
CHARGE=1-
MSLEVEL=2
SMILES=O=C(Oc1c(O)cc(CCCCC)c(C(=O)O)c1O)c1c(CCC)cc(OC)cc1OC
INCHI=InChI=1S/C24H30O8/c1-5-7-8-10-15-12-17(25)22(21(26)20(15)23(27)28)32-24(29)19-14(9-6-2)11-16(30-3)13-18(19)31-4/h11-13,25-26H,5-10H2,1-4H3,(H,27,28)
INCHIKEY=AAKHGLJWUOZNTQ-UHFFFAOYSA-N
CLASS=Depsides (Didepsides)
ADDUCT=[2M-H]-
INSTRUMENT=Thermo Q-Exactive Focus
PRECURSOR_MZ=891.3803
COMPOUND_NAME=Merochlorophaeic acid
ION_MODE=negative
FORMULA=C24H30O8
64.941086 13990.992188 
77.052986 13485.324219 
80.024925 10967.952148 
93.033218 35049.800781 
137.023117 28401.335938 
138.031082 172142.96875 
149.095978 21683.40625 
177.091003 45661.601562 
194.094101 382705.15625 
195.101822 1883274.125 
209.117691 122516.898438 
221.081772 65875.359375 
238.083786 153007.765625 
239.092224 60540.125 
253.107056 17521.5625 
305.452637 15984.725586 
310.158997 15372.311523 
318.102448 13998.629883 
325.181885 25394.439453 
327.154053 9760.732422 
369.171356 42329.007812 
385.449738 17403.125 
401.196899 51047.910156 
427.175323 16136.113281 
433.78656 9932.365234 
445.186737 1558529.5 
474.305176 10908.330078 
479.309906 9338.018555 
487.475555 9555.733398 
END IONS

BEGIN IONS
RTINSECONDS=278.071014
CHARGE=1-
MSLEVEL=2
SMILES=CC(=O)CCCCCCCCCCCCC[C@H]1OC(=O)C(=C1C(=O)O)C
INCHI=InChI=1S/C21H34O5/c1-16(22)14-12-10-8-6-4-3-5-7-9-11-13-15-18-19(20(23)24)17(2)21(25)26-18/h18H,3-15H2,1-2H3,(H,23,24)/t18-/m1/s1
INCHIKEY=KYSXDEQQOVVLIN-GOSISDBHSA-N
CLASS=Paraconic acids
ADDUCT=[2M-2H+Na]-
INSTRUMENT=Thermo Q-Exactive Focus
PRECURSOR_MZ=753.4554
COMPOUND_NAME=Isomuronic acid
ION_MODE=negative
FORMULA=C21H34O5
57.03336 268768.9375 
69.033424 86516.875 
71.049126 63360.679688 
91.983376 111869.320312 
128.005127 59072.292969 
134.535828 63951.867188 
169.159729 91550.382812 
177.395309 54349.292969 
178.903595 45685.597656 
183.174866 57100.316406 
214.838058 57142.035156 
235.709518 38619.101562 
249.146439 39112.984375 
256.086548 39948.824219 
277.254364 3970294.75 
297.221741 108634.335938 
299.236359 157778.296875 
317.247498 78694.34375 
321.244537 824819.75 
365.234253 1037006.3125 
387.217133 147669.71875 
388.240051 57165.890625 
422.243561 39432.933594 
438.935547 44564.664062 
457.353546 54587.191406 
521.748779 31243.46875 
523.914856 15648.533203 
536.829102 26626.449219 
593.935913 63264.023438 
622.853638 3512.537109 
648.620239 46060.625 
672.353699 18330.572266 
685.764038 35222.71875 
712.853821 9124.318359 
777.884949 28476.447266 
END IONS

BEGIN IONS
RTINSECONDS=251.035004
CHARGE=1-
MSLEVEL=2
SMILES=O=C1c2c(C(=O)CCCC)cc(OC)cc2Oc2c(O1)cc(c(c2CCCCC)C(=O)O)O
INCHI=InChI=1S/C25H28O8/c1-4-6-8-9-15-21(24(28)29)18(27)13-20-23(15)32-19-12-14(31-3)11-16(17(26)10-7-5-2)22(19)25(30)33-20/h11-13,27H,4-10H2,1-3H3,(H,28,29)
INCHIKEY=JHEWMLHQNRHTQX-UHFFFAOYSA-N
CLASS=Depsidones
ADDUCT=[M-H+CH3OH]-
INSTRUMENT=Thermo Q-Exactive Focus
PRECURSOR_MZ=487.1968
COMPOUND_NAME=Lobaric acid
ION_MODE=negative
FORMULA=C25H28O8
50.409927 176780.546875 
71.121239 43300.738281 
122.03624 235227.453125 
133.100998 1292976.0 
153.09137 716246.5 
165.091003 2999139.25 
193.086319 8413596.0 
194.094269 819698.0625 
233.081177 1100006.25 
249.114136 473758.625 
265.108185 6926569.0 
281.082184 597442.0625 
295.098297 556803.875 
296.10498 428119.96875 
309.113434 2080079.875 
352.16861 1186821.625 
367.191681 2749857.75 
369.170563 388769.9375 
411.180847 1710413.375 
443.207733 807825.9375 
END IONS

BEGIN IONS
RTINSECONDS=269.619995
CHARGE=1-
MSLEVEL=2
SMILES=O=C1Oc2c(c(CC(=O)CCCCC)c(C(=O)O)c(O)c2)Oc2c1c(cc(c2)O)CC(=O)CCCCC
INCHI=InChI=1S/C28H32O9/c1-3-5-7-9-17(29)11-16-12-19(31)14-22-24(16)28(35)37-23-15-21(32)25(27(33)34)20(26(23)36-22)13-18(30)10-8-6-4-2/h12,14-15,31-32H,3-11,13H2,1-2H3,(H,33,34)
INCHIKEY=ZDIOCINAHISORH-UHFFFAOYSA-N
CLASS=Depsidones
ADDUCT=[2M-2H+Na]-
INSTRUMENT=Thermo Q-Exactive Focus
PRECURSOR_MZ=1045.3834
COMPOUND_NAME=Alpha-Alectoronic acid
ION_MODE=negative
FORMULA=C28H32O9
91.981361 23425.226562 
97.303467 12374.039062 
105.642845 10984.527344 
123.04409 18748.964844 
159.527802 14111.054688 
163.072159 12063.869141 
163.887405 13578.647461 
203.070877 27015.699219 
219.102661 51099.707031 
226.063416 30148.771484 
227.071335 34885.921875 
247.097336 91526.773438 
271.061554 61048.0625 
301.145599 82858.929688 
324.13736 28989.546875 
325.144531 96496.882812 
327.12442 62710.949219 
368.126282 103532.875 
369.13501 248412.640625 
381.207123 27189.082031 
399.217987 34282.46875 
423.21817 103753.601562 
425.197754 157036.421875 
449.197662 32651.708984 
451.841644 13938.0625 
467.207825 595466.875 
493.186523 12921.889648 
511.19751 222458.828125 
515.182434 4935.287109 
570.582031 5406.854492 
614.26416 5469.26709 
615.320618 15226.269531 
630.637939 12404.774414 
636.90802 12637.197266 
847.017883 11992.106445 
868.918396 12125.564453 
951.91095 12077.086914 
955.08844 12808.737305 
1024.105835 12032.984375 
1024.339355 12510.701172 
END IONS

BEGIN IONS
RTINSECONDS=291.178009
CHARGE=1-
MSLEVEL=2
SMILES=CCCCCc1cc(cc(c1C(=O)O)OC)OC(=O)c1c(cc(cc1CC(=O)CCCCC)OC)O
INCHI=InChI=1S/C28H36O8/c1-5-7-9-11-18-14-22(17-24(35-4)26(18)27(31)32)36-28(33)25-19(13-20(29)12-10-8-6-2)15-21(34-3)16-23(25)30/h14-17,30H,5-13H2,1-4H3,(H,31,32)
INCHIKEY=UANVCGQMNRTKGM-UHFFFAOYSA-N
CLASS=Depsides (Didepsides)
ADDUCT=[M-H+HCOOH]-
INSTRUMENT=Thermo Q-Exactive Focus
PRECURSOR_MZ=545.2387
COMPOUND_NAME=Confluentic acid
ION_MODE=negative
FORMULA=C28H36O8
55.833969 68575.320312 
61.578835 3490.549316 
68.306709 25726.357422 
91.983437 211589.0625 
100.724617 25700.941406 
122.036232 554610.3125 
178.099686 940625.8125 
193.123001 6512694.5 
237.113251 2900388.5 
237.136337 150851.96875 
255.103241 97732.632812 
261.114166 170236.359375 
298.158447 213361.84375 
313.182587 212196.234375 
345.170685 9222.960938 
411.256805 149395.609375 
END IONS

BEGIN IONS
RTINSECONDS=315.756012
CHARGE=1-
MSLEVEL=2
SMILES=O=C1c2c(CCCCC)cc(OC)c(OC)c2Oc2c(O1)cc(c(c2CCCCC)C(=O)O)O
INCHI=InChI=1S/C26H32O8/c1-5-7-9-11-15-13-18(31-3)23(32-4)24-20(15)26(30)33-19-14-17(27)21(25(28)29)16(22(19)34-24)12-10-8-6-2/h13-14,27H,5-12H2,1-4H3,(H,28,29)
INCHIKEY=GHBZVNHEVHMKOB-UHFFFAOYSA-N
CLASS=Depsidones
ADDUCT=[2M-2H+Na]-
INSTRUMENT=Thermo Q-Exactive Focus
PRECURSOR_MZ=965.3936
COMPOUND_NAME=3-Methoxycolensoic acid
ION_MODE=negative
FORMULA=C26H32O8
67.683189 13765.279297 
85.243538 16889.84375 
91.975937 26592.347656 
97.458824 15026.068359 
109.406296 15928.552734 
133.101364 422781.3125 
177.091782 26456.021484 
194.094162 18207.712891 
209.11853 27061.896484 
220.073883 30455.201172 
233.082687 22729.474609 
235.097092 38050.644531 
296.106049 55574.96875 
297.1138 53390.933594 
310.121368 133466.40625 
325.145569 248698.53125 
329.176392 64788.699219 
353.176239 757985.25 
368.199371 289792.84375 
383.222931 732794.4375 
385.202362 356955.71875 
397.166321 93335.328125 
412.190674 41268.621094 
427.212952 587646.5 
453.192932 33796.621094 
471.20282 689813.25 
475.923462 10905.511719 
476.18631 10970.019531 
479.591888 12400.797852 
529.026367 15487.507812 
575.515686 11125.015625 
583.321533 22758.699219 
657.155579 15994.367188 
719.064514 17289.974609 
771.1521 11676.123047 
END IONS

BEGIN IONS
RTINSECONDS=322.690002
CHARGE=1-
MSLEVEL=2
SMILES=CC(C)C[C@@H](C(=O)OC)NC(=O)/C(=C\1/C(=C(C(=O)O1)c1ccccc1)O)/c1ccccc1
INCHI=InChI=1S/C25H25NO6/c1-15(2)14-18(24(29)31-3)26-23(28)20(17-12-8-5-9-13-17)22-21(27)19(25(30)32-22)16-10-6-4-7-11-16/h4-13,15,18,27H,14H2,1-3H3,(H,26,28)/b22-20-/t18-/m0/s1
INCHIKEY=IBSRGCBHIASQMQ-BKBKCADHSA-N
CLASS=Pulvinic Acid Derivatives
ADDUCT=[2M-2H+Na]-
INSTRUMENT=Thermo Q-Exactive Focus
PRECURSOR_MZ=891.3105
COMPOUND_NAME=Epanorin
ION_MODE=negative
FORMULA=C25H25NO6
84.779434 13100.970703 
90.141594 15699.956055 
91.983177 13591.59668 
93.366867 16661.001953 
117.033592 372406.6875 
131.115677 13986.048828 
170.206604 13754.908203 
191.086365 261665.859375 
203.785782 14981.073242 
210.611816 12553.861328 
228.504623 14083.546875 
234.06813 14721.164062 
262.06424 13658.834961 
263.072021 2656867.25 
285.31369 8148.854004 
301.075317 159160.5625 
314.156677 9298.758789 
358.145569 30637.0625 
361.837921 11450.089844 
379.768127 16051.553711 
398.184967 16154.963867 
432.568634 13282.191406 
434.162201 930136.125 
440.853241 14480.240234 
481.218018 9001.166016 
507.230103 12721.001953 
530.196899 7945.025391 
541.585205 17334.429688 
543.67572 10522.890625 
553.047791 16335.569336 
607.185852 12169.994141 
623.506958 4906.307617 
652.961243 9269.40332 
673.535889 5490.449707 
703.670105 11055.138672 
755.809509 8104.82373 
758.010803 11127.063477 
759.162903 13279.692383 
764.151672 5623.148926 
781.802246 5866.625 
783.108459 4516.851074 
END IONS

BEGIN IONS
RTINSECONDS=289.45401
CHARGE=1-
MSLEVEL=2
SMILES=O=C1c2c(C(=O)CCCC)cc(OC)cc2Oc2c(O1)cc(c(c2CCCCC)C(=O)O)O
INCHI=InChI=1S/C25H28O8/c1-4-6-8-9-15-21(24(28)29)18(27)13-20-23(15)32-19-12-14(31-3)11-16(17(26)10-7-5-2)22(19)25(30)33-20/h11-13,27H,4-10H2,1-3H3,(H,28,29)
INCHIKEY=JHEWMLHQNRHTQX-UHFFFAOYSA-N
CLASS=Depsidones
ADDUCT=[2M-2H+Na]-
INSTRUMENT=Thermo Q-Exactive Focus
PRECURSOR_MZ=933.331
COMPOUND_NAME=Lobaric acid
ION_MODE=negative
FORMULA=C25H28O8
83.012398 15089.78418 
91.976547 21561.070312 
133.100754 104010.65625 
191.034454 16306.242188 
233.081558 38364.421875 
267.102905 52907.433594 
281.082123 663890.25 
295.098022 207820.90625 
296.106018 177546.09375 
298.085114 56469.457031 
309.113586 264122.15625 
352.168396 374463.4375 
354.147919 63271.308594 
367.191589 622762.25 
369.170746 211369.59375 
384.157715 58835.085938 
411.181427 497247.34375 
455.17157 562478.8125 
END IONS

BEGIN IONS
RTINSECONDS=104.463997
CHARGE=1-
MSLEVEL=2
SMILES=COc1cc(c2c(c1)C(=O)c1cc(cc(c1C2=O)O)CO)O
INCHI=InChI=1S/C16H12O6/c1-22-8-4-10-14(12(19)5-8)16(21)13-9(15(10)20)2-7(6-17)3-11(13)18/h2-5,17-19H,6H2,1H3
INCHIKEY=WJXSYUJKJSOJOG-UHFFFAOYSA-N
CLASS=Quinones
ADDUCT=[M-H]-
INSTRUMENT=Thermo Q-Exactive Focus
PRECURSOR_MZ=299.0556
COMPOUND_NAME=Fallacinol (Teloschistin)
ION_MODE=negative
FORMULA=C16H12O6
69.576744 11965.067383 
182.036819 23575.216797 
183.044922 37933.148438 
197.024414 24539.976562 
211.040466 51875.761719 
212.047867 240235.453125 
227.034988 28605.306641 
255.030685 42476.839844 
256.038269 163414.875 
END IONS

BEGIN IONS
RTINSECONDS=280.687988
CHARGE=1-
MSLEVEL=2
SMILES=O=C1O/C(=C(/C(=O)N[C@H](C(=O)O)Cc2ccccc2)\c2ccccc2)/C(=C1c1ccccc1)O
INCHI=InChI=1S/C27H21NO6/c29-23-21(18-12-6-2-7-13-18)27(33)34-24(23)22(19-14-8-3-9-15-19)25(30)28-20(26(31)32)16-17-10-4-1-5-11-17/h1-15,20,29H,16H2,(H,28,30)(H,31,32)/b24-22+/t20-/m0/s1
INCHIKEY=XTLHEUFWRQKNNG-YVURAWIMSA-N
CLASS=Pulvinic Acid Derivatives
ADDUCT=[M-H]-
INSTRUMENT=Thermo Q-Exactive Focus
PRECURSOR_MZ=454.1291
COMPOUND_NAME=Norrhizocarpic acid
ION_MODE=negative
FORMULA=C27H21NO6
51.545422 1528091.5 
62.602814 935290.9375 
91.980774 4204108.5 
117.033554 63582588.0 
147.044006 1360730.375 
157.053589 3243127.25 
164.071518 4267940.0 
184.039795 5785170.0 
191.08638 26391062.0 
234.068741 2523511.0 
248.10907 5401751.0 
263.072052 204361360.0 
274.089691 2516965.5 
275.096161 10170989.0 
366.151367 3356315.25 
410.141052 17963494.0 
END IONS

BEGIN IONS
RTINSECONDS=189.235992
CHARGE=1-
MSLEVEL=2
SMILES=O=C1c2c(C)cc(OC)c(C)c2Oc2c(O1)cc(c(c2C)C(=O)O)O
INCHI=InChI=1S/C18H16O7/c1-7-5-11(23-4)8(2)16-13(7)18(22)24-12-6-10(19)14(17(20)21)9(3)15(12)25-16/h5-6,19H,1-4H3,(H,20,21)
INCHIKEY=IXEVSIMCIWOSQO-UHFFFAOYSA-N
CLASS=Depsidones
ADDUCT=[2M-2H+Na]-
INSTRUMENT=Thermo Q-Exactive Focus
PRECURSOR_MZ=709.1533
COMPOUND_NAME=Notatic acid
ION_MODE=negative
FORMULA=C18H16O7
79.053825 34769.972656 
91.053925 166428.53125 
91.979492 27895.105469 
119.049126 126908.210938 
137.059601 81935.429688 
163.039215 193068.875 
197.060425 132700.84375 
227.107483 384000.9375 
231.102142 146964.0 
240.078964 2166686.5 
243.06633 345926.125 
255.10257 1753053.875 
257.081909 380476.46875 
299.092499 460095.0 
325.072479 34171.460938 
343.08255 1016375.4375 
END IONS

BEGIN IONS
RTINSECONDS=233.25
CHARGE=1-
MSLEVEL=2
SMILES=O=C1c2c(CC(=O)CCCCC)cc(O)c(O)c2Oc2c(O1)cc(c(c2CCCCC)C(=O)O)O
INCHI=InChI=1S/C26H30O9/c1-3-5-7-9-15(27)11-14-12-18(29)22(30)24-20(14)26(33)34-19-13-17(28)21(25(31)32)16(23(19)35-24)10-8-6-4-2/h12-13,28-30H,3-11H2,1-2H3,(H,31,32)
INCHIKEY=BQHHNAPTXQOPBW-UHFFFAOYSA-N
CLASS=Depsidones
ADDUCT=[2M-H]-
INSTRUMENT=Thermo Q-Exactive Focus
PRECURSOR_MZ=971.3701
COMPOUND_NAME=3-Hydroxyphysodic acid
ION_MODE=negative
FORMULA=C26H30O9
78.959297 826311.625 
83.06321 829557.6875 
91.97657 1486925.125 
109.028351 2908048.25 
137.023758 21469086.0 
137.096039 1957106.25 
179.10704 12975709.0 
205.086578 7996744.5 
207.102371 8783072.0 
223.097305 8305861.0 
233.08165 9934321.0 
235.09729 52604800.0 
261.076996 21968834.0 
277.108246 10856161.0 
300.100952 6276364.0 
328.095917 5947463.0 
342.111389 3022505.25 
371.187714 2608522.25 
373.202332 13670817.0 
397.202332 15507933.0 
399.181549 64040424.0 
423.181427 19375468.0 
441.192352 48911280.0 
467.171112 4264897.0 
485.182037 41644892.0 
498.759277 258082.203125 
511.769379 17507.669922 
545.228333 8437.887695 
566.701355 5253.876953 
643.186768 296352.46875 
651.604858 31774.744141 
685.359741 8938.341797 
686.58136 7590.679688 
693.997559 5779.649414 
718.05011 172474.71875 
906.525024 144790.6875 
939.282288 4486.342773 
939.991699 4878.995605 
989.83374 131551.265625 
1005.680298 31785.378906 
END IONS

BEGIN IONS
RTINSECONDS=235.362
CHARGE=1-
MSLEVEL=2
SMILES=Oc1cc(OC)cc(CCCCC)c1C(=O)O
INCHI=InChI=1S/C13H18O4/c1-3-4-5-6-9-7-10(17-2)8-11(14)12(9)13(15)16/h7-8,14H,3-6H2,1-2H3,(H,15,16)
INCHIKEY=JWSADSZPLGCVPA-UHFFFAOYSA-N
CLASS=Cleavage Products of Depsides and Depsidones
ADDUCT=[M-H]-
INSTRUMENT=Thermo Q-Exactive Focus
PRECURSOR_MZ=237.1127
COMPOUND_NAME=4-O-methylolivetolcarboxylic acid
ION_MODE=negative
FORMULA=C13H18O4
122.036339 172606384.0 
135.044281 17395822.0 
136.052002 10816642.0 
149.060089 6460398.5 
178.099411 149159456.0 
193.123077 274953728.0 
END IONS

BEGIN IONS
RTINSECONDS=287.71701
CHARGE=1-
MSLEVEL=2
SMILES=CCCCCc1c2c(cc(c1C(=O)O)O)oc1c2c(cc(c1)OC)CCC
INCHI=InChI=1S/C22H26O5/c1-4-6-7-9-15-20(22(24)25)16(23)12-18-21(15)19-13(8-5-2)10-14(26-3)11-17(19)27-18/h10-12,23H,4-9H2,1-3H3,(H,24,25)
INCHIKEY=IDZVZCQOFFSQMO-UHFFFAOYSA-N
CLASS=Dibenzofuranes
ADDUCT=[2M-H]-
INSTRUMENT=Thermo Q-Exactive Focus
PRECURSOR_MZ=739.3482
COMPOUND_NAME=Didymic acid
ION_MODE=negative
FORMULA=C22H26O5
69.824265 133526.328125 
70.647156 125481.046875 
70.853554 149222.953125 
71.532173 156186.109375 
82.980392 50293.585938 
91.979034 51898.519531 
130.646957 47288.765625 
146.721222 46073.585938 
177.951996 44837.292969 
225.054474 45100.070312 
238.063797 516268.125 
239.071747 289125.75 
253.086777 59353.496094 
254.094849 510569.0 
282.127289 188408.796875 
310.15799 23276182.0 
319.463013 169971.4375 
325.181305 4212427.0 
354.146545 44806.132812 
369.171112 7432000.0 
375.078369 52584.886719 
479.867462 26576.15625 
502.253723 7241.889648 
542.670349 46084.925781 
551.888794 36311.253906 
556.31488 51231.632812 
614.933838 25580.666016 
623.546082 52066.085938 
636.340637 368285.84375 
647.871521 7716.07666 
651.102539 8601.697266 
651.361023 140244.0 
END IONS

BEGIN IONS
RTINSECONDS=332.175995
CHARGE=1-
MSLEVEL=2
SMILES=CC[C@@H](C)C[C@@H](C)[C@@H]([C@H](C)C(=O)O[C@@H]([C@H](C)C[C@H](C)CC)[C@H](C)C(=O)O)O
INCHI=InChI=1S/C22H42O5/c1-9-13(3)11-15(5)19(23)17(7)22(26)27-20(18(8)21(24)25)16(6)12-14(4)10-2/h13-20,23H,9-12H2,1-8H3,(H,24,25)/t13-,14-,15-,16-,17+,18+,19+,20+/m1/s1
INCHIKEY=ZQEUMOKDJCSNHB-IHRHECOVSA-N
CLASS=Acids
ADDUCT=[M+Cl]-
INSTRUMENT=Thermo Q-Exactive Focus
PRECURSOR_MZ=421.2721
COMPOUND_NAME=Bourgeanic acid
ION_MODE=negative
FORMULA=C22H42O5
57.980911 5459.675293 
59.297543 5207.315918 
73.02803 185194.484375 
80.963661 13635.114258 
92.757126 5946.986816 
115.697548 6323.884277 
135.169876 5318.313965 
166.258224 5291.219238 
174.73085 6533.979004 
201.148636 223518.453125 
203.601425 5516.966309 
215.733551 5753.651367 
217.355408 5740.691895 
240.884567 5677.984863 
257.727875 5781.388184 
262.444489 6356.976562 
281.266357 5518.163574 
291.230347 5515.717773 
338.335327 6032.012207 
346.666138 5753.254883 
350.572571 5936.760742 
357.157288 5839.75293 
385.291016 5836.393555 
401.405487 6416.681641 
END IONS

BEGIN IONS
RTINSECONDS=331.217987
CHARGE=1-
MSLEVEL=2
SMILES=CC[C@@H](C)C[C@@H](C)[C@@H]([C@H](C)C(=O)O[C@@H]([C@H](C)C[C@H](C)CC)[C@H](C)C(=O)O)O
INCHI=InChI=1S/C22H42O5/c1-9-13(3)11-15(5)19(23)17(7)22(26)27-20(18(8)21(24)25)16(6)12-14(4)10-2/h13-20,23H,9-12H2,1-8H3,(H,24,25)/t13-,14-,15-,16-,17+,18+,19+,20+/m1/s1
INCHIKEY=ZQEUMOKDJCSNHB-IHRHECOVSA-N
CLASS=Acids
ADDUCT=[2M-2H+Na]-
INSTRUMENT=Thermo Q-Exactive Focus
PRECURSOR_MZ=793.5806
COMPOUND_NAME=Bourgeanic acid
ION_MODE=negative
FORMULA=C22H42O5
63.425072 35983.363281 
70.054314 35084.230469 
73.027939 2570825.0 
76.203674 36848.984375 
102.429085 37428.113281 
103.353882 43714.761719 
147.423706 37979.441406 
156.469284 33535.878906 
158.963074 36824.492188 
172.94783 38764.898438 
201.148682 3003467.75 
241.141525 286814.6875 
241.947601 41565.859375 
279.158081 110796.25 
285.131317 49791.691406 
294.391144 30647.222656 
297.168335 110104.320312 
324.860535 34495.578125 
352.33847 44323.453125 
364.62204 26265.792969 
365.915253 10434.813477 
388.713318 35539.84375 
425.288666 396410.59375 
436.287262 11156.816406 
443.973541 9420.34668 
457.557159 13536.302734 
539.484192 9254.061523 
549.43689 14479.610352 
609.434998 344780.15625 
609.823914 46160.03125 
632.597534 15201.235352 
653.347778 31332.78125 
775.490479 15481.352539 
END IONS

BEGIN IONS
RTINSECONDS=275.825012
CHARGE=1-
MSLEVEL=2
SMILES=CC(=O)CCCCCCCCCCCCC[C@@H]1C(C(=O)O)C(=C)C(=O)O1
INCHI=InChI=1S/C21H34O5/c1-16(22)14-12-10-8-6-4-3-5-7-9-11-13-15-18-19(20(23)24)17(2)21(25)26-18/h18-19H,2-15H2,1H3,(H,23,24)/t18-,19?/m1/s1
INCHIKEY=SKQHRBRVCRUFSX-MRTLOADZSA-N
CLASS=Paraconic acids
ADDUCT=[2M-H]-
INSTRUMENT=Thermo Q-Exactive Focus
PRECURSOR_MZ=731.4734
COMPOUND_NAME=Muronic acid
ION_MODE=negative
FORMULA=C21H34O5
53.386272 1189324.625 
57.033379 6660861.0 
60.529278 1286042.375 
69.033363 1924715.25 
70.036514 1372643.125 
124.391937 1202617.0 
146.91478 1400653.0 
159.739868 1143854.625 
169.159622 2860839.75 
198.529373 1229191.125 
215.405151 1493619.875 
219.50528 1124284.5 
229.797791 1257616.125 
230.546768 1348835.875 
277.254333 52703992.0 
294.504608 798694.4375 
298.587555 789441.25 
321.244568 91287016.0 
321.283051 842824.8125 
365.234558 24400258.0 
373.695648 24056.804688 
375.639771 1467992.125 
376.6026 23964.658203 
408.735107 96831.726562 
411.294342 13449.09375 
465.740265 464873.5 
479.352356 101912.117188 
525.606018 1440583.0 
541.878296 26175.259766 
556.303406 1168976.5 
569.500366 21965.835938 
583.876526 845403.875 
637.330078 14266.09668 
637.864319 8645.572266 
649.808411 262735.9375 
693.980835 1727650.5 
751.078125 13571.318359 
END IONS

BEGIN IONS
RTINSECONDS=195.649994
CHARGE=1-
MSLEVEL=2
SMILES=O=C1c2c(C)cc(O)c(C=O)c2Oc2c(O1)c(c(c(c2C)C(=O)O)O)COC(=O)C
INCHI=InChI=1S/C20H16O10/c1-7-4-12(23)10(5-21)17-13(7)20(27)30-18-11(6-28-9(3)22)15(24)14(19(25)26)8(2)16(18)29-17/h4-5,23-24H,6H2,1-3H3,(H,25,26)
INCHIKEY=SKXNIRUDASOCCN-UHFFFAOYSA-N
CLASS=Depsidones
ADDUCT=[M-H]-
INSTRUMENT=Thermo Q-Exactive Focus
PRECURSOR_MZ=415.0665
COMPOUND_NAME=Physodalic acid
ION_MODE=negative
FORMULA=C20H16O10
59.012531 3475818.5 
68.996796 21061414.0 
91.982269 3772442.25 
149.023773 2978731.0 
151.03949 2872883.0 
195.080414 2956078.0 
211.076538 5489182.0 
239.071274 18559128.0 
241.050644 6339913.5 
255.066574 10145678.0 
267.066437 3134788.5 
283.061493 13917336.0 
311.056396 39882728.0 
337.036438 978266.625 
355.046295 14417990.0 
END IONS

BEGIN IONS
RTINSECONDS=290.923004
CHARGE=1-
MSLEVEL=2
SMILES=CC12C(=O)C(=C(C=C1Oc1c2c(O)c(C)c(O)c1C(=O)C)O)C(=O)C
INCHI=InChI=1S/C18H16O7/c1-6-14(22)12(8(3)20)16-13(15(6)23)18(4)10(25-16)5-9(21)11(7(2)19)17(18)24/h5,21-23H,1-4H3
INCHIKEY=WEYVVCKOOFYHRW-UHFFFAOYSA-N
CLASS=Dibenzofuranes
ADDUCT=[M-H]-
INSTRUMENT=Thermo Q-Exactive Focus
PRECURSOR_MZ=343.0818
COMPOUND_NAME=Usnic acid
ION_MODE=negative
FORMULA=C18H16O7
83.012749 32472334.0 
91.982826 891619.375 
189.055405 111801.492188 
231.066269 23106546.0 
255.066757 1013909.0 
259.061401 20754172.0 
299.093201 3026618.75 
301.073059 1789071.125 
313.035767 12683967.0 
END IONS

BEGIN IONS
RTINSECONDS=108.983002
CHARGE=1-
MSLEVEL=2
SMILES=Oc1cc2c(c3c1C(=O)OC3)c1c(O)cc(C)c(C(=O)O)c1o2
INCHI=InChI=1S/C16H10O7/c1-5-2-7(17)13-12-6-4-22-16(21)11(6)8(18)3-9(12)23-14(13)10(5)15(19)20/h2-3,17-18H,4H2,1H3,(H,19,20)
INCHIKEY=QZYZPZAPRHESDA-UHFFFAOYSA-N
CLASS=Dibenzofuranes
ADDUCT=[M-H]-
INSTRUMENT=Thermo Q-Exactive Focus
PRECURSOR_MZ=313.0348
COMPOUND_NAME=Porphyrilic acid
ION_MODE=negative
FORMULA=C16H10O7
182.037186 123082.75 
197.060318 4012757.0 
225.055603 8451833.0 
269.045929 17853332.0 
END IONS

BEGIN IONS
RTINSECONDS=139.126999
CHARGE=1-
MSLEVEL=2
SMILES=O=C1c2c(C)cc(O)cc2Oc2c(O1)cc1c(c2O)C(=O)OC1
INCHI=InChI=1S/C16H10O7/c1-6-2-8(17)4-9-11(6)16(20)23-10-3-7-5-21-15(19)12(7)13(18)14(10)22-9/h2-4,17-18H,5H2,1H3
INCHIKEY=LPUOVEFMUOQBFV-UHFFFAOYSA-N
CLASS=Depsidones
ADDUCT=[M-H]-
INSTRUMENT=Thermo Q-Exactive Focus
PRECURSOR_MZ=313.0348
COMPOUND_NAME=Variolaric acid
ION_MODE=negative
FORMULA=C16H10O7
91.97718 14284.670898 
105.033424 1166051.75 
149.023544 3582600.0 
169.065125 1763520.625 
175.03949 1806939.875 
197.06015 10885414.0 
213.055649 3095629.5 
225.055466 16789768.0 
241.050766 6818479.5 
269.045776 13397523.0 
END IONS

BEGIN IONS
RTINSECONDS=56.010899
CHARGE=1-
MSLEVEL=2
SMILES=O=C(O)c1c(C)cc(O)cc1OC
INCHI=InChI=1S/C9H10O4/c1-5-3-6(10)4-7(13-2)8(5)9(11)12/h3-4,10H,1-2H3,(H,11,12)
INCHIKEY=HKYUPCAKFRQXJI-UHFFFAOYSA-N
CLASS=Cleavage Products of Depsides and Depsidones
ADDUCT=[M-H]-
INSTRUMENT=Thermo Q-Exactive Focus
PRECURSOR_MZ=181.0501
COMPOUND_NAME=Isoevernic acid
ION_MODE=negative
FORMULA=C9H10O4
94.053436 1727822.625 
122.035713 181226944.0 
136.98262 25598.519531 
137.059509 186105744.0 
END IONS

BEGIN IONS
RTINSECONDS=123.867996
CHARGE=1-
MSLEVEL=2
SMILES=O[C@H]1[C@H](O)[C@@H](O)[C@H](Oc2c(C)c3oc(C)cc(=O)c3c(O)c2C)O[C@@H]1COC(=O)C
INCHI=InChI=1S/C20H24O10/c1-7-5-11(22)13-14(23)8(2)18(9(3)19(13)28-7)30-20-17(26)16(25)15(24)12(29-20)6-27-10(4)21/h5,12,15-17,20,23-26H,6H2,1-4H3/t12-,15-,16+,17-,20+/m1/s1
INCHIKEY=NJRLDXGREKHXGV-IVABAYMNSA-N
CLASS=Chromanes and Chromones
ADDUCT=[M-H]-
INSTRUMENT=Thermo Q-Exactive Focus
PRECURSOR_MZ=423.1291
COMPOUND_NAME=Galapagin
ION_MODE=negative
FORMULA=C20H24O10
50.818035 23646.675781 
84.15683 26274.595703 
86.569489 28035.695312 
91.983009 56478.917969 
107.088715 24285.480469 
121.170647 25264.925781 
153.054977 35680.6875 
175.075165 128792.648438 
177.018555 98666.101562 
177.054352 64103.535156 
217.050125 60941.929688 
218.057831 1610310.625 
219.065643 1441497.25 
261.076508 60172.914062 
310.686707 6413.411621 
313.615723 12417.191406 
322.162964 7915.9375 
351.236206 6192.242676 
363.107727 8000.98291 
404.990814 16818.552734 
END IONS

BEGIN IONS
RTINSECONDS=255.184998
CHARGE=1-
MSLEVEL=2
SMILES=CCCCCC1=CC(=O)C=C(OC)C21C(=O)Oc1c2c(c(c(c1)O)C(=O)O)CCCCC
INCHI=InChI=1S/C25H30O7/c1-4-6-8-10-15-12-16(26)13-20(31-3)25(15)22-17(11-9-7-5-2)21(23(28)29)18(27)14-19(22)32-24(25)30/h12-14,27H,4-11H2,1-3H3,(H,28,29)
INCHIKEY=LOGCRVAWKCZXQM-UHFFFAOYSA-N
CLASS=Depsones
ADDUCT=[2M-2H+Na]-
INSTRUMENT=Thermo Q-Exactive Focus
PRECURSOR_MZ=905.3724
COMPOUND_NAME=Picrolichenic acid
ION_MODE=negative
FORMULA=C25H30O7
91.982697 69927.078125 
102.574104 35695.707031 
122.036499 42082.085938 
131.652939 30311.927734 
164.083099 18233.550781 
191.107208 66847.164062 
205.086777 121798.828125 
218.09433 95687.507812 
232.110428 96091.195312 
267.102783 272395.03125 
268.110992 100500.984375 
281.118988 252589.75 
282.126526 265896.96875 
283.097839 125621.320312 
329.212982 116219.710938 
338.189301 2340868.0 
353.213318 130382.195312 
382.179474 189109.890625 
397.202393 4357240.5 
441.192352 1920066.75 
END IONS

BEGIN IONS
RTINSECONDS=275.13501
CHARGE=1-
MSLEVEL=2
SMILES=Oc1c(C(=O)Oc2cc(O)c(C(=O)O)c(CCCCC)c2)c(CC(=O)CCC)cc(OC)c1
INCHI=InChI=1S/C25H30O8/c1-4-6-7-9-15-11-19(14-20(27)22(15)24(29)30)33-25(31)23-16(10-17(26)8-5-2)12-18(32-3)13-21(23)28/h11-14,27-28H,4-10H2,1-3H3,(H,29,30)
INCHIKEY=PKLMGLZTAHCGBQ-UHFFFAOYSA-N
CLASS=Depsides (Didepsides)
ADDUCT=[M-H]-
INSTRUMENT=Thermo Q-Exactive Focus
PRECURSOR_MZ=457.1862
COMPOUND_NAME=Glomelliferic acid
ION_MODE=negative
FORMULA=C25H30O8
91.017548 4938396.0 
137.095734 1633126.875 
161.095993 9312247.0 
179.106857 37376308.0 
205.086319 104444680.0 
206.089676 17255854.0 
223.096954 65040448.0 
224.100189 9912259.0 
233.082687 1734332.75 
283.134949 1054180.5 
299.166382 2226199.25 
END IONS

BEGIN IONS
RTINSECONDS=106.147003
CHARGE=1-
MSLEVEL=2
SMILES=Cc1c(O)c(C(=O)O)c(C)cc1O
INCHI=InChI=1S/C9H10O4/c1-4-3-6(10)5(2)8(11)7(4)9(12)13/h3,10-11H,1-2H3,(H,12,13)
INCHIKEY=VHNLJRRECIZZPX-UHFFFAOYSA-N
CLASS=Cleavage Products of Depsides and Depsidones
ADDUCT=[M-H]-
INSTRUMENT=Thermo Q-Exactive Focus
PRECURSOR_MZ=181.0501
COMPOUND_NAME=b-Orcinolcarboxylic acid
ION_MODE=negative
FORMULA=C9H10O4
55.017609 9516489.0 
81.033325 6106394.5 
93.069717 36588392.0 
95.048973 4256140.5 
119.04924 3819535.0 
137.059845 240459424.0 
163.039398 18270034.0 
END IONS

BEGIN IONS
RTINSECONDS=160.391006
CHARGE=1-
MSLEVEL=2
SMILES=O=C1c2cc(O)cc(O)c2C(=O)c2c1cc(C(=O)O)cc2O
INCHI=InChI=1S/C15H8O7/c16-6-3-8-12(10(18)4-6)14(20)11-7(13(8)19)1-5(15(21)22)2-9(11)17/h1-4,16-18H,(H,21,22)
INCHIKEY=ZJXVNNSMRGTDBI-UHFFFAOYSA-N
CLASS=Quinones
ADDUCT=[M-H]-
INSTRUMENT=Thermo Q-Exactive Focus
PRECURSOR_MZ=299.0192
COMPOUND_NAME=Emodic acid
ION_MODE=negative
FORMULA=C15H8O7
91.978188 3890646.25 
167.049728 6350402.0 
183.044495 7729695.5 
199.039932 3257844.5 
211.040222 52573384.0 
227.035019 25499820.0 
255.030655 49084760.0 
271.024994 6337112.5 
END IONS

BEGIN IONS
RTINSECONDS=291.915985
CHARGE=1-
MSLEVEL=2
SMILES=CCCCCc1cc(cc(c1C(=O)Oc1cc(c(c(c1)CCCCC)C(=O)O)O)O)O
INCHI=InChI=1S/C24H30O7/c1-3-5-7-9-15-11-17(25)13-19(26)22(15)24(30)31-18-12-16(10-8-6-4-2)21(23(28)29)20(27)14-18/h11-14,25-27H,3-10H2,1-2H3,(H,28,29)
INCHIKEY=BEFYPHLCGVCBFF-UHFFFAOYSA-N
CLASS=Depsides (Didepsides)
ADDUCT=[M-H]-
INSTRUMENT=Thermo Q-Exactive Focus
PRECURSOR_MZ=429.1913
COMPOUND_NAME=Anziaic acid
ION_MODE=negative
FORMULA=C24H30O7
51.632179 322612.75 
81.033112 20968.158203 
91.017738 2556151.75 
135.116806 1728755.375 
137.095978 2902838.25 
161.096375 2824714.5 
179.106644 51624024.0 
205.086288 12072899.0 
223.097 52473776.0 
END IONS

BEGIN IONS
RTINSECONDS=333.162994
CHARGE=1-
MSLEVEL=2
SMILES=CCCCCCCCCCCCC[C@H]1[C@H]([C@H](C(=O)O1)C)C(=O)O
INCHI=InChI=1S/C19H34O4/c1-3-4-5-6-7-8-9-10-11-12-13-14-16-17(18(20)21)15(2)19(22)23-16/h15-17H,3-14H2,1-2H3,(H,20,21)/t15-,16+,17+/m1/s1
INCHIKEY=WLGALFYTFVOQPY-IKGGRYGDSA-N
CLASS=Paraconic acids
ADDUCT=[2M-2H+Na]-
INSTRUMENT=Thermo Q-Exactive Focus
PRECURSOR_MZ=673.4655
COMPOUND_NAME=Nephromopsic acid
ION_MODE=negative
FORMULA=C19H34O4
91.97908 49406.175781 
113.023361 746518.5625 
281.249298 1338834.25 
325.239319 1238118.75 
461.254517 53926.070312 
END IONS

BEGIN IONS
RTINSECONDS=191.981995
CHARGE=1-
MSLEVEL=2
SMILES=Oc1c(C(=O)Oc2cc(C)c(c(O)c2C)C(=O)O)c(C)cc(OC)c1C(=O)O
INCHI=InChI=1S/C19H18O9/c1-7-5-10(9(3)15(20)12(7)17(22)23)28-19(26)13-8(2)6-11(27-4)14(16(13)21)18(24)25/h5-6,20-21H,1-4H3,(H,22,23)(H,24,25)
INCHIKEY=WCWYEXBIRSSVGF-UHFFFAOYSA-N
CLASS=Depsides (Didepsides)
ADDUCT=[2M-2H+Na]-
INSTRUMENT=Thermo Q-Exactive Focus
PRECURSOR_MZ=801.1643
COMPOUND_NAME=Squamatic acid
ION_MODE=negative
FORMULA=C19H18O9
59.579567 11146.388672 
70.269104 10767.347656 
74.497475 15677.31543 
91.976273 29035.996094 
119.048859 263213.1875 
137.059662 111609.492188 
151.039291 35695.023438 
163.039062 1061891.375 
177.052322 33425.382812 
181.049652 340334.0 
203.031708 247753.046875 
225.040894 28833.691406 
229.011429 205655.0 
266.973602 8983.50293 
272.00354 15412.685547 
296.790009 17348.072266 
310.628906 8473.74707 
323.090302 86773.789062 
327.592041 6889.39502 
343.861145 18687.486328 
367.080963 92226.039062 
380.978607 14138.662109 
386.614014 8774.180664 
411.069885 550695.4375 
423.503662 7510.451172 
607.535767 8230.311523 
625.028992 7239.855469 
693.113037 9954.378906 
735.811768 9188.041016 
737.062988 19243.304688 
748.84082 9058.138672 
755.40625 9632.079102 
816.960327 9748.342773 
830.791687 8816.472656 
END IONS

BEGIN IONS
RTINSECONDS=295.552002
CHARGE=1-
MSLEVEL=2
SMILES=O=C(O)C(CCCCCCCCCCCC)C(C)C(=O)O
INCHI=InChI=1S/C17H32O4/c1-3-4-5-6-7-8-9-10-11-12-13-15(17(20)21)14(2)16(18)19/h14-15H,3-13H2,1-2H3,(H,18,19)(H,20,21)
INCHIKEY=CADNMISJDLVPCK-UHFFFAOYSA-N
CLASS=Acids
ADDUCT=[2M-2H+Na]-
INSTRUMENT=Thermo Q-Exactive Focus
PRECURSOR_MZ=621.4342
COMPOUND_NAME=Roccellic acid
ION_MODE=negative
FORMULA=C17H32O4
69.845428 13298.516602 
83.048851 18076.390625 
91.977814 56495.136719 
112.015564 14935.220703 
237.222733 106143.195312 
255.233383 1886429.5 
281.212799 113233.53125 
299.223541 1694778.75 
299.257904 43378.726562 
321.205292 190306.9375 
END IONS

BEGIN IONS
RTINSECONDS=332.001007
CHARGE=1-
MSLEVEL=2
SMILES=CC[C@@H](C)C[C@@H](C)[C@@H]([C@H](C)C(=O)O[C@@H]([C@H](C)C[C@H](C)CC)[C@H](C)C(=O)O)O
INCHI=InChI=1S/C22H42O5/c1-9-13(3)11-15(5)19(23)17(7)22(26)27-20(18(8)21(24)25)16(6)12-14(4)10-2/h13-20,23H,9-12H2,1-8H3,(H,24,25)/t13-,14-,15-,16-,17+,18+,19+,20+/m1/s1
INCHIKEY=ZQEUMOKDJCSNHB-IHRHECOVSA-N
CLASS=Acids
ADDUCT=[M-H]-
INSTRUMENT=Thermo Q-Exactive Focus
PRECURSOR_MZ=385.2954
COMPOUND_NAME=Bourgeanic acid
ION_MODE=negative
FORMULA=C22H42O5
73.027954 70108824.0 
80.211624 23692.646484 
201.148712 48264004.0 
214.407974 318908.25 
END IONS

BEGIN IONS
RTINSECONDS=267.610992
CHARGE=1-
MSLEVEL=2
SMILES=C[C@H](O)CCCCCCCCCCCCC[C@@H]1C(C(=O)O)C(=C)C(=O)O1
INCHI=InChI=1S/C21H36O5/c1-16(22)14-12-10-8-6-4-3-5-7-9-11-13-15-18-19(20(23)24)17(2)21(25)26-18/h16,18-19,22H,2-15H2,1H3,(H,23,24)/t16-,18+,19?/m0/s1
INCHIKEY=UYUDMGMNHAKPEV-CXEJCQMISA-N
CLASS=Paraconic acids
ADDUCT=[2M-H]-
INSTRUMENT=Thermo Q-Exactive Focus
PRECURSOR_MZ=735.5047
COMPOUND_NAME=Murolic acid
ION_MODE=negative
FORMULA=C21H36O5
57.033413 378855.28125 
62.941513 165228.859375 
67.759666 154339.234375 
83.049042 159019.546875 
90.980576 151872.734375 
91.976395 168052.640625 
143.950317 165201.296875 
155.143753 277444.96875 
156.54921 172540.734375 
169.136826 162363.109375 
169.159912 369486.0625 
179.412292 162329.890625 
233.226959 120512.125 
263.238861 1047105.6875 
277.254822 1130891.375 
279.237183 255387.015625 
279.269348 352405.1875 
295.264709 905687.5 
323.260071 9944161.0 
367.205688 142729.96875 
367.250214 1911341.875 
408.829865 12258.480469 
472.221741 30178.832031 
579.305115 14503.941406 
599.297485 75478.539062 
624.369751 15862.695312 
625.095886 16885.720703 
END IONS

BEGIN IONS
RTINSECONDS=256.787994
CHARGE=1-
MSLEVEL=2
SMILES=O=C1Oc2c(c(CC(=O)CCCCC)c(C(=O)O)c(O)c2)Oc2c1c(cc(c2)O)CC(=O)CCCCC
INCHI=InChI=1S/C28H32O9/c1-3-5-7-9-17(29)11-16-12-19(31)14-22-24(16)28(35)37-23-15-21(32)25(27(33)34)20(26(23)36-22)13-18(30)10-8-6-4-2/h12,14-15,31-32H,3-11,13H2,1-2H3,(H,33,34)
INCHIKEY=ZDIOCINAHISORH-UHFFFAOYSA-N
CLASS=Depsidones
ADDUCT=[M-H+CH3OH]-
INSTRUMENT=Thermo Q-Exactive Focus
PRECURSOR_MZ=543.223
COMPOUND_NAME=Alpha-Alectoronic acid
ION_MODE=negative
FORMULA=C28H32O9
51.436481 40970.417969 
51.705685 33580.949219 
52.868683 37127.347656 
53.547806 36928.703125 
67.902214 34726.925781 
101.912827 40108.53125 
115.867744 19402.193359 
121.258629 42982.03125 
123.044006 31805.910156 
130.409195 17433.78125 
149.023438 11076.495117 
203.070877 43293.109375 
219.102463 70664.820312 
226.062607 46608.554688 
227.071564 91148.914062 
247.097473 250038.703125 
269.046356 78307.5625 
301.145355 182505.71875 
325.145172 176322.484375 
327.124817 110502.476562 
354.111694 343215.0 
368.127533 200284.703125 
369.134613 298064.8125 
423.219666 163457.859375 
425.198425 141188.625 
449.197815 147364.90625 
467.207397 519917.8125 
493.186737 119541.929688 
499.234467 124094.90625 
509.135925 6874.419434 
525.211792 9186.780273 
END IONS

BEGIN IONS
RTINSECONDS=212.014999
CHARGE=1-
MSLEVEL=2
SMILES=O=C1c2c(C)cc(O)c(C=O)c2Oc2c(O1)c(c(cc2C(=O)O)OC)C
INCHI=InChI=1S/C18H14O8/c1-7-4-11(20)10(6-19)15-13(7)18(23)26-14-8(2)12(24-3)5-9(17(21)22)16(14)25-15/h4-6,20H,1-3H3,(H,21,22)
INCHIKEY=FUCWJKJZOHOLEO-UHFFFAOYSA-N
CLASS=Depsidones
ADDUCT=[2M-H]-
INSTRUMENT=Thermo Q-Exactive Focus
PRECURSOR_MZ=715.1299
COMPOUND_NAME=Psoromic acid
ION_MODE=negative
FORMULA=C18H14O8
68.996758 11296519.0 
80.490593 463780.375 
88.156685 379870.5 
91.976593 600229.25 
100.048355 423976.6875 
135.044647 423748.28125 
144.381149 468560.3125 
168.746231 379086.09375 
226.063278 5400507.5 
228.042587 31629558.0 
243.066086 6749089.5 
254.058472 16704936.0 
270.053497 4694105.0 
285.077179 4363262.0 
313.07254 5914825.5 
331.082886 17145868.0 
357.06192 7146748.0 
388.3284 320039.375 
404.968475 479891.25 
414.735016 34208.714844 
429.674255 84972.132812 
451.276642 11997.900391 
472.935364 8444.735352 
489.786682 83777.15625 
528.485291 87412.15625 
543.861328 9090.924805 
578.749634 221031.796875 
624.956177 212659.921875 
679.224365 32092.291016 
696.644165 251545.8125 
END IONS

BEGIN IONS
RTINSECONDS=135.110992
CHARGE=1-
MSLEVEL=2
SMILES=O=C1c2c(c3c(cc(O)c(O)c3)o2)C(=O)c2c1c1c(o2)cc(c(c1)O)O
INCHI=InChI=1S/C18H8O8/c19-7-1-5-11(3-9(7)21)25-17-13(5)15(23)18-14(16(17)24)6-2-8(20)10(22)4-12(6)26-18/h1-4,19-22H
INCHIKEY=PDICCECAPKBDBB-UHFFFAOYSA-N
CLASS=Quinones
ADDUCT=[M-H]-
INSTRUMENT=Thermo Q-Exactive Focus
PRECURSOR_MZ=351.0141
COMPOUND_NAME=Thelephoric acid
ION_MODE=negative
FORMULA=C18H8O8
91.982971 58760.363281 
211.039703 58709.046875 
223.040192 85797.265625 
239.034698 73856.992188 
251.034988 112759.0625 
267.029999 107922.054688 
279.029694 129696.523438 
295.025513 177126.25 
305.010468 113561.210938 
323.020508 134835.21875 
END IONS

BEGIN IONS
RTINSECONDS=162.395004
CHARGE=1-
MSLEVEL=2
SMILES=O=C1c2c(C)cc(O)c(C)c2Oc2c(O1)cc(c(c2C)C(=O)O)O
INCHI=InChI=1S/C17H14O7/c1-6-4-9(18)7(2)15-12(6)17(22)23-11-5-10(19)13(16(20)21)8(3)14(11)24-15/h4-5,18-19H,1-3H3,(H,20,21)
INCHIKEY=HETZRHDDRHBPKX-UHFFFAOYSA-N
CLASS=Depsidones
ADDUCT=[2M-2H+Na]-
INSTRUMENT=Thermo Q-Exactive Focus
PRECURSOR_MZ=681.122
COMPOUND_NAME=Nornotatic acid
ION_MODE=negative
FORMULA=C17H14O7
53.542484 25846.982422 
63.503506 28148.050781 
71.186378 26597.453125 
91.97744 40037.972656 
94.184258 26161.115234 
102.059532 29629.392578 
119.844948 28103.03125 
169.101868 48040.921875 
175.040146 32192.193359 
201.055084 89099.398438 
213.092026 64180.785156 
217.086578 318809.53125 
226.063461 97624.117188 
241.086807 2362808.5 
243.066025 417842.28125 
267.066406 61913.40625 
285.077087 537384.0625 
311.057068 40717.566406 
314.852448 27253.003906 
329.067047 1074894.625 
430.360046 27483.242188 
438.14151 8736.666016 
489.128967 19382.552734 
522.406433 22544.693359 
528.656982 32784.445312 
555.445312 11189.288086 
591.197693 12680.449219 
646.523743 22577.845703 
663.291687 30776.814453 
END IONS

BEGIN IONS
RTINSECONDS=196.802994
CHARGE=1-
MSLEVEL=2
SMILES=O=C(O)c1c(CCC)c(Cl)c(OC)cc1O
INCHI=InChI=1S/C11H13ClO4/c1-3-4-6-9(11(14)15)7(13)5-8(16-2)10(6)12/h5,13H,3-4H2,1-2H3,(H,14,15)
INCHIKEY=JRBWSDAHJPBRDM-UHFFFAOYSA-N
CLASS=Cleavage Products of Depsides and Depsidones
ADDUCT=[M-H]-
INSTRUMENT=Thermo Q-Exactive Focus
PRECURSOR_MZ=243.0424
COMPOUND_NAME=5-Chlorodivaricatinic acid
ION_MODE=negative
FORMULA=C11H13ClO4
67.060287 1985393.875 
91.980423 3626298.25 
155.997681 48344888.0 
184.029251 276489088.0 
199.052841 240734368.0 
END IONS

BEGIN IONS
RTINSECONDS=280.700989
CHARGE=1-
MSLEVEL=2
SMILES=O=C(OC)/C(=C\1/OC(=O)C(=C1O)c1ccccc1)/c1c(OC)cccc1
INCHI=InChI=1S/C20H16O6/c1-24-14-11-7-6-10-13(14)16(19(22)25-2)18-17(21)15(20(23)26-18)12-8-4-3-5-9-12/h3-11,21H,1-2H3/b18-16+
INCHIKEY=IWYVMUDIEOXASM-FBMGVBCBSA-N
CLASS=Pulvinic Acid Derivatives
ADDUCT=[M-H]-
INSTRUMENT=Thermo Q-Exactive Focus
PRECURSOR_MZ=351.0869
COMPOUND_NAME=Leprapinic acid
ION_MODE=negative
FORMULA=C20H16O6
91.980888 2191149.75 
101.038567 3963249.25 
117.033485 8668114.0 
132.020706 3484627.5 
147.044678 2686286.5 
191.034698 7772063.5 
231.081848 4653949.0 
233.061081 23034066.0 
263.072174 6973039.5 
264.080017 14117896.0 
279.103424 18478480.0 
291.068146 7616511.5 
292.075256 5051483.5 
END IONS

BEGIN IONS
RTINSECONDS=275.842987
CHARGE=1-
MSLEVEL=2
SMILES=O=C1Oc2c(c(C)c(Cl)c(OC)c2)Oc2c(Cl)c(O)c(Cl)c(C)c12
INCHI=InChI=1S/C16H11Cl3O5/c1-5-9-15(12(19)13(20)11(5)18)24-14-6(2)10(17)7(22-3)4-8(14)23-16(9)21/h4,20H,1-3H3
INCHIKEY=XEDMLQPKKYHCKK-UHFFFAOYSA-N
CLASS=Depsidones
ADDUCT=[M-H]-
INSTRUMENT=Thermo Q-Exactive Focus
PRECURSOR_MZ=386.9594
COMPOUND_NAME=Dechlorodiploicin
ION_MODE=negative
FORMULA=C16H11Cl3O5
65.514397 576072.9375 
91.982803 683988.125 
257.001526 1249742.125 
271.988495 1333433.125 
292.978455 2114496.5 
295.965363 2071198.125 
307.965393 3063315.75 
327.946838 15565055.0 
335.960205 6244785.0 
336.968048 2576656.25 
350.983398 5847998.5 
END IONS

BEGIN IONS
RTINSECONDS=91.649696
CHARGE=1-
MSLEVEL=2
SMILES=CC(=O)c1c(O)cc(O)cc1O
INCHI=InChI=1S/C8H8O4/c1-4(9)8-6(11)2-5(10)3-7(8)12/h2-3,10-12H,1H3
INCHIKEY=XLEYFDVVXLMULC-UHFFFAOYSA-N
CLASS=Cleavage Products of Depsides and Depsidones
ADDUCT=[M-H]-
INSTRUMENT=Thermo Q-Exactive Focus
PRECURSOR_MZ=167.0344
COMPOUND_NAME="N 2,4,6-Trihydroxyacetophenone"
ION_MODE=negative
FORMULA=C8H8O4
59.012264 2528417.25 
65.001587 3674107.5 
81.033043 34686184.0 
83.012268 10817941.0 
95.048569 7011053.0 
123.04364 278829568.0 
125.022865 15933165.0 
END IONS

BEGIN IONS
RTINSECONDS=137.740997
CHARGE=1-
MSLEVEL=2
SMILES=O=C1OCc2c1c(cc1c2c2c(C)cc(O)cc2o1)O
INCHI=InChI=1S/C15H10O5/c1-6-2-7(16)3-10-12(6)14-8-5-19-15(18)13(8)9(17)4-11(14)20-10/h2-4,16-17H,5H2,1H3
INCHIKEY=OOXFLIUVCWLPKE-UHFFFAOYSA-N
CLASS=Dibenzofuranes
ADDUCT=[M+Cl]-
INSTRUMENT=Thermo Q-Exactive Focus
PRECURSOR_MZ=305.0217
COMPOUND_NAME=Strepsilin
ION_MODE=negative
FORMULA=C15H10O5
50.812462 8619.100586 
55.978374 6458.269043 
68.651344 7146.969238 
73.737244 7409.725098 
79.671692 7221.78418 
91.982895 12745.856445 
117.306252 7471.458984 
123.238258 7416.113281 
146.960541 12616.433594 
164.481537 7088.730469 
174.955521 7082.598145 
197.06044 119569.90625 
215.070923 8091.621582 
225.05571 167722.96875 
225.077408 12050.143555 
241.052231 7622.873535 
266.276215 6122.065918 
269.04599 419183.40625 
END IONS

BEGIN IONS
RTINSECONDS=315.109985
CHARGE=1-
MSLEVEL=2
SMILES=OC(=O)c1c(OC)cc(cc1CCCCC)OC(=O)c1c(CCCCC)cc(OC)cc1OC
INCHI=InChI=1S/C27H36O7/c1-6-8-10-12-18-15-21(17-22(32-4)24(18)26(28)29)34-27(30)25-19(13-11-9-7-2)14-20(31-3)16-23(25)33-5/h14-17H,6-13H2,1-5H3,(H,28,29)
INCHIKEY=FNJKTDQIJKLZGZ-UHFFFAOYSA-N
CLASS=Depsides (Didepsides)
ADDUCT=[2M-2H+Na]-
INSTRUMENT=Thermo Q-Exactive Focus
PRECURSOR_MZ=965.4663
COMPOUND_NAME=Planaic acid
ION_MODE=negative
FORMULA=C27H36O7
67.642067 9853.300781 
71.537682 10586.804688 
75.290405 10627.589844 
85.513321 10009.376953 
122.036385 12550.137695 
140.232208 10985.389648 
152.731476 11266.984375 
175.112213 34390.011719 
178.099121 24066.210938 
191.107407 20938.761719 
193.122406 320343.71875 
205.122971 11894.675781 
251.128494 28969.408203 
258.628418 9670.798828 
308.086548 10784.097656 
324.139465 16067.641602 
337.144897 71619.351562 
339.160858 13567.368164 
365.213074 42995.148438 
379.190186 10879.567383 
395.22345 61605.050781 
410.227966 10798.953125 
437.121979 11451.768555 
471.237244 13256.334961 
614.05127 12078.87793 
685.105652 11482.137695 
696.558044 5013.510742 
745.357178 10936.933594 
793.622986 12483.738281 
855.091919 11314.871094 
906.143982 10492.910156 
END IONS

BEGIN IONS
RTINSECONDS=95.6884
CHARGE=1-
MSLEVEL=2
SMILES=Cc1cc(c(c2c1C(=O)Oc1c(O2)c2c(c(c1CO)O)C(=O)OC2O)C=O)OC
INCHI=InChI=1S/C19H14O10/c1-6-3-9(26-2)7(4-20)14-10(6)17(23)28-15-8(5-21)13(22)11-12(16(15)27-14)19(25)29-18(11)24/h3-4,19,21-22,25H,5H2,1-2H3
INCHIKEY=FYPCEUKJORJHDL-UHFFFAOYSA-N
CLASS=Depsidones
ADDUCT=[M-H+CH3OH]-
INSTRUMENT=Thermo Q-Exactive Focus
PRECURSOR_MZ=433.0771
COMPOUND_NAME=Constictic acid
ION_MODE=negative
FORMULA=C19H14O10
93.03299 117568.25 
121.028259 523209.28125 
135.007111 163534.453125 
137.0233 416026.75 
137.059814 178033.953125 
149.023499 249198.03125 
195.065598 340535.46875 
212.047348 842088.5625 
227.07074 231647.234375 
240.042694 1155268.125 
255.06636 521897.8125 
268.037384 709910.5625 
270.053864 173123.453125 
283.061401 838472.875 
313.072144 156102.21875 
327.051636 419618.34375 
329.066345 142867.25 
357.061951 537970.0625 
389.088226 327215.03125 
401.051849 254184.015625 
END IONS

BEGIN IONS
RTINSECONDS=294.265015
CHARGE=1-
MSLEVEL=2
SMILES=O=C1Oc2c(c3C[C@@](O)(CCCCC)OC(=O)c3c(O)c2)Oc2c1c(cc(c2)OC)CC(=O)CCCCC
INCHI=InChI=1S/C29H34O9/c1-4-6-8-10-18(30)12-17-13-19(35-3)14-22-24(17)27(32)37-23-15-21(31)25-20(26(23)36-22)16-29(34,38-28(25)33)11-9-7-5-2/h13-15,31,34H,4-12,16H2,1-3H3/t29-/m1/s1
INCHIKEY=DQYWDDCXRXABIH-GDLZYMKVSA-N
CLASS=Depsidones
ADDUCT=[M-H]-
INSTRUMENT=Thermo Q-Exactive Focus
PRECURSOR_MZ=525.2125
COMPOUND_NAME=Alpha-collatolic acid
ION_MODE=negative
FORMULA=C29H34O9
123.007675 1489467.375 
126.035881 199614.375 
165.018784 2718024.75 
202.063004 1569135.125 
217.086807 1799927.25 
219.102432 5069233.5 
226.063828 2518713.75 
285.078705 6916753.5 
285.113586 8543724.0 
298.12207 4878836.5 
300.137115 10566267.0 
315.161011 9247104.0 
367.119171 11222673.0 
368.127167 15117357.0 
383.150452 49554140.0 
437.23468 3125499.75 
465.193909 2453013.25 
466.200653 1636565.375 
481.224121 5604469.5 
END IONS

BEGIN IONS
RTINSECONDS=280.873993
CHARGE=1-
MSLEVEL=2
SMILES=Cc1cc(OC(=O)c2c(O)c(C)c(OC)cc2C)c(C)c(O)c1C(=O)O
INCHI=InChI=1S/C19H20O7/c1-8-7-13(11(4)16(20)14(8)18(22)23)26-19(24)15-9(2)6-12(25-5)10(3)17(15)21/h6-7,20-21H,1-5H3,(H,22,23)
INCHIKEY=NMKBRSYSHBPUPY-UHFFFAOYSA-N
CLASS=Depsides (Didepsides)
ADDUCT=[2M-2H+Na]-
INSTRUMENT=Thermo Q-Exactive Focus
PRECURSOR_MZ=741.2159
COMPOUND_NAME=Barbatic acid
ION_MODE=negative
FORMULA=C19H20O7
55.017242 31422.841797 
62.736538 10032.03418 
91.977867 36654.730469 
93.069397 58136.433594 
119.048729 179254.5625 
137.059448 803773.25 
163.038864 2125034.0 
181.0495 4656788.0 
359.113403 590678.5 
367.080292 28982.640625 
385.090088 196713.75 
563.152893 576954.875 
END IONS

BEGIN IONS
RTINSECONDS=291.950012
CHARGE=1-
MSLEVEL=2
SMILES=CCCCCc1cc(cc(c1C(=O)O)OC)OC(=O)c1c(cc(cc1CC(=O)CCCCC)OC)O
INCHI=InChI=1S/C28H36O8/c1-5-7-9-11-18-14-22(17-24(35-4)26(18)27(31)32)36-28(33)25-19(13-20(29)12-10-8-6-2)15-21(34-3)16-23(25)30/h14-17,30H,5-13H2,1-4H3,(H,31,32)
INCHIKEY=UANVCGQMNRTKGM-UHFFFAOYSA-N
CLASS=Depsides (Didepsides)
ADDUCT=[2M-H]-
INSTRUMENT=Thermo Q-Exactive Focus
PRECURSOR_MZ=999.4742
COMPOUND_NAME=Confluentic acid
ION_MODE=negative
FORMULA=C28H36O8
74.742523 176569.40625 
80.259521 181934.296875 
81.757988 350524.21875 
84.505905 345551.6875 
122.036186 8743113.0 
136.051895 697044.3125 
137.059891 948741.0 
160.33139 610713.8125 
178.099213 17522266.0 
193.123001 103416080.0 
218.094803 956375.375 
237.113297 36788940.0 
246.089523 855733.625 
255.10257 977946.25 
261.113708 4288324.0 
298.157776 4045384.75 
313.148102 552335.125 
313.181641 3864901.5 
330.148682 379867.1875 
345.171692 678236.6875 
396.226044 342958.65625 
397.494385 233270.484375 
411.253937 2456257.25 
444.176086 363711.125 
455.244019 87701.734375 
460.663086 187912.390625 
481.996338 79447.539062 
499.235443 1461885.75 
519.427979 221870.671875 
548.043518 67182.898438 
572.098083 11860.472656 
599.109558 473957.875 
614.557922 210233.359375 
620.267517 36276.566406 
622.398499 13116.883789 
626.201599 194237.0 
706.763611 25324.755859 
753.14209 460759.9375 
END IONS

BEGIN IONS
RTINSECONDS=159.218002
CHARGE=1-
MSLEVEL=2
SMILES=O=C1c2cc(O)cc(O)c2C(=O)c2c1cc(C(=O)O)cc2O
INCHI=InChI=1S/C15H8O7/c16-6-3-8-12(10(18)4-6)14(20)11-7(13(8)19)1-5(15(21)22)2-9(11)17/h1-4,16-18H,(H,21,22)
INCHIKEY=ZJXVNNSMRGTDBI-UHFFFAOYSA-N
CLASS=Quinones
ADDUCT=[2M-H]-
INSTRUMENT=Thermo Q-Exactive Focus
PRECURSOR_MZ=599.0462
COMPOUND_NAME=Emodic acid
ION_MODE=negative
FORMULA=C15H8O7
50.737614 65672.414062 
56.320854 73130.5 
58.883598 76629.8125 
66.522263 66779.695312 
91.977188 84233.484375 
101.472542 75787.679688 
125.975739 68709.4375 
126.170761 83362.9375 
138.988281 81266.5625 
151.782272 57458.214844 
167.049774 96335.273438 
183.044525 118416.789062 
203.918457 74154.0625 
211.040283 591550.75 
227.035156 342820.375 
255.030472 1066844.75 
276.16507 79475.226562 
299.020691 13649676.0 
300.024323 211224.625 
301.025879 187622.96875 
333.44928 8213.485352 
413.64859 6831.655273 
426.547607 63394.996094 
443.053925 18158.523438 
454.519226 75829.96875 
487.427094 9852.360352 
516.45575 7964.855469 
553.332458 8068.499512 
END IONS

BEGIN IONS
RTINSECONDS=15.142
CHARGE=1-
MSLEVEL=2
SMILES=OC[C@@H](O)[C@@H](O)C(O)[C@H](O)[C@H](O)CO
INCHI=InChI=1S/C7H16O7/c8-1-3(10)5(12)7(14)6(13)4(11)2-9/h3-14H,1-2H2/t3-,4-,5-,6-/m1/s1
INCHIKEY=OXQKEKGBFMQTML-KVTDHHQDSA-N
CLASS="Polyols, Monosaccharides, Carbohydrates"
ADDUCT=[M+Cl]-
INSTRUMENT=Thermo Q-Exactive Focus
PRECURSOR_MZ=247.0585
COMPOUND_NAME=Volemitol
ION_MODE=negative
FORMULA=C7H16O7
59.012596 88194.234375 
71.012589 82468.429688 
85.028275 51222.625 
89.022926 125646.171875 
101.022896 191327.734375 
119.033791 41038.640625 
158.179153 5142.940918 
164.087769 25969.072266 
193.070358 106251.585938 
211.081573 772554.8125 
229.840912 5396.960449 
END IONS

BEGIN IONS
RTINSECONDS=273.170013
CHARGE=1-
MSLEVEL=2
SMILES=O=C(O)C[C@@H]([C@H](CCCCCCCCCCCCCC)C(=O)O)C(=O)OC
INCHI=InChI=1S/C21H38O6/c1-3-4-5-6-7-8-9-10-11-12-13-14-15-17(20(24)25)18(16-19(22)23)21(26)27-2/h17-18H,3-16H2,1-2H3,(H,22,23)(H,24,25)/t17-,18-/m0/s1
INCHIKEY=MZWQZYDNVSKPPF-ROUUACIJSA-N
CLASS=Acids
ADDUCT=[M-H-H2O]-
INSTRUMENT=Thermo Q-Exactive Focus
PRECURSOR_MZ=367.2484
COMPOUND_NAME=Isorangiformic acid
ION_MODE=negative
FORMULA=C21H38O6
54.006172 4655.352539 
59.012577 7912.106445 
82.797913 5177.567383 
88.400276 5906.293457 
90.773064 5764.321777 
104.202087 5850.253418 
120.626198 5581.581543 
142.331207 5673.341309 
148.94017 6228.757324 
160.427032 5462.506836 
174.038116 2206.263428 
209.838776 2158.480225 
260.48056 6389.447754 
269.249756 6428.771973 
279.270172 70295.265625 
281.248383 5808.186523 
307.229584 12490.569336 
323.260223 14635.133789 
393.35611 2236.461914 
END IONS

BEGIN IONS
RTINSECONDS=173.505997
CHARGE=1-
MSLEVEL=2
SMILES=CCCCCc1cc(cc(c1C(=O)O)O)O
INCHI=InChI=1S/C12H16O4/c1-2-3-4-5-8-6-9(13)7-10(14)11(8)12(15)16/h6-7,13-14H,2-5H2,1H3,(H,15,16)
INCHIKEY=SXFKFRRXJUJGSS-UHFFFAOYSA-N
CLASS=Cleavage Products of Depsides and Depsidones
ADDUCT=[2M-H]-
INSTRUMENT=Thermo Q-Exactive Focus
PRECURSOR_MZ=447.2019
COMPOUND_NAME=Olivetolcarboxylic acid
ION_MODE=negative
FORMULA=C12H16O4
81.033325 186897.6875 
91.979507 101891.492188 
92.350021 88078.859375 
105.576065 81070.625 
135.116913 510820.84375 
137.096313 506866.34375 
174.824402 23178.785156 
179.107117 6884050.0 
223.097565 9422152.0 
255.206924 83317.257812 
261.0625 23624.539062 
266.205261 46857.222656 
296.236938 23125.527344 
316.69754 46256.53125 
368.366577 86337.570312 
368.695923 9562.228516 
374.883759 4161.283203 
389.402344 7011.093262 
406.246674 6675.139648 
423.366821 6640.624023 
END IONS

BEGIN IONS
RTINSECONDS=178.080994
CHARGE=1-
MSLEVEL=2
SMILES=O=C(O)c1c(C)cc(OC)c(C)c1O
INCHI=InChI=1S/C10H12O4/c1-5-4-7(14-3)6(2)9(11)8(5)10(12)13/h4,11H,1-3H3,(H,12,13)
INCHIKEY=BMRVNZZVDSVOQG-UHFFFAOYSA-N
CLASS=Cleavage Products of Depsides and Depsidones
ADDUCT=[2M-2H+Na]-
INSTRUMENT=Thermo Q-Exactive Focus
PRECURSOR_MZ=413.1212
COMPOUND_NAME=Rhizonic acid
ION_MODE=negative
FORMULA=C10H12O4
136.0522 16002207.0 
151.075638 15111287.0 
180.042099 834395.0 
195.065948 21152428.0 
196.070572 350603.5 
END IONS

BEGIN IONS
RTINSECONDS=107.486
CHARGE=1-
MSLEVEL=2
SMILES=Oc1cc2c(c3c1C(=O)OC3)c1c(O)cc(C)c(C(=O)O)c1o2
INCHI=InChI=1S/C16H10O7/c1-5-2-7(17)13-12-6-4-22-16(21)11(6)8(18)3-9(12)23-14(13)10(5)15(19)20/h2-3,17-18H,4H2,1H3,(H,19,20)
INCHIKEY=QZYZPZAPRHESDA-UHFFFAOYSA-N
CLASS=Dibenzofuranes
ADDUCT=[2M-2H+Na]-
INSTRUMENT=Thermo Q-Exactive Focus
PRECURSOR_MZ=649.0594
COMPOUND_NAME=Porphyrilic acid
ION_MODE=negative
FORMULA=C16H10O7
57.279999 6640.034668 
60.233295 6710.647949 
63.286381 6751.849121 
84.745209 7059.41748 
100.342781 7204.59375 
114.040848 6688.902832 
130.421753 7787.671387 
178.998657 7871.66748 
181.844727 8277.005859 
186.098221 7777.054199 
197.060593 27677.228516 
203.691116 8092.246582 
225.055466 135277.96875 
269.045959 302858.71875 
276.827271 8055.29541 
298.012512 7915.487793 
302.539307 8588.733398 
313.036133 161657.921875 
319.512238 8672.418945 
378.152039 8938.580078 
604.130127 8408.039062 
END IONS

BEGIN IONS
RTINSECONDS=257.295013
CHARGE=1-
MSLEVEL=2
SMILES=CC(C)C[C@H](NC(=O)c1ccccc1)C(=O)OC[C@@H](NC(=O)c1ccccc1)Cc1ccccc1
INCHI=InChI=1S/C29H32N2O4/c1-21(2)18-26(31-28(33)24-16-10-5-11-17-24)29(34)35-20-25(19-22-12-6-3-7-13-22)30-27(32)23-14-8-4-9-15-23/h3-17,21,25-26H,18-20H2,1-2H3,(H,30,32)(H,31,33)/t25-,26-/m0/s1
INCHIKEY=JOOSAYNHLJGJCN-UIOOFZCWSA-N
CLASS=N-Containing Compounds
ADDUCT=[M-H]-
INSTRUMENT=Thermo Q-Exactive Focus
PRECURSOR_MZ=471.2284
COMPOUND_NAME=Hypothallin
ION_MODE=negative
FORMULA=C29H32N2O4
50.551331 238469.6875 
82.065025 1266289.25 
83.068352 34480.445312 
91.979134 99736.4375 
120.044746 1281856.375 
190.123749 15348455.0 
191.126877 549880.4375 
192.129913 138063.46875 
234.113708 19759954.0 
235.117157 798615.75 
236.119766 338043.625 
END IONS

BEGIN IONS
RTINSECONDS=261.216003
CHARGE=1-
MSLEVEL=2
SMILES=O=C1c2c(CC(=O)CCCCC)cc(O)cc2Oc2c(O1)cc(c(c2CCCCC)C(=O)O)O
INCHI=InChI=1S/C26H30O8/c1-3-5-7-9-16(27)11-15-12-17(28)13-20-22(15)26(32)34-21-14-19(29)23(25(30)31)18(24(21)33-20)10-8-6-4-2/h12-14,28-29H,3-11H2,1-2H3,(H,30,31)
INCHIKEY=KVTYWHGIZSCFLG-UHFFFAOYSA-N
CLASS=Depsidones
ADDUCT=[M-H]-
INSTRUMENT=Thermo Q-Exactive Focus
PRECURSOR_MZ=469.1862
COMPOUND_NAME=Physodic acid
ION_MODE=negative
FORMULA=C26H30O8
54.08754 588729.25 
60.383453 917143.375 
91.978447 1905539.0 
133.101318 2571842.0 
149.023666 2366706.5 
211.040359 2343052.5 
225.055328 1645467.5 
226.063522 4696975.5 
247.097687 3766428.25 
259.134277 2834460.5 
282.126678 3864413.5 
283.134338 11402740.0 
285.113831 6452890.0 
310.121826 3943004.75 
324.137634 9759669.0 
357.208679 3910679.25 
380.200195 2129775.75 
381.207397 20046274.0 
383.186615 21024828.0 
407.189484 1473549.625 
425.197113 15369209.0 
END IONS

BEGIN IONS
RTINSECONDS=124.391998
CHARGE=1-
MSLEVEL=2
SMILES=Cc1cc(c(c(c1)O)C=O)O
INCHI=InChI=1S/C8H8O3/c1-5-2-7(10)6(4-9)8(11)3-5/h2-4,10-11H,1H3
INCHIKEY=JASONGFGOLHLGB-UHFFFAOYSA-N
CLASS=Cleavage Products of Depsides and Depsidones
ADDUCT=[2M-H]-
INSTRUMENT=Thermo Q-Exactive Focus
PRECURSOR_MZ=303.0869
COMPOUND_NAME=Atranol
ION_MODE=negative
FORMULA=C8H8O3
78.049736 171104.375 
79.054077 629730.3125 
81.033287 466475.625 
83.270332 165065.90625 
105.033478 204362.875 
123.04409 8293001.0 
149.02388 1130755.875 
151.039307 26000240.0 
178.821442 77034.40625 
183.975266 90714.070312 
185.431046 93639.429688 
210.464645 195286.4375 
264.161835 39317.882812 
270.955505 23576.494141 
283.180847 83016.015625 
319.659027 19855.878906 
END IONS

BEGIN IONS
RTINSECONDS=225.311996
CHARGE=1-
MSLEVEL=2
SMILES=Cc1c(c(O)cc(O)c1)C(=O)Oc1cc(O)c(C(=O)Oc2cc(O)c(C(=O)O)c(C)c2)c(C)c1
INCHI=InChI=1S/C24H20O10/c1-10-4-13(25)7-16(26)20(10)23(31)34-15-6-12(3)21(18(28)9-15)24(32)33-14-5-11(2)19(22(29)30)17(27)8-14/h4-9,25-28H,1-3H3,(H,29,30)
INCHIKEY=ATQPZSQVWCPVGV-UHFFFAOYSA-N
CLASS=Depsides (Tridepsides)
ADDUCT=[M-H]-
INSTRUMENT=Thermo Q-Exactive Focus
PRECURSOR_MZ=467.0978
COMPOUND_NAME=Gyrophoric acid
ION_MODE=negative
FORMULA=C24H20O10
79.053833 1878002.0 
90.608788 525419.9375 
91.981514 1251987.5 
105.033379 5245978.5 
123.043846 24616150.0 
149.023453 29927430.0 
167.033981 145583488.0 
317.066742 14412697.0 
END IONS

BEGIN IONS
RTINSECONDS=244.813995
CHARGE=1-
MSLEVEL=2
SMILES=CC(=O)CCCCCCCCCCCCC[C@H]1[C@H](C(C)C(=O)O1)C(=O)O
INCHI=InChI=1S/C21H36O5/c1-16(22)14-12-10-8-6-4-3-5-7-9-11-13-15-18-19(20(23)24)17(2)21(25)26-18/h17-19H,3-15H2,1-2H3,(H,23,24)/t17?,18-,19-/m0/s1
INCHIKEY=SPGPUDJMXMJNCU-MNNMKWMVSA-N
CLASS=Paraconic acids
ADDUCT=[M-H]-
INSTRUMENT=Thermo Q-Exactive Focus
PRECURSOR_MZ=367.2484
COMPOUND_NAME=Dihydropertusaric
ION_MODE=negative
FORMULA=C21H36O5
55.225628 4725.776855 
57.033409 1269664.125 
91.981956 3166221.5 
113.023613 5812330.0 
155.144424 465486.5625 
251.238297 117695.648438 
263.238586 557104.4375 
277.255096 1979293.625 
279.233978 387297.21875 
279.270264 11951455.0 
295.265289 471419.3125 
323.259827 10284548.0 
END IONS

BEGIN IONS
RTINSECONDS=179.591003
CHARGE=1-
MSLEVEL=2
SMILES=O=C(O)c1c(C)cc(OC)c(C)c1O
INCHI=InChI=1S/C10H12O4/c1-5-4-7(14-3)6(2)9(11)8(5)10(12)13/h4,11H,1-3H3,(H,12,13)
INCHIKEY=BMRVNZZVDSVOQG-UHFFFAOYSA-N
CLASS=Cleavage Products of Depsides and Depsidones
ADDUCT=[M-H]-
INSTRUMENT=Thermo Q-Exactive Focus
PRECURSOR_MZ=195.0657
COMPOUND_NAME=Rhizonic acid
ION_MODE=negative
FORMULA=C10H12O4
91.977875 3759144.75 
135.044266 9171454.0 
136.052063 473888800.0 
151.075775 276191904.0 
END IONS

BEGIN IONS
RTINSECONDS=197.606003
CHARGE=1-
MSLEVEL=2
SMILES=Cc1cc(c(c(c1C(=O)O)O)C=O)O
INCHI=InChI=1S/C9H8O5/c1-4-2-6(11)5(3-10)8(12)7(4)9(13)14/h2-3,11-12H,1H3,(H,13,14)
INCHIKEY=KCOOTJRKKIDHTM-UHFFFAOYSA-N
CLASS=Cleavage Products of Depsides and Depsidones
ADDUCT=[M-H-H2O]-
INSTRUMENT=Thermo Q-Exactive Focus
PRECURSOR_MZ=177.0188
COMPOUND_NAME=Haematommic acid
ION_MODE=negative
FORMULA=C9H8O5
65.002258 1269723.0 
68.996948 5863271.5 
105.033424 9464803.0 
107.013115 1370672.0 
109.028847 1601130.25 
133.028992 11003706.0 
END IONS

BEGIN IONS
RTINSECONDS=97.547501
CHARGE=1-
MSLEVEL=2
SMILES=Cc1cc(=O)c2c(o1)cc1c(c2O)C(=CC(=O)C1=O)O
INCHI=InChI=1S/C14H8O6/c1-5-2-7(15)12-10(20-5)3-6-11(14(12)19)8(16)4-9(17)13(6)18/h2-4,16,19H,1H3
INCHIKEY=NPUXQAACUNUHIX-UHFFFAOYSA-N
CLASS=Quinones
ADDUCT=[M-H]-
INSTRUMENT=Thermo Q-Exactive Focus
PRECURSOR_MZ=271.0243
COMPOUND_NAME=Canarione
ION_MODE=negative
FORMULA=C14H8O6
84.903511 140181.796875 
115.018272 583292.5625 
143.049591 357417.21875 
175.03949 421230.1875 
199.039963 15387920.0 
202.998108 4387330.5 
227.03537 5298789.0 
243.030396 68225152.0 
END IONS

BEGIN IONS
RTINSECONDS=335.610992
CHARGE=1-
MSLEVEL=2
SMILES=CCCCCCCCCCCCC[C@@H]1OC(=O)C(=C)[C@@H]1C(=O)O
INCHI=InChI=1S/C19H32O4/c1-3-4-5-6-7-8-9-10-11-12-13-14-16-17(18(20)21)15(2)19(22)23-16/h16-17H,2-14H2,1H3,(H,20,21)/t16-,17-/m0/s1
INCHIKEY=WZYZDHVPSZCEEP-IRXDYDNUSA-N
CLASS=Paraconic acids
ADDUCT=[2M-2H+Na]-
INSTRUMENT=Thermo Q-Exactive Focus
PRECURSOR_MZ=669.4342
COMPOUND_NAME=allo-Protolichesterinic acid
ION_MODE=negative
FORMULA=C19H32O4
81.035049 86594.859375 
91.398415 69788.234375 
91.976578 77178.4375 
111.007843 66759.382812 
114.847923 92794.75 
279.233521 1356588.25 
279.259003 84460.351562 
322.216278 111085.8125 
323.223846 1261777.0 
363.216644 121239.867188 
581.45636 591941.25 
625.447815 223911.734375 
END IONS

BEGIN IONS
RTINSECONDS=156.106003
CHARGE=1-
MSLEVEL=2
SMILES=O=C(C)O[C@@H]1[C@@H](O)[C@H](O)[C@@H](COC(=O)C)O[C@H]1Oc1cc2oc(C)cc(=O)c2c(O)c1C
INCHI=InChI=1S/C21H24O11/c1-8-5-12(24)16-14(29-8)6-13(9(2)17(16)25)31-21-20(30-11(4)23)19(27)18(26)15(32-21)7-28-10(3)22/h5-6,15,18-21,25-27H,7H2,1-4H3/t15-,18-,19+,20-,21-/m1/s1
INCHIKEY=AFCAWRFTSGVRQA-CMWLGVBASA-N
CLASS=Chromanes and Chromones
ADDUCT=[M-H+HCOOH]-
INSTRUMENT=Thermo Q-Exactive Focus
PRECURSOR_MZ=497.1295
COMPOUND_NAME=Roccellin
ION_MODE=negative
FORMULA=C21H24O11
59.012299 914361.75 
71.517586 665239.8125 
91.98011 2957724.0 
204.04216 7844112.0 
205.049927 23087892.0 
451.125275 8395293.0 
END IONS

BEGIN IONS
RTINSECONDS=278.747986
CHARGE=1-
MSLEVEL=2
SMILES=O=C1c2c(CCCCC)cc(OC)c(O)c2Oc2c(O1)cc(c(c2CCCCC)C(=O)O)O
INCHI=InChI=1S/C25H30O8/c1-4-6-8-10-14-12-17(31-3)21(27)23-19(14)25(30)32-18-13-16(26)20(24(28)29)15(22(18)33-23)11-9-7-5-2/h12-13,26-27H,4-11H2,1-3H3,(H,28,29)
INCHIKEY=VZPSCITXDMDLDC-UHFFFAOYSA-N
CLASS=Depsidones
ADDUCT=[2M-H]-
INSTRUMENT=Thermo Q-Exactive Focus
PRECURSOR_MZ=915.3803
COMPOUND_NAME=3-Hydroxycolensoic acid
ION_MODE=negative
FORMULA=C25H30O8
84.720978 448370.90625 
85.191933 428551.3125 
91.975899 749093.6875 
117.987968 505214.875 
129.652374 496587.28125 
133.100433 1328975.125 
179.10701 7218039.5 
205.086441 1989465.875 
207.102325 860556.9375 
221.08197 1515764.75 
283.098175 1980383.5 
297.113708 8589338.0 
311.12915 8094269.0 
327.087769 8254791.5 
342.111145 8208995.5 
354.184113 27315954.0 
369.207336 11054798.0 
371.186401 4262791.0 
413.197571 7005849.5 
439.176514 14096.772461 
457.1875 35014364.0 
531.466553 33428.597656 
539.113892 168269.203125 
547.123962 272448.0625 
564.036194 307675.375 
573.111084 296329.78125 
590.370056 177948.0 
602.38269 160067.40625 
697.485535 341724.0625 
754.304688 519070.09375 
764.531189 9695.973633 
789.373291 14099.726562 
813.667358 38241.429688 
892.212646 39259.429688 
898.283447 11206.775391 
END IONS

BEGIN IONS
RTINSECONDS=345.397003
CHARGE=1-
MSLEVEL=2
SMILES=CCCCCCCCCCCCC[C@H]1C(=C(C(=O)O1)C)C(=O)O
INCHI=InChI=1S/C19H32O4/c1-3-4-5-6-7-8-9-10-11-12-13-14-16-17(18(20)21)15(2)19(22)23-16/h16H,3-14H2,1-2H3,(H,20,21)/t16-/m0/s1
INCHIKEY=SLQVVNFTCYVCPB-INIZCTEOSA-N
CLASS=Paraconic acids
ADDUCT=[M-H]-
INSTRUMENT=Thermo Q-Exactive Focus
PRECURSOR_MZ=323.2222
COMPOUND_NAME=Lichesterinic acid
ION_MODE=negative
FORMULA=C19H32O4
91.982933 2169291.75 
279.234161 7485932.0 
END IONS

BEGIN IONS
RTINSECONDS=185.809998
CHARGE=1-
MSLEVEL=2
SMILES=CC(=O)CCCCCCCCCCCCCC1C(C(=C)C(=O)O1)C(=O)O
INCHI=InChI=1S/C21H34O5/c1-16(22)14-12-10-8-6-4-3-5-7-9-11-13-15-18-19(20(23)24)17(2)21(25)26-18/h18-19H,2-15H2,1H3,(H,23,24)
INCHIKEY=SKQHRBRVCRUFSX-UHFFFAOYSA-N
CLASS=Paraconic acids
ADDUCT=[M-H]-
INSTRUMENT=Waters Q-ToF Xevo G2-XS
PRECURSOR_MZ=365.2328
COMPOUND_NAME=Pertusaric acid
ION_MODE=negative
FORMULA=C21H34O5
57.039032 1593.900391 
69.038109 5202.902344 
71.055115 4851.546875 
83.054733 1588.603516 
85.068573 1699.453125 
123.084183 2148.3125 
155.146561 4142.609375 
169.161835 66868.375 
170.16568 13460.742188 
183.177475 28348.296875 
207.213608 27290.546875 
209.19278 8023.996094 
223.210388 10354.101562 
277.254395 1483674.0 
277.361542 235123.625 
278.270477 1081536.0 
321.243134 972743.0 
433.220581 2125.929688 
449.169983 683.05127 
465.160645 15078.882812 
465.246704 916.499512 
466.162903 4837.375 
467.160675 1281.425781 
505.151184 559.675781 
533.151184 1482.001953 
534.153442 456.0 
552.16626 253.199219 
556.161438 380.879883 
558.165161 221.0 
615.457886 135.0 
624.144653 144.0 
653.298645 109.0 
668.121582 165.0 
668.420349 118.0 
731.477234 94156.8125 
732.479797 43350.9375 
733.482117 12260.515625 
753.458923 123878.8125 
754.46228 57444.34375 
755.465271 16426.46875 
END IONS

BEGIN IONS
RTINSECONDS=198.283005
CHARGE=1-
MSLEVEL=2
SMILES=O=C1Oc2c(c3C[C@@](O)(CCCCC)OC(=O)c3c(O)c2)Oc2c1c(cc(c2)OC)CC(=O)CCCCC
INCHI=InChI=1S/C29H34O9/c1-4-6-8-10-18(30)12-17-13-19(35-3)14-22-24(17)27(32)37-23-15-21(31)25-20(26(23)36-22)16-29(34,38-28(25)33)11-9-7-5-2/h13-15,31,34H,4-12,16H2,1-3H3/t29-/m1/s1
INCHIKEY=DQYWDDCXRXABIH-GDLZYMKVSA-N
CLASS=Depsidones
ADDUCT=[M-H+CH3OH]-
INSTRUMENT=Waters Q-ToF Xevo G2-XS
PRECURSOR_MZ=557.2387
COMPOUND_NAME=Alpha-collatolic acid
ION_MODE=negative
FORMULA=C29H34O9
81.95018 49.0 
97.112846 199.0 
111.002983 84.0 
123.008911 275.0 
137.022751 109.366272 
162.030685 109.0 
165.020355 259.0 
191.103775 124.429932 
219.09761 478.999756 
261.112579 357.188232 
269.048615 253.0 
270.052979 321.0 
284.073151 321.0 
285.074768 960.0 
293.135315 570.327637 
324.134338 180.226562 
367.119812 147.185181 
368.126434 373.861816 
383.153503 1726.160156 
383.196991 136.0 
383.227997 146.0 
437.227753 758.0 
439.29007 198.0 
463.20462 119.261536 
469.257904 288.587158 
481.22995 1279.259766 
507.198273 128.463013 
513.243286 411.393799 
691.561218 46.0 
770.370911 52.0 
END IONS

BEGIN IONS
RTINSECONDS=146.492004
CHARGE=1-
MSLEVEL=2
SMILES=O=C1c2c(C)cc(O)c(C=O)c2Oc2c(O1)c(c(c1c2C(O)OC1=O)O)C
INCHI=InChI=1S/C18H12O9/c1-5-3-8(20)7(4-19)14-9(5)16(22)26-13-6(2)12(21)10-11(15(13)25-14)18(24)27-17(10)23/h3-4,18,20-21,24H,1-2H3
INCHIKEY=IEVVSJFLBYOUCJ-UHFFFAOYSA-N
CLASS=Depsidones
ADDUCT=[M-H]-
INSTRUMENT=Waters Q-ToF Xevo G2-XS
PRECURSOR_MZ=371.0403
COMPOUND_NAME=Norstictic acid
ION_MODE=negative
FORMULA=C18H12O9
69.002487 5687.605469 
93.037064 11203.734375 
121.03125 33891.1875 
149.026566 45842.78125 
151.041595 46098.0625 
171.050858 62799.34375 
187.042435 78695.1875 
211.075348 169332.625 
227.041718 615297.0 
240.045029 122300.75 
243.032455 596385.0 
255.067917 276829.75 
283.065186 533612.0 
327.050873 556962.0 
470.9646 11718.320312 
471.968109 3121.982422 
475.087433 4699.835938 
487.123077 2588.515625 
515.966553 1182.631836 
555.112061 558.0 
557.002319 382.0 
562.007324 429.918457 
584.9953 324.664307 
585.03418 232.0 
619.090698 231.0 
641.685791 154.0 
651.946106 133.0 
664.024475 269.397949 
664.69458 149.0 
678.045349 225.0 
743.084839 2200.632812 
744.09137 860.794434 
765.070923 16731.890625 
766.074036 6106.484375 
767.064941 2224.585938 
796.000183 4843.179688 
797.005615 2224.78125 
END IONS

BEGIN IONS
RTINSECONDS=101.468002
CHARGE=1-
MSLEVEL=2
SMILES=O=C(O)c1c(C)c(Cl)c(O)cc1O
INCHI=InChI=1S/C8H7ClO4/c1-3-6(8(12)13)4(10)2-5(11)7(3)9/h2,10-11H,1H3,(H,12,13)
INCHIKEY=GZQRFGTYUAPOOM-UHFFFAOYSA-N
CLASS=Cleavage Products of Depsides and Depsidones
ADDUCT=[M-H]-
INSTRUMENT=Waters Q-ToF Xevo G2-XS
PRECURSOR_MZ=200.9955
COMPOUND_NAME=5-Chloroorsellinic acid
ION_MODE=negative
FORMULA=C8H7ClO4
65.042145 7457.574219 
93.041466 705378.5 
93.259331 4596.457031 
94.041832 1958.97168 
121.031403 156708.125 
157.017166 826315.5 
258.516205 244.0 
283.916718 173.0 
300.913788 324.873779 
301.920929 140.918579 
302.917999 227.237915 
345.920319 353.660156 
356.996338 204.150513 
358.984497 221.952881 
359.07196 241.264038 
424.980621 10088.148438 
425.98349 2132.085938 
426.97644 7518.386719 
455.91275 8628.304688 
456.912628 2291.546875 
457.909119 4678.097656 
493.88324 933.365234 
559.156982 133.0 
571.939575 394.929199 
572.845154 160.0 
642.948059 2855.248047 
644.945984 3137.314453 
658.921265 3457.169922 
660.921936 6267.824219 
662.91687 4250.121094 
681.891357 2543.632812 
742.871399 304.948486 
749.892029 328.0 
762.832947 320.092773 
763.831909 260.448486 
END IONS

BEGIN IONS
RTINSECONDS=135.457993
CHARGE=1-
MSLEVEL=2
SMILES=Cc1cc(c(c(c1Cl)O)C=O)O
INCHI=InChI=1S/C8H7ClO3/c1-4-2-6(11)5(3-10)8(12)7(4)9/h2-3,11-12H,1H3
INCHIKEY=IOTAGSGSURFFDS-UHFFFAOYSA-N
CLASS=Cleavage Products of Depsides and Depsidones
ADDUCT=[M-H]-
INSTRUMENT=Waters Q-ToF Xevo G2-XS
PRECURSOR_MZ=185.0005
COMPOUND_NAME=Chloratranol
ION_MODE=negative
FORMULA=C8H7ClO3
65.038017 1508.328125 
69.002411 5410.984375 
73.011436 800.692383 
75.027596 4450.894531 
93.036995 135659.375 
121.031212 40318.375 
157.004837 736479.0 
157.092667 59198.15625 
283.003906 345.0 
287.099823 228.321411 
333.015625 894.931641 
334.996368 346.673584 
336.990021 438.0 
351.014832 235.258789 
369.001984 305.182373 
370.997009 299.556641 
428.902557 168.0 
428.975586 124.838806 
443.009064 124.0 
463.003693 156.0 
495.106018 244.0 
500.923615 133.79541 
507.9039 142.404907 
514.991272 133.06665 
517.005615 238.968994 
519.003601 146.459106 
577.164978 95.0 
611.031555 142.0 
647.903015 254.0 
649.909424 198.47876 
655.939575 286.42334 
657.931519 189.0 
708.149841 148.0 
711.908142 102.0 
795.924255 259.31958 
796.926819 191.666992 
797.924316 377.968262 
798.946228 165.0 
799.918396 122.0 
799.946411 203.181763 
END IONS

BEGIN IONS
RTINSECONDS=153.753006
CHARGE=1-
MSLEVEL=2
SMILES=O=C(OC)/C(=C\1/OC(=O)C(=C1OC)c1ccccc1)/c1c(OC)cccc1
INCHI=InChI=1S/C21H18O6/c1-24-15-12-8-7-11-14(15)17(20(22)26-3)19-18(25-2)16(21(23)27-19)13-9-5-4-6-10-13/h4-12H,1-3H3/b19-17+
INCHIKEY=WGZKMINRLLRJPF-HTXNQAPBSA-N
CLASS=Pulvinic Acid Derivatives
ADDUCT=[M-H+CH3OH]-
INSTRUMENT=Waters Q-ToF Xevo G2-XS
PRECURSOR_MZ=397.1287
COMPOUND_NAME=Leprapinic acid methyl ether
ION_MODE=negative
FORMULA=C21H18O6
50.410522 181.0 
60.366337 130.0 
101.038147 1330.560547 
117.034775 1056.933594 
131.048782 278.050781 
132.019287 1542.104492 
132.058762 261.0 
147.042999 579.046875 
193.064148 771.245605 
217.064255 608.299805 
233.060059 1366.71582 
263.075195 1173.227539 
264.077698 882.763184 
291.065674 1427.741211 
291.098419 694.197266 
292.075256 3010.636719 
307.095551 7895.082031 
351.086792 2488.136719 
474.742249 64.0 
482.889862 44.0 
493.799408 59.0 
495.840515 51.0 
496.253357 46.0 
526.054382 51.0 
534.18335 82.0 
535.67572 47.0 
552.765442 111.0 
584.354858 48.0 
607.793884 50.0 
623.301025 79.0 
629.787476 66.0 
657.052124 52.0 
664.699402 46.0 
704.895752 175.0 
711.742859 68.0 
717.674011 59.0 
728.53302 80.0 
758.560974 57.0 
762.812866 65.0 
786.685547 42.0 
787.609192 65.0 
788.633118 48.0 
END IONS

BEGIN IONS
RTINSECONDS=167.891006
CHARGE=1-
MSLEVEL=2
SMILES=O=C1C(=C(O)/C(=C(/c2ccccc2)\C(=O)O)/O1)c1ccccc1
INCHI=InChI=1S/C18H12O5/c19-15-13(11-7-3-1-4-8-11)18(22)23-16(15)14(17(20)21)12-9-5-2-6-10-12/h1-10,19H,(H,20,21)/b16-14+
INCHIKEY=CMFBGFRHPQTELQ-JQIJEIRASA-N
CLASS=Pulvinic Acid Derivatives
ADDUCT=[M-H]-
INSTRUMENT=Waters Q-ToF Xevo G2-XS
PRECURSOR_MZ=307.0606
COMPOUND_NAME=Pulvinic acid
ION_MODE=negative
FORMULA=C18H12O5
101.040741 7545.738281 
117.039436 631548.0 
117.228691 10547.132812 
117.285706 1360.261719 
118.040291 2053.896484 
125.039177 4440.953125 
191.088654 191837.375 
192.087402 1669.0 
201.070251 1456.330078 
219.082535 19078.046875 
263.070221 767735.0 
263.16391 46200.90625 
263.364807 13607.476562 
389.894623 205.0 
389.977966 180.0 
397.034607 219.0 
397.126862 159.0 
444.665894 201.0 
451.980255 364.0 
466.397034 169.0 
467.153839 146.0 
467.856689 178.0 
474.97171 155.0 
516.929443 112.0 
556.328552 83.0 
561.806274 78.0 
579.858276 107.0 
629.978149 148.0 
637.110901 1795.866211 
637.162537 149.447144 
638.109131 783.658203 
639.094971 150.46936 
639.119995 245.412354 
724.03009 123.0 
732.862976 130.0 
736.152954 103.0 
765.21106 100.0 
781.901611 98.0 
786.732239 224.0 
791.070862 86.0 
795.0672 81.0 
END IONS

BEGIN IONS
RTINSECONDS=112.294998
CHARGE=1-
MSLEVEL=2
SMILES=O[C@H]1[C@H](O)[C@@H](O)[C@H](Oc2c(C)c3oc(C)cc(=O)c3c(O)c2C)O[C@@H]1COC(=O)C
INCHI=InChI=1S/C20H24O10/c1-7-5-11(22)13-14(23)8(2)18(9(3)19(13)28-7)30-20-17(26)16(25)15(24)12(29-20)6-27-10(4)21/h5,12,15-17,20,23-26H,6H2,1-4H3/t12-,15-,16+,17-,20+/m1/s1
INCHIKEY=NJRLDXGREKHXGV-IVABAYMNSA-N
CLASS=Chromanes and Chromones
ADDUCT=[M-H+HCOOH]-
INSTRUMENT=Waters Q-ToF Xevo G2-XS
PRECURSOR_MZ=469.1346
COMPOUND_NAME=Galapagin
ION_MODE=negative
FORMULA=C20H24O10
79.023788 8531.945312 
83.01973 7911.546875 
119.055092 20896.703125 
133.066513 15754.34375 
149.051315 17165.3125 
175.074814 116181.6875 
177.04451 65162.84375 
218.058868 619527.0 
218.147766 40967.375 
219.073349 1108804.0 
220.072983 610357.5 
303.088043 1148.193359 
346.09964 509.63501 
363.108429 19194.28125 
363.157013 846.799316 
363.191925 640.28125 
364.112152 306.348877 
423.12973 967829.0 
424.136993 930542.5 
523.054749 2879.0 
558.022217 1072.0 
564.057922 891.787109 
566.065369 701.0 
568.053589 7274.777344 
569.052185 2004.013672 
618.030334 1091.124023 
619.033875 430.014404 
636.037476 741.961914 
637.033081 284.203857 
680.118958 319.172119 
684.99115 366.29834 
704.020874 262.134277 
752.959412 244.565674 
759.920654 187.0 
766.017151 119.76062 
772.007996 117.0 
784.672913 214.0 
END IONS

BEGIN IONS
RTINSECONDS=192.654007
CHARGE=1-
MSLEVEL=2
SMILES=O=C1Oc2c(c3C[C@@](O)(CCCCC)OC(=O)c3c(O)c2)Oc2c1c(cc(c2)OC)CC(=O)CCCCC
INCHI=InChI=1S/C29H34O9/c1-4-6-8-10-18(30)12-17-13-19(35-3)14-22-24(17)27(32)37-23-15-21(31)25-20(26(23)36-22)16-29(34,38-28(25)33)11-9-7-5-2/h13-15,31,34H,4-12,16H2,1-3H3/t29-/m1/s1
INCHIKEY=DQYWDDCXRXABIH-GDLZYMKVSA-N
CLASS=Depsidones
ADDUCT=[M-H]-
INSTRUMENT=Waters Q-ToF Xevo G2-XS
PRECURSOR_MZ=525.2125
COMPOUND_NAME=Alpha-collatolic acid
ION_MODE=negative
FORMULA=C29H34O9
109.032921 7656.699219 
111.017754 5796.527344 
122.042633 14642.125 
123.014244 34128.25 
124.019287 23941.640625 
137.033569 24925.5 
165.023239 103596.1875 
189.055115 82590.8125 
219.103271 223987.125 
225.059891 91513.125 
226.063583 163853.375 
260.13205 256299.875 
285.090332 427860.0 
285.113586 511180.75 
300.142822 440216.0 
315.161621 843773.0 
316.168518 306720.0 
367.125671 545146.5 
368.126129 869885.0 
369.135101 351906.25 
383.156342 1508176.0 
384.155029 1074472.0 
437.232971 216619.875 
465.196503 178812.75 
466.197815 149767.625 
480.239624 343292.25 
481.225037 349872.75 
592.220703 9070.734375 
593.205139 5977.941406 
624.154907 4373.042969 
625.141724 92889.0625 
626.146057 40737.875 
627.143677 14442.445312 
693.126953 3005.494141 
763.108215 386.778809 
775.071899 525.925293 
776.095215 339.452393 
791.38031 358.851318 
END IONS

BEGIN IONS
RTINSECONDS=23.336
CHARGE=1-
MSLEVEL=2
SMILES=C(=C\C(=O)O)/C(=O)O
INCHI=InChI=1S/C4H4O4/c5-3(6)1-2-4(7)8/h1-2H,(H,5,6)(H,7,8)/b2-1+
INCHIKEY=VZCYOOQTPOCHFL-OWOJBTEDSA-N
CLASS=Acids
ADDUCT=[M-H]-
INSTRUMENT=Waters Q-ToF Xevo G2-XS
PRECURSOR_MZ=115.0031
COMPOUND_NAME=Fumaric acid
ION_MODE=negative
FORMULA=C4H4O4
71.017776 5073.308594 
79.98214 218.0 
85.14608 222.0 
97.932655 1139.0 
142.315369 379.0 
178.147858 318.0 
181.155487 179.0 
182.100098 153.0 
215.309448 124.0 
253.000366 609.0 
253.995224 144.0 
283.073639 169.0 
320.978485 156.0 
330.944244 177.0 
331.016632 247.0 
384.971802 658.247559 
400.946045 2034.307617 
401.945435 498.544678 
417.951447 776.516602 
445.942627 3926.28125 
446.946777 553.973633 
470.930939 225.0 
515.94635 2549.224609 
516.952881 656.0 
537.932068 770.0 
538.936584 738.0 
539.021729 285.0 
570.875977 221.0 
583.922363 218.291626 
587.877869 519.0 
600.905823 200.0 
653.942017 536.17627 
654.951111 262.06543 
670.888977 266.111572 
686.89679 487.0 
687.893799 233.0 
735.917603 268.0 
755.803589 144.0 
769.829102 154.0 
770.565369 212.0 
799.882812 131.0 
END IONS

BEGIN IONS
RTINSECONDS=19.962999
CHARGE=1-
MSLEVEL=2
SMILES=COC1=C(NC(CO)CO)C[C@](CO)(O)CC1=O
INCHI=InChI=1S/C11H19NO6/c1-18-10-8(12-7(4-13)5-14)2-11(17,6-15)3-9(10)16/h7,12-15,17H,2-6H2,1H3/t11-/m0/s1
INCHIKEY=VVTDHOIRNPCGTH-NSHDSACASA-N
CLASS=Mycosporines
ADDUCT=[M-H+HCOOH]-
INSTRUMENT=Waters Q-ToF Xevo G2-XS
PRECURSOR_MZ=306.1189
COMPOUND_NAME=Mycosporine serinol
ION_MODE=negative
FORMULA=C11H19NO6
75.011864 7647.554688 
80.049385 4236.386719 
98.058014 3942.875 
99.01088 9106.820312 
145.0513 9128.078125 
167.059662 61831.84375 
178.049042 9460.390625 
179.059921 26912.46875 
194.080002 12407.867188 
197.067841 123137.3125 
227.077805 66807.6875 
242.101944 218665.0 
260.112335 495684.75 
260.184998 29930.09375 
358.855896 75.0 
412.938049 97.0 
412.996948 89.0 
414.151276 66.040466 
431.031433 78.0 
443.17868 97.0 
456.112213 81.0 
463.082489 81.0 
477.583862 83.0 
502.995605 98.0 
517.072754 110.0 
531.116882 100.0 
533.154846 109.0 
541.073486 114.0 
554.19104 113.0 
619.986328 97.0 
635.563965 99.0 
640.141846 135.0 
657.043274 140.0 
672.110657 92.0 
673.172546 98.0 
711.244568 136.0 
713.070679 68.0 
730.251892 125.0 
735.018921 66.281494 
778.44397 72.0 
787.074768 93.0 
797.057251 111.0 
END IONS

BEGIN IONS
RTINSECONDS=209.322998
CHARGE=1-
MSLEVEL=2
SMILES=O=C1C(=C(O)/C(=C(/c2ccccc2)\C(=O)N[C@@H](Cc2ccccc2)C(=O)OC)/O1)c1ccccc1
INCHI=InChI=1S/C28H23NO6/c1-34-27(32)21(17-18-11-5-2-6-12-18)29-26(31)23(20-15-9-4-10-16-20)25-24(30)22(28(33)35-25)19-13-7-3-8-14-19/h2-16,21,30H,17H2,1H3,(H,29,31)/b25-23+/t21-/m0/s1
INCHIKEY=DKDGWAKCXBFTMM-KZKMBZSSSA-N
CLASS=Pulvinic Acid Derivatives
ADDUCT=[M-H]-
INSTRUMENT=Waters Q-ToF Xevo G2-XS
PRECURSOR_MZ=468.1447
COMPOUND_NAME=Rhizocarpic acid
ION_MODE=negative
FORMULA=C28H23NO6
51.402637 214.070435 
51.553055 136.0 
56.685169 182.0 
101.041527 5719.148438 
102.043785 2246.771484 
116.048149 1312.354492 
117.03595 574749.0 
117.107063 52733.125 
118.039101 212542.0 
191.085907 398555.25 
191.152283 25239.796875 
192.091858 164644.5 
263.070953 1368959.0 
263.170105 183939.125 
263.210083 164789.75 
264.080811 878975.0 
301.074463 219007.375 
302.079712 71435.3125 
332.093597 5593.15625 
333.100769 4880.464844 
364.137024 3911.558594 
392.131836 30452.625 
393.131927 15765.921875 
396.158936 2403.328125 
536.130127 465.381836 
537.13385 225.0 
570.072144 849.484375 
572.063232 286.875488 
608.05896 1037.441406 
609.070435 426.203125 
636.062378 707.949707 
637.053955 432.955566 
638.066772 270.259033 
640.053284 208.454712 
720.999695 91.0 
721.173523 113.0 
728.812439 94.0 
782.796448 83.0 
784.486023 116.0 
785.961853 124.0 
786.620728 83.0 
795.700073 118.0 
END IONS

BEGIN IONS
RTINSECONDS=221.669998
CHARGE=1-
MSLEVEL=2
SMILES=CCCCCCCCCCCCC[C@@H]1OC(=O)C(=C)[C@@H]1C(=O)O
INCHI=InChI=1S/C19H32O4/c1-3-4-5-6-7-8-9-10-11-12-13-14-16-17(18(20)21)15(2)19(22)23-16/h16-17H,2-14H2,1H3,(H,20,21)/t16-,17-/m0/s1
INCHIKEY=WZYZDHVPSZCEEP-IRXDYDNUSA-N
CLASS=Paraconic acids
ADDUCT=[M-H]-
INSTRUMENT=Waters Q-ToF Xevo G2-XS
PRECURSOR_MZ=323.2222
COMPOUND_NAME=allo-Protolichesterinic acid
ION_MODE=negative
FORMULA=C19H32O4
64.21228 172.0 
66.233772 205.0 
96.222298 234.0 
96.959045 243.0 
108.885429 234.0 
130.170197 336.0 
131.071854 232.0 
133.996368 247.0 
164.9245 253.0 
183.019226 389.753418 
235.246765 253598.625 
236.246552 71931.375 
279.233459 1253726.0 
280.256012 725970.0 
391.209595 3569.917969 
423.150299 48923.4375 
423.235382 1636.900391 
424.1521 14283.648438 
425.154266 2176.378906 
463.139923 1704.661133 
491.13913 3319.158203 
492.140442 1567.21582 
507.119995 553.172852 
539.144531 307.293213 
591.064758 741.839355 
592.07135 317.0 
647.45813 111766.1875 
648.460693 44243.59375 
669.441223 223926.0 
670.443115 119058.1875 
671.446289 31315.53125 
685.414978 21560.5625 
730.378479 5251.359375 
749.379211 4479.339844 
769.36792 40742.5 
770.369324 20147.703125 
771.371094 6236.671875 
785.336548 2416.271484 
END IONS

BEGIN IONS
RTINSECONDS=147.360001
CHARGE=1-
MSLEVEL=2
SMILES=O=C1Oc2c(c(C)c(C(=O)O)c(O)c2COC)Oc2c(C=O)c(O)cc(C)c12
INCHI=InChI=1S/C19H16O9/c1-7-4-11(21)9(5-20)16-12(7)19(25)28-17-10(6-26-3)14(22)13(18(23)24)8(2)15(17)27-16/h4-5,21-22H,6H2,1-3H3,(H,23,24)
INCHIKEY=IJJZZLYYFYYEHT-UHFFFAOYSA-N
CLASS=Depsidones
ADDUCT=[M-H+CH3OH]-
INSTRUMENT=Waters Q-ToF Xevo G2-XS
PRECURSOR_MZ=419.0978
COMPOUND_NAME=9'-methylprotocetraric acid
ION_MODE=negative
FORMULA=C19H16O9
69.000885 1366.382812 
105.034615 17486.765625 
107.03006 4731.066406 
135.045929 10886.773438 
149.022888 36783.9375 
165.057419 18962.53125 
207.03334 14698.835938 
209.051788 17528.0 
239.073395 65883.9375 
255.066208 15371.71875 
265.049896 18943.734375 
267.069336 96210.0 
283.061829 43017.5 
311.055176 99843.6875 
325.072845 13698.5625 
343.081604 35027.0 
355.044769 17431.671875 
369.060486 11836.703125 
387.071838 392555.0 
387.159424 17487.296875 
447.334534 6760.367188 
475.326141 2701.177734 
476.328949 790.847168 
519.022095 1897.126953 
535.379333 864.291504 
564.023865 1042.329102 
581.390198 1801.939453 
582.390564 587.0 
587.010864 389.467041 
588.017883 244.0 
597.240356 215.0 
654.317627 98.0 
658.457031 97.0 
667.337585 102.0 
671.117981 108.0 
688.945923 141.0 
712.084045 331.105957 
713.087097 102.648865 
714.062805 162.0 
733.954285 102.019287 
766.357483 80.0 
767.222107 89.0 
771.763062 80.0 
785.166992 83.0 
795.35199 156.0 
END IONS

BEGIN IONS
RTINSECONDS=185.789993
CHARGE=1-
MSLEVEL=2
SMILES=Oc1cc(OC(=O)c2c(O)cc(O)cc2CC(=O)CCCCC)cc(CCCCC)c1C(=O)O
INCHI=InChI=1S/C26H32O8/c1-3-5-7-9-16-13-20(15-22(30)23(16)25(31)32)34-26(33)24-17(12-19(28)14-21(24)29)11-18(27)10-8-6-4-2/h12-15,28-30H,3-11H2,1-2H3,(H,31,32)
INCHIKEY=VZPLPGICHZXOCQ-UHFFFAOYSA-N
CLASS=Depsides (Didepsides)
ADDUCT=[M-H]-
INSTRUMENT=Waters Q-ToF Xevo G2-XS
PRECURSOR_MZ=471.2019
COMPOUND_NAME=Olivetoric acid
ION_MODE=negative
FORMULA=C26H32O8
81.038826 50799.875 
105.038124 125863.125 
123.048546 201826.375 
137.100327 136630.125 
146.040756 134277.0 
149.031952 781145.0 
179.116455 1234747.0 
180.11441 601776.5 
205.090012 329364.0 
223.111267 1416733.0 
224.10994 726750.0 
247.097839 889416.0 
265.111877 328250.75 
284.135468 83103.625 
324.136505 27411.75 
325.139374 71414.625 
358.209961 46123.53125 
381.206451 64918.4375 
382.210358 217782.625 
383.200989 47829.0625 
384.194427 244930.125 
426.200409 537835.0 
525.209229 740.0 
567.105286 670.786133 
571.124573 9740.109375 
573.10968 789.621582 
610.109985 1167.525391 
621.232117 525.952637 
630.346252 1035.0 
660.135437 316.891846 
675.326782 322.0 
716.3349 285.178711 
719.293884 305.175781 
730.308289 854.646973 
730.346069 282.100098 
731.318848 216.652344 
735.303589 233.307739 
788.056152 146.0 
END IONS

BEGIN IONS
RTINSECONDS=191.753006
CHARGE=1-
MSLEVEL=2
SMILES=COc1cc(OC(=O)C)c2c(C(=O)c3c(C2=O)cc(C(=O)C)c(OC(=O)C)c3)c1
INCHI=InChI=1S/C21H16O8/c1-9(22)13-7-14-15(8-17(13)28-10(2)23)20(25)16-5-12(27-4)6-18(29-11(3)24)19(16)21(14)26/h5-8H,1-4H3
INCHIKEY=ZBZOJMZUBIFVJK-UHFFFAOYSA-N
CLASS=Quinones
ADDUCT=[M-H+HCOOH]-
INSTRUMENT=Waters Q-ToF Xevo G2-XS
PRECURSOR_MZ=441.0822
COMPOUND_NAME=Acetylnemetzon
ION_MODE=negative
FORMULA=C21H16O8
57.721863 46.0 
84.989326 1279.521484 
96.958649 115.0 
122.036552 299.616699 
150.068558 558.986816 
165.088455 345.347168 
227.112396 485.505615 
241.122574 2064.308594 
255.141678 1081.585938 
269.156219 504.979736 
270.163818 1735.022461 
283.17038 946.63623 
285.187653 36967.375 
329.174316 2558.021484 
339.172241 72.0 
369.162048 220.37793 
395.131378 266.0 
397.162842 22708.4375 
397.220856 705.364746 
397.251404 731.723145 
510.403198 35.0 
557.467651 22.0 
558.185852 32.0 
567.656616 21.0 
582.074158 28.0 
609.286072 24.0 
791.564209 36.0 
END IONS

BEGIN IONS
RTINSECONDS=209.362
CHARGE=1-
MSLEVEL=2
SMILES=OC(=O)c1c(OC)cc(cc1CCCCC)OC(=O)c1c(CCCCC)cc(OC)cc1OC
INCHI=InChI=1S/C27H36O7/c1-6-8-10-12-18-15-21(17-22(32-4)24(18)26(28)29)34-27(30)25-19(13-11-9-7-2)14-20(31-3)16-23(25)33-5/h14-17H,6-13H2,1-5H3,(H,28,29)
INCHIKEY=FNJKTDQIJKLZGZ-UHFFFAOYSA-N
CLASS=Depsides (Didepsides)
ADDUCT=[M-H]-
INSTRUMENT=Waters Q-ToF Xevo G2-XS
PRECURSOR_MZ=471.2383
COMPOUND_NAME=Planaic acid
ION_MODE=negative
FORMULA=C27H36O7
53.430897 269.0 
78.8349 191.0 
121.029144 381.0 
122.036942 2116.201172 
177.131729 5778.988281 
178.100311 2639.177734 
193.125046 39582.5 
193.176437 1965.790039 
207.140503 3117.087891 
251.128632 7040.394531 
279.067169 747.101074 
324.136353 2614.664062 
337.146149 10567.3125 
339.162048 2463.423828 
350.187775 2218.226562 
365.210876 8684.914062 
395.222809 19905.5 
427.246765 5560.632812 
539.204224 192.264893 
539.228027 1708.250977 
540.226074 442.176025 
546.762573 190.0 
601.186951 279.064697 
607.219482 270.776367 
619.178467 557.844727 
621.169983 248.895508 
658.158752 251.28833 
658.193237 352.213379 
726.151001 163.0 
730.161926 209.871338 
743.130249 135.235474 
751.09845 163.0 
757.173767 168.0 
763.086182 148.0 
771.083984 138.0 
798.117798 178.0 
END IONS

BEGIN IONS
RTINSECONDS=185.639999
CHARGE=1-
MSLEVEL=2
SMILES=Cc1c(c(O)c(C)c(OC)c1)C(=O)Oc1cc(C)c(C(=O)O)c(O)c1
INCHI=InChI=1S/C18H18O7/c1-8-5-11(7-12(19)14(8)17(21)22)25-18(23)15-9(2)6-13(24-4)10(3)16(15)20/h5-7,19-20H,1-4H3,(H,21,22)
INCHIKEY=GEZCJRBINSDUSC-UHFFFAOYSA-N
CLASS=Depsides (Didepsides)
ADDUCT=[M-H]-
INSTRUMENT=Waters Q-ToF Xevo G2-XS
PRECURSOR_MZ=345.0974
COMPOUND_NAME=Obtusatic acid
ION_MODE=negative
FORMULA=C18H18O7
77.044296 2564.503906 
79.058434 63074.125 
81.037582 114046.3125 
105.037415 337967.0 
123.050659 644097.0 
149.03215 915459.0 
167.035812 1061086.0 
167.108505 119535.625 
167.21022 48676.21875 
167.243713 31039.28125 
226.062714 362.114258 
227.06929 544.324219 
241.088272 1089.385742 
242.090729 876.71582 
257.11734 1808.876953 
413.084625 1031.824219 
445.022705 15408.75 
446.02301 4551.609375 
447.026276 723.118164 
453.285217 899.122559 
490.018188 697.681641 
513.00531 566.556641 
515.016052 226.0 
535.120789 240.526855 
544.960022 140.0 
583.001953 145.992798 
612.940491 139.595215 
629.144836 115.0 
630.064392 116.0 
640.959473 125.0 
713.183289 61484.53125 
713.301453 2304.105469 
714.185425 22230.296875 
715.184692 6898.003906 
744.115112 3685.369141 
745.11969 1418.020508 
769.102356 954.34082 
793.117554 1174.661133 
794.130554 407.0 
END IONS

BEGIN IONS
RTINSECONDS=121.839996
CHARGE=1-
MSLEVEL=2
SMILES=Cc1c(c(c2c(c1)C(=O)c1cc(cc(c1C2=O)O)O)O)C(=O)O
INCHI=InChI=1S/C16H10O7/c1-5-2-7-12(14(20)10(5)16(22)23)15(21)11-8(13(7)19)3-6(17)4-9(11)18/h2-4,17-18,20H,1H3,(H,22,23)
INCHIKEY=UZOHDKGTYVTYDZ-UHFFFAOYSA-N
CLASS=Quinones
ADDUCT=[M-H]-
INSTRUMENT=Waters Q-ToF Xevo G2-XS
PRECURSOR_MZ=313.0348
COMPOUND_NAME=Endocrocin
ION_MODE=negative
FORMULA=C16H10O7
60.084366 109.0 
95.827805 136.0 
100.93325 283.775391 
105.032524 301.0 
105.074051 227.0 
181.077911 892.012207 
182.036896 1584.453125 
185.060226 973.099609 
197.060287 1465.0 
210.031906 1216.515625 
225.055557 8403.265625 
241.049088 2064.0625 
269.045044 20232.609375 
295.027374 209.112427 
352.865265 84.0 
364.101868 59.0 
369.700073 62.0 
379.933838 63.0 
438.387115 69.0 
441.840546 44.0 
442.380005 73.0 
466.758453 58.0 
487.020325 59.0 
513.818848 49.0 
526.887756 63.0 
545.861389 73.0 
548.010254 66.0 
552.768005 39.0 
604.869812 39.0 
615.842346 45.0 
620.9151 62.0 
630.755127 37.0 
639.246338 47.0 
650.03772 57.0 
682.323975 62.0 
699.870239 93.0 
706.664185 49.0 
712.844177 58.0 
723.747742 57.0 
724.313599 49.0 
772.647949 63.0 
789.276306 45.0 
790.941772 45.0 
799.838074 37.0 
END IONS

BEGIN IONS
RTINSECONDS=158.733994
CHARGE=1-
MSLEVEL=2
SMILES=O=C1c2c(C)cc(O)c(C=O)c2Oc2c(O1)c(c(cc2C(=O)O)OC)C
INCHI=InChI=1S/C18H14O8/c1-7-4-11(20)10(6-19)15-13(7)18(23)26-14-8(2)12(24-3)5-9(17(21)22)16(14)25-15/h4-6,20H,1-3H3,(H,21,22)
INCHIKEY=FUCWJKJZOHOLEO-UHFFFAOYSA-N
CLASS=Depsidones
ADDUCT=[M-H+HCOOH]-
INSTRUMENT=Waters Q-ToF Xevo G2-XS
PRECURSOR_MZ=403.0665
COMPOUND_NAME=Psoromic acid
ION_MODE=negative
FORMULA=C18H14O8
68.998962 787.390137 
83.017662 1225.492188 
135.046875 13132.65625 
196.051468 102287.5 
208.051559 160094.125 
224.046692 422274.0 
225.054504 226298.75 
228.041641 173549.375 
236.046707 248020.5 
268.072845 132397.5 
284.067902 222883.625 
312.062836 105784.125 
345.096771 555468.0 
359.112457 125006.8125 
371.077759 1244600.0 
371.164215 102845.0 
470.992767 966.435547 
471.017029 1066.193359 
472.003571 719.230957 
503.029724 6578.414062 
504.040558 1548.398438 
505.031464 743.850586 
543.022705 500.802734 
555.100952 153.0 
571.021362 404.906982 
594.037476 301.739258 
595.03064 162.600952 
655.759888 522.0 
663.289978 132.0 
664.863281 127.0 
692.03656 195.0 
761.177429 3266.681641 
765.145386 7972.257812 
766.144531 2943.070312 
783.158508 3087.041016 
797.173096 8659.234375 
798.18042 2224.978516 
END IONS

BEGIN IONS
RTINSECONDS=221.962006
CHARGE=1-
MSLEVEL=2
SMILES=CCCCCCCCCCCCCC[C@H](C(=O)OC)[C@@H](C(=O)O)CC(=O)O
INCHI=InChI=1S/C21H38O6/c1-3-4-5-6-7-8-9-10-11-12-13-14-15-17(21(26)27-2)18(20(24)25)16-19(22)23/h17-18H,3-16H2,1-2H3,(H,22,23)(H,24,25)/t17-,18-/m0/s1
INCHIKEY=LGCPAGYPUFWEBQ-ROUUACIJSA-N
CLASS=Acids
ADDUCT=[M-H]-
INSTRUMENT=Waters Q-ToF Xevo G2-XS
PRECURSOR_MZ=385.259
COMPOUND_NAME=Rangiformic acid
ION_MODE=negative
FORMULA=C21H38O6
71.030197 39340.53125 
83.053711 40887.09375 
98.004112 103259.375 
115.005768 20097.90625 
124.019112 70789.375 
129.021423 32733.40625 
255.23671 732379.0 
265.254547 1629860.0 
265.425018 419151.75 
266.27655 1317339.0 
293.212097 669724.5 
310.246552 741784.0 
353.23526 1619446.0 
354.243256 1232845.0 
453.247192 2944.570312 
483.197174 3467.5625 
485.190979 79261.25 
485.290253 3218.369141 
486.190918 25417.359375 
487.190704 6010.542969 
553.178894 1440.25293 
554.186401 435.074219 
555.173889 548.725586 
587.110535 317.743652 
623.162842 353.934814 
647.101074 255.0 
653.30011 210.717285 
666.166504 330.765137 
681.297668 203.659668 
691.150757 324.873535 
771.526978 3642.949219 
772.531982 1738.482422 
793.512939 58415.15625 
793.625671 2134.992188 
794.520569 29028.09375 
795.517578 7595.171875 
END IONS

BEGIN IONS
RTINSECONDS=177.807007
CHARGE=1-
MSLEVEL=2
SMILES=Cc1cc(OC)cc2c1c(=O)c1c(cc(O)c(Cl)c1O)o2
INCHI=InChI=1S/C15H11ClO5/c1-6-3-7(20-2)4-9-11(6)14(18)12-10(21-9)5-8(17)13(16)15(12)19/h3-5,17,19H,1-2H3
INCHIKEY=VZYXHXRKFKLWJI-UHFFFAOYSA-N
CLASS=Xanthones and bis-Xanthones
ADDUCT=[M-H]-
INSTRUMENT=Waters Q-ToF Xevo G2-XS
PRECURSOR_MZ=305.0217
COMPOUND_NAME=2-Chloro-6-O-methylnorlichexanthone
ION_MODE=negative
FORMULA=C15H11ClO5
51.077183 206.0 
106.044563 25789.734375 
128.976593 61392.625 
142.041626 101140.125 
169.031281 129889.5625 
170.037216 418113.0 
197.02626 48739.90625 
198.030746 448213.0 
226.029587 365605.0 
260.996552 252064.875 
262.003235 613304.0 
404.945862 6125.808594 
405.03183 346.845459 
405.946167 1341.591797 
406.951141 2022.677734 
407.948944 420.592773 
454.31723 348.18042 
485.258575 218.275879 
496.245605 327.150635 
521.303528 214.537964 
543.17926 1492.225586 
544.171082 306.651611 
545.180847 195.804321 
557.301941 152.0 
633.026672 394.45874 
635.017578 158.407837 
635.040833 173.22229 
637.159607 162.0 
693.97467 894.097168 
694.980103 400.467773 
695.97229 655.835449 
699.023743 266.361328 
701.024475 440.21167 
755.981445 429.13208 
756.977539 215.293335 
757.967773 260.0 
758.975525 135.0 
779.948669 120.0 
792.019775 124.0 
END IONS

BEGIN IONS
RTINSECONDS=106.429001
CHARGE=1-
MSLEVEL=2
SMILES=Cc1c(O)c(C(=O)O)c(C)cc1O
INCHI=InChI=1S/C9H10O4/c1-4-3-6(10)5(2)8(11)7(4)9(12)13/h3,10-11H,1-2H3,(H,12,13)
INCHIKEY=VHNLJRRECIZZPX-UHFFFAOYSA-N
CLASS=Cleavage Products of Depsides and Depsidones
ADDUCT=[2M-2H+Na]-
INSTRUMENT=Waters Q-ToF Xevo G2-XS
PRECURSOR_MZ=385.0899
COMPOUND_NAME=b-Orcinolcarboxylic acid
ION_MODE=negative
FORMULA=C9H10O4
81.034607 2307.974609 
93.073479 22007.078125 
119.052727 2897.693359 
137.062271 253405.875 
163.038437 26187.875 
181.049545 649293.5 
181.10788 45650.90625 
181.18457 18158.6875 
181.293182 10492.085938 
249.036575 189.327026 
264.464722 142.0 
299.087372 177.0 
315.108826 640.529785 
317.1026 217.240112 
317.191315 196.0 
454.89267 79.0 
470.467957 60.0 
490.385468 56.0 
492.209106 60.0 
509.176147 62.0 
524.246582 50.0 
572.745605 40.0 
573.037415 77.0 
583.621277 59.0 
619.107788 52.0 
634.787231 46.0 
658.577759 55.0 
669.449463 66.0 
685.746521 27.0 
688.440002 27.0 
718.235291 49.0 
731.724182 105.0 
747.095337 49.0 
748.674561 93.0 
748.748596 233.0 
770.140564 43.0 
783.115723 162.0 
790.216492 39.0 
797.485413 37.0 
END IONS

BEGIN IONS
RTINSECONDS=157.026993
CHARGE=1-
MSLEVEL=2
SMILES=Cc1cc(c(c(c1C(=O)O)O)C=O)O
INCHI=InChI=1S/C9H8O5/c1-4-2-6(11)5(3-10)8(12)7(4)9(13)14/h2-3,11-12H,1H3,(H,13,14)
INCHIKEY=KCOOTJRKKIDHTM-UHFFFAOYSA-N
CLASS=Cleavage Products of Depsides and Depsidones
ADDUCT=[M-H-H2O]-
INSTRUMENT=Waters Q-ToF Xevo G2-XS
PRECURSOR_MZ=177.0188
COMPOUND_NAME=Haematommic acid
ION_MODE=negative
FORMULA=C9H8O5
65.007683 18247.25 
69.001709 100932.4375 
105.036919 115644.375 
107.019791 30674.953125 
109.031792 23287.515625 
133.033081 431704.5 
229.080231 97.0 
235.972504 83.0 
243.075958 117.0 
271.480255 153.0 
286.826019 123.0 
306.999451 93.0 
308.974396 166.0 
360.527679 134.0 
364.246887 220.0 
367.978943 47.0 
375.285675 51.0 
386.189667 59.0 
422.45871 63.0 
422.545258 66.0 
443.46225 159.0 
452.9021 49.0 
477.033325 162.0 
494.16037 79.0 
518.745239 46.0 
533.810486 41.0 
555.623657 60.0 
557.988831 64.0 
563.37915 57.0 
565.128479 79.0 
576.47168 57.0 
590.036682 71.0 
618.039124 67.0 
630.963074 34.0 
637.309387 94.0 
659.036499 42.0 
679.914429 40.0 
686.395264 48.0 
707.571655 40.0 
710.655579 34.0 
727.621826 47.0 
733.941895 43.0 
749.869568 47.0 
759.886841 30.0 
786.302429 40.0 
790.226807 25.0 
END IONS

BEGIN IONS
RTINSECONDS=170.919006
CHARGE=1-
MSLEVEL=2
SMILES=O=C1c2c(C)c(Cl)c(O)c(Cl)c2Oc2c(O1)c(c(c(c2C)C(=O)OC)O)C
INCHI=InChI=1S/C18H14Cl2O7/c1-5-9-16(11(20)13(22)10(5)19)26-14-6(2)8(17(23)25-4)12(21)7(3)15(14)27-18(9)24/h21-22H,1-4H3
INCHIKEY=RCLFRVZNHRFQGE-UHFFFAOYSA-N
CLASS=Depsidones
ADDUCT=[M-H]-
INSTRUMENT=Waters Q-ToF Xevo G2-XS
PRECURSOR_MZ=411.0038
COMPOUND_NAME=Leoidin
ION_MODE=negative
FORMULA=C18H14Cl2O7
74.963646 499.0 
79.018272 288.437988 
89.017998 280.0 
96.964706 821.265625 
152.062332 2284.390625 
172.96228 9465.375 
173.965256 5778.984375 
180.050537 8884.007812 
208.047531 11492.632812 
279.001801 64117.0 
296.976135 322707.0 
297.975647 236291.375 
306.992645 334094.5 
334.987793 952238.0 
335.995636 966199.0 
367.017883 175237.625 
375.030853 188320.375 
478.99176 657.0 
510.929688 9335.585938 
511.935272 3188.728516 
512.928894 6434.277344 
513.934753 1666.131836 
514.928589 1179.65918 
578.918091 796.248535 
580.911804 646.664551 
601.932983 187.0 
603.923279 377.237793 
629.922974 123.0 
636.273804 279.0 
669.9151 113.0 
691.39624 401.8125 
692.393799 286.0 
712.813293 124.0 
735.419495 712.226074 
736.419067 375.0 
779.419556 219.231445 
779.456726 400.670166 
780.450623 210.0 
END IONS

BEGIN IONS
RTINSECONDS=228.899994
CHARGE=1-
MSLEVEL=2
SMILES=CCCCCCCCCCCCCC1C(C(=C)C(=O)O1)C(=O)O
INCHI=InChI=1S/C19H32O4/c1-3-4-5-6-7-8-9-10-11-12-13-14-16-17(18(20)21)15(2)19(22)23-16/h16-17H,2-14H2,1H3,(H,20,21)
INCHIKEY=WZYZDHVPSZCEEP-UHFFFAOYSA-N
CLASS=Paraconic acids
ADDUCT=[2M-H]-
INSTRUMENT=Waters Q-ToF Xevo G2-XS
PRECURSOR_MZ=647.4523
COMPOUND_NAME=Protolichesterinic acid
ION_MODE=negative
FORMULA=C19H32O4
64.870476 54.0 
66.763931 67.0 
68.049614 153.0 
80.888405 54.0 
106.429626 105.0 
107.026268 74.0 
110.099663 114.0 
149.998322 78.0 
152.272217 251.0 
162.743958 79.0 
166.227722 166.0 
209.030029 273.0 
235.243866 1896.907227 
236.246216 1856.060547 
279.232208 66814.9375 
280.235016 46408.5625 
323.22226 358707.75 
323.301697 18122.828125 
324.225464 295953.0 
324.299255 15971.117188 
379.157349 140.645142 
420.415344 109.0 
423.147247 3013.875 
423.181824 181.823608 
431.890381 107.0 
462.335938 57.0 
510.812683 53.0 
515.597778 45.0 
521.190613 109.0 
521.858704 58.0 
530.55603 79.0 
553.704529 134.0 
568.964966 60.0 
581.466309 231.758545 
669.435791 19203.625 
670.437195 7026.359375 
671.444275 1181.369141 
735.859253 157.0 
736.533752 41.0 
749.171448 49.0 
760.606262 43.0 
END IONS

BEGIN IONS
RTINSECONDS=192.945999
CHARGE=1-
MSLEVEL=2
SMILES=Oc1c(C(=O)Oc2cc(O)c(C(=O)O)c(CCCCC)c2)c(CC(=O)CCC)cc(OC)c1
INCHI=InChI=1S/C25H30O8/c1-4-6-7-9-15-11-19(14-20(27)22(15)24(29)30)33-25(31)23-16(10-17(26)8-5-2)12-18(32-3)13-21(23)28/h11-14,27-28H,4-10H2,1-3H3,(H,29,30)
INCHIKEY=PKLMGLZTAHCGBQ-UHFFFAOYSA-N
CLASS=Depsides (Didepsides)
ADDUCT=[M-H]-
INSTRUMENT=Waters Q-ToF Xevo G2-XS
PRECURSOR_MZ=457.1862
COMPOUND_NAME=Glomelliferic acid
ION_MODE=negative
FORMULA=C25H30O8
51.375496 135.0 
57.71933 163.0 
59.230183 131.0 
69.845787 162.0 
91.01857 781.93457 
137.096069 789.368652 
154.287994 234.0 
161.097244 1301.105469 
179.108063 4423.964844 
205.086304 11102.859375 
205.136688 502.137939 
223.095963 9484.8125 
223.123764 501.549072 
223.157196 597.738281 
233.085129 210.0 
283.133423 474.346191 
299.162689 236.279541 
299.258606 244.0 
307.782715 130.0 
339.206299 173.195312 
367.220734 121.0 
369.2099 346.650391 
369.280548 134.0 
393.194275 104.0 
541.024597 128.0 
553.781189 103.0 
557.094421 218.655151 
559.121216 126.0 
564.372925 225.0 
581.121521 106.0 
599.103943 106.0 
625.078674 117.0 
643.077576 124.0 
659.207458 211.0 
689.928711 126.0 
712.57782 126.0 
722.921631 120.0 
742.665527 119.0 
749.683411 130.003784 
768.801331 136.0 
773.029846 119.0 
781.678406 145.0 
END IONS

BEGIN IONS
RTINSECONDS=177.311996
CHARGE=1-
MSLEVEL=2
SMILES=O=c1oc(CCCCC)cc2c1c(cc(c2)OC)Oc1c(CC(=O)CCCCC)c(C(=O)O)c(O)cc1O
INCHI=InChI=1S/C29H34O9/c1-4-6-8-10-18(30)14-21-26(28(33)34)22(31)16-23(32)27(21)38-24-15-20(36-3)13-17-12-19(11-9-7-5-2)37-29(35)25(17)24/h12-13,15-16,31-32H,4-11,14H2,1-3H3,(H,33,34)
INCHIKEY=NDOGMEJTCDSZAS-UHFFFAOYSA-N
CLASS=Diphenylethers
ADDUCT=[M-H+CH3OH]-
INSTRUMENT=Waters Q-ToF Xevo G2-XS
PRECURSOR_MZ=557.2387
COMPOUND_NAME=Beta-Collatolic acid
ION_MODE=negative
FORMULA=C29H34O9
109.031517 3331.060547 
123.01445 3915.410156 
124.018181 7689.230469 
137.033279 4871.664062 
138.032608 4140.472656 
165.021362 4925.359375 
191.107864 11275.414062 
219.104019 44137.15625 
237.113693 15506.898438 
249.115311 24300.84375 
261.112518 55843.9375 
263.093964 16719.15625 
293.135559 22435.453125 
315.161285 21229.421875 
324.14035 31140.375 
339.159454 102849.125 
367.131683 8605.242188 
368.128418 35037.6875 
371.148041 60252.78125 
383.153442 147702.75 
437.233185 104866.8125 
463.213623 22642.484375 
469.221283 59095.46875 
481.224884 158472.0 
495.200409 95848.4375 
513.231689 50373.625 
625.227661 2391.183594 
657.128845 1259.84082 
657.163452 4237.878906 
658.170471 1595.458984 
659.158752 815.694336 
693.207031 530.920898 
725.148621 607.0 
769.134644 183.0 
786.115906 151.367432 
END IONS

BEGIN IONS
RTINSECONDS=214.496994
CHARGE=1-
MSLEVEL=2
SMILES=CCCCCCCCCCCCCCC(C(=O)O)C(CC(=O)OC)(C(=O)O)O
INCHI=InChI=1S/C21H38O7/c1-3-4-5-6-7-8-9-10-11-12-13-14-15-17(19(23)24)21(27,20(25)26)16-18(22)28-2/h17,27H,3-16H2,1-2H3,(H,23,24)(H,25,26)
INCHIKEY=HMJJWFFZRCLIDN-UHFFFAOYSA-N
CLASS=Acids
ADDUCT=[M-H]-
INSTRUMENT=Waters Q-ToF Xevo G2-XS
PRECURSOR_MZ=401.2539
COMPOUND_NAME=Caperatic acid
ION_MODE=negative
FORMULA=C21H38O7
73.034363 258658.75 
80.031502 40250.125 
87.013298 152270.125 
112.991638 176822.0 
124.022766 575808.0 
145.01973 712313.0 
145.233307 14183.46875 
146.021851 30483.734375 
253.255264 1391507.0 
254.267471 570883.0 
283.228851 1546643.0 
284.274994 976227.0 
307.22934 1468220.0 
307.255371 1412635.0 
308.23822 1188752.0 
339.256195 550090.0 
369.229584 992491.0 
467.179352 33348.3125 
468.181702 10368.960938 
469.231689 7561.339844 
501.183319 77734.5 
502.184814 26971.609375 
503.186859 6083.316406 
564.16449 677.847656 
569.166687 2224.644531 
570.172791 574.0 
620.376465 847.474609 
621.388184 609.469238 
623.383179 448.384766 
625.378418 401.0 
634.383545 606.71875 
674.439453 398.806885 
687.440979 444.276611 
717.424927 677.693848 
717.446167 1775.820312 
738.412354 1857.365234 
739.403564 1334.526367 
779.438293 3570.789062 
780.450317 5083.066406 
781.462097 1170.452148 
END IONS

BEGIN IONS
RTINSECONDS=202.809998
CHARGE=1-
MSLEVEL=2
SMILES=c1ccc(cc1)C1=C(C(=C2c3ccccc3OC2=O)OC1=O)O
INCHI=InChI=1S/C18H10O5/c19-15-13(10-6-2-1-3-7-10)17(20)23-16(15)14-11-8-4-5-9-12(11)22-18(14)21/h1-9,19H
INCHIKEY=CGRCGRBHNKRILW-UHFFFAOYSA-N
CLASS=Pulvinic Acid Derivatives
ADDUCT=[2M-2H+Na]-
INSTRUMENT=Waters Q-ToF Xevo G2-XS
PRECURSOR_MZ=633.0798
COMPOUND_NAME=Calycin
ION_MODE=negative
FORMULA=C18H10O5
58.234406 87.0 
65.98822 111.0 
79.064095 153.0 
97.99791 128.0 
108.839005 229.0 
125.037964 853.130371 
128.181671 135.0 
140.947342 167.0 
177.068329 1049.557617 
233.05986 903346.0 
233.126999 72103.875 
233.213043 30529.515625 
233.296906 18115.96875 
233.337341 19570.75 
233.417816 10240.390625 
305.044647 890357.0 
305.122375 67011.0625 
305.220673 28740.640625 
305.315887 16303.703125 
305.362762 17509.140625 
305.454315 8482.75 
373.576447 142.0 
390.170959 276.0 
391.840912 102.0 
403.282288 151.0 
428.852814 143.0 
452.651031 159.0 
468.420013 144.0 
473.074707 97.0 
481.6604 97.0 
485.621155 115.0 
495.236816 120.0 
509.828644 95.0 
546.664856 155.0 
561.065186 132.13501 
561.102173 413.050293 
724.324036 43.0 
725.820251 40.0 
729.612366 74.0 
736.505615 52.0 
769.476501 59.0 
771.523865 74.0 
776.514893 55.0 
783.467896 54.0 
798.381409 35.0 
END IONS

BEGIN IONS
RTINSECONDS=224.606995
CHARGE=1-
MSLEVEL=2
SMILES=O=C(O)C[C@@H]([C@H](CCCCCCCCCCCCCC)C(=O)O)C(=O)OC
INCHI=InChI=1S/C21H38O6/c1-3-4-5-6-7-8-9-10-11-12-13-14-15-17(20(24)25)18(16-19(22)23)21(26)27-2/h17-18H,3-16H2,1-2H3,(H,22,23)(H,24,25)/t17-,18-/m0/s1
INCHIKEY=MZWQZYDNVSKPPF-ROUUACIJSA-N
CLASS=Acids
ADDUCT=[M-H]-
INSTRUMENT=Waters Q-ToF Xevo G2-XS
PRECURSOR_MZ=385.259
COMPOUND_NAME=Isorangiformic acid
ION_MODE=negative
FORMULA=C21H38O6
71.028244 3274.041016 
83.052391 2203.685547 
98.001175 3262.339844 
115.004021 1383.110352 
124.017937 3470.591797 
129.01973 1004.860352 
168.367538 172.0 
237.224213 6667.988281 
255.232346 24026.890625 
265.252563 298004.0 
265.319427 12756.40625 
267.23291 7740.0625 
293.21109 47124.78125 
309.242493 64541.84375 
353.232178 369221.75 
353.32428 21166.921875 
478.59729 54.0 
479.242065 54.0 
499.472656 57.0 
519.993774 70.0 
529.598755 93.0 
532.065002 83.0 
536.642151 63.0 
541.686157 59.0 
559.838257 63.0 
560.95166 110.0 
588.737854 59.0 
614.255798 50.0 
616.267151 176.0 
646.212341 68.0 
646.769348 49.0 
678.408264 92.0 
703.92926 111.0 
704.757141 44.0 
719.291077 80.0 
731.321716 54.0 
749.362122 89.0 
759.158081 47.0 
768.555664 48.0 
782.899719 45.0 
END IONS

BEGIN IONS
RTINSECONDS=147.179001
CHARGE=1-
MSLEVEL=2
SMILES=O=C1c2c(C)cc(O)c(C=O)c2Oc2c(O1)c(c(c(c2C)C(=O)O)O)COC(=O)/C=C/C(=O)O
INCHI=InChI=1S/C22H16O12/c1-8-5-12(24)10(6-23)19-15(8)22(31)34-20-11(7-32-14(27)4-3-13(25)26)17(28)16(21(29)30)9(2)18(20)33-19/h3-6,24,28H,7H2,1-2H3,(H,25,26)(H,29,30)/b4-3+
INCHIKEY=VEGGRTFDFMUBPD-ONEGZZNKSA-N
CLASS=Depsidones
ADDUCT=[M-H]-
INSTRUMENT=Waters Q-ToF Xevo G2-XS
PRECURSOR_MZ=471.0564
COMPOUND_NAME=Fumarprotocetraric acid
ION_MODE=negative
FORMULA=C22H16O12
69.002457 50819.53125 
71.017387 2988.21875 
115.007149 27374.109375 
121.031784 5240.609375 
135.04837 12334.46875 
149.02713 30977.703125 
196.055634 21052.265625 
199.047195 26211.546875 
211.077225 34129.125 
239.073303 141877.625 
241.054199 92754.8125 
255.069366 43434.96875 
267.06546 53172.875 
283.063324 134662.625 
311.058502 1008128.5 
311.13324 75709.1875 
337.037628 45419.8125 
355.04599 1008884.0 
355.127289 70218.375 
425.288391 4874.601562 
529.641418 118.0 
530.560425 254.0 
534.48999 204.0 
567.140503 128.0 
575.73407 131.0 
597.361816 115.0 
632.11499 109.0 
643.820251 102.0 
648.602661 96.0 
664.024109 153.0 
681.172363 85.0 
688.654053 84.0 
693.526672 83.0 
749.551758 128.0 
753.720032 111.0 
765.438416 95.0 
777.988098 116.0 
780.431091 76.0 
783.125854 83.0 
END IONS

BEGIN IONS
RTINSECONDS=193.929993
CHARGE=1-
MSLEVEL=2
SMILES=O=C(OC)/C(=C\1/OC(=O)C(=C1O)c1ccccc1)/c1c(OC)cccc1
INCHI=InChI=1S/C20H16O6/c1-24-14-11-7-6-10-13(14)16(19(22)25-2)18-17(21)15(20(23)26-18)12-8-4-3-5-9-12/h3-11,21H,1-2H3/b18-16+
INCHIKEY=IWYVMUDIEOXASM-FBMGVBCBSA-N
CLASS=Pulvinic Acid Derivatives
ADDUCT=[M-H]-
INSTRUMENT=Waters Q-ToF Xevo G2-XS
PRECURSOR_MZ=351.0869
COMPOUND_NAME=Leprapinic acid
ION_MODE=negative
FORMULA=C20H16O6
117.038872 439956.75 
118.040245 46186.96875 
125.042465 66574.9375 
132.024933 441011.0 
133.02774 49533.84375 
177.073029 56155.9375 
191.041565 127469.3125 
193.065125 205630.125 
205.065063 206278.875 
233.059998 747417.0 
264.077911 192607.75 
265.085663 159686.125 
279.10257 395800.25 
280.108978 339122.5 
292.072998 134968.5 
409.308899 227.868774 
419.070923 212.018555 
451.011536 3065.355469 
452.011169 726.711426 
453.006714 434.947998 
491.005249 721.0 
519.001404 3252.640625 
519.108887 178.0 
520.001587 1016.504883 
521.001343 205.679443 
568.271301 136.0 
575.786682 98.0 
583.817322 123.0 
587.103577 161.0 
593.175598 89.0 
653.304565 141.0 
654.324585 97.0 
709.189819 5514.542969 
725.167969 191439.875 
725.285645 13118.421875 
726.169861 102853.375 
727.171326 31470.046875 
741.143677 4875.410156 
787.127014 1451.038086 
788.144104 742.9375 
END IONS

BEGIN IONS
RTINSECONDS=177.347
CHARGE=1-
MSLEVEL=2
SMILES=CC(CC)C(C(=O)NC(C(C)C)COC(=O)c1ccccc1)NC(=O)c1ccccc1
INCHI=InChI=1S/C25H32N2O4/c1-5-18(4)22(27-23(28)19-12-8-6-9-13-19)24(29)26-21(17(2)3)16-31-25(30)20-14-10-7-11-15-20/h6-15,17-18,21-22H,5,16H2,1-4H3,(H,26,29)(H,27,28)
INCHIKEY=CYKHBJCXJDXSPW-UHFFFAOYSA-N
CLASS=N-Containing Compounds
ADDUCT=[M-H+HCOOH]-
INSTRUMENT=Waters Q-ToF Xevo G2-XS
PRECURSOR_MZ=469.2339
COMPOUND_NAME=Isoarthonin
ION_MODE=negative
FORMULA=C25H32N2O4
54.079651 148.0 
54.243881 154.0 
77.042793 84717.625 
121.044212 1220799.0 
121.220535 54484.6875 
121.75647 16511.578125 
121.784836 31092.859375 
121.846603 13504.242188 
174.832413 260.0 
185.070709 1233.62207 
185.130066 191.0 
188.111038 611.0 
214.112579 1837.172852 
216.103409 1141.171875 
244.120712 179.0 
271.182251 733.232422 
301.193848 13826.695312 
301.24884 409.929199 
320.631744 306.0 
325.950989 201.395264 
340.98642 170.0 
354.826172 152.0 
364.343842 180.0 
423.230225 1350562.0 
423.321228 134367.125 
423.436279 80127.375 
423.542908 44221.71875 
423.610168 35824.90625 
524.147949 31.0 
548.257568 40.0 
552.441162 33.0 
END IONS

BEGIN IONS
RTINSECONDS=117.502998
CHARGE=1-
MSLEVEL=2
SMILES=Cc1cc(O)cc(O)c1C(=O)Oc1cc(O)c(C(=O)OC[C@@H](O)[C@@H](O)CO)c(C)c1
INCHI=InChI=1S/C20H22O10/c1-9-3-11(22)5-13(23)18(9)20(28)30-12-4-10(2)17(14(24)6-12)19(27)29-8-16(26)15(25)7-21/h3-6,15-16,21-26H,7-8H2,1-2H3/t15-,16+/m0/s1
INCHIKEY=BUBBEHCXSMCYNY-JKSUJKDBSA-N
CLASS=Depsides (Didepsides)
ADDUCT=[M-H]-
INSTRUMENT=Waters Q-ToF Xevo G2-XS
PRECURSOR_MZ=421.1135
COMPOUND_NAME=Erythrin
ION_MODE=negative
FORMULA=C20H22O10
65.006409 1044.0 
79.057808 23356.96875 
81.038559 29007.296875 
105.039284 419420.75 
123.046913 249342.5 
149.025528 664484.5 
149.091995 48028.75 
167.035812 553717.5 
167.119797 29290.609375 
167.16449 14958.90625 
218.868225 617.637207 
253.070282 3233.5 
271.085205 329958.25 
271.246368 4863.164062 
271.379303 1162.292969 
297.060211 4270.210938 
317.064789 1094.350586 
344.645874 312.0 
352.854095 1986.140625 
353.940033 201.0 
474.025696 1181.25 
475.035675 668.34668 
489.098663 1633.077148 
505.068024 741.674805 
520.029968 2639.46875 
521.033447 570.635742 
571.144165 8706.734375 
571.227783 415.0 
572.15033 2815.167969 
573.147461 816.773438 
618.957092 269.979248 
624.059631 702.274414 
631.121216 229.0 
673.070251 213.0 
685.096069 269.348877 
691.619812 330.0 
693.045898 172.0 
694.923706 151.927856 
746.083923 181.443115 
746.118591 326.556885 
768.09845 236.0 
776.15802 221.0 
778.907104 165.308105 
788.116455 220.0 
END IONS

BEGIN IONS
RTINSECONDS=166.113007
CHARGE=1-
MSLEVEL=2
SMILES=O=C1c2c(C)cc(O)c(C=O)c2Oc2c(O1)c(c(c(c2C)C(=O)O)O)C
INCHI=InChI=1S/C18H14O8/c1-6-4-10(20)9(5-19)16-11(6)18(24)26-15-8(3)13(21)12(17(22)23)7(2)14(15)25-16/h4-5,20-21H,1-3H3,(H,22,23)
INCHIKEY=FOKAHYDSEWGOHN-UHFFFAOYSA-N
CLASS=Depsidones
ADDUCT=[M-H]-
INSTRUMENT=Waters Q-ToF Xevo G2-XS
PRECURSOR_MZ=357.061
COMPOUND_NAME=Virensic acid
ION_MODE=negative
FORMULA=C18H14O8
91.058685 12405.601562 
151.042709 55962.03125 
213.057678 314693.5 
214.066193 119302.8125 
229.051514 498179.25 
230.055664 191594.75 
241.090225 251337.625 
269.082397 977830.0 
270.09436 619881.5 
313.072327 212226.75 
314.079163 123991.9375 
425.051147 916.822754 
454.997559 1048.0 
456.990387 30010.265625 
457.991089 4132.964844 
458.995056 1399.916992 
501.989441 2881.960938 
524.972229 545.564453 
535.089355 10098.53125 
536.092712 3272.257812 
581.129517 1120.272461 
618.917664 282.4729 
625.130798 522.690918 
669.120178 610.119629 
713.116943 4332.996094 
715.131104 5894.65625 
737.114502 109039.375 
738.11853 39673.90625 
739.112244 18101.609375 
753.089783 7376.9375 
768.044861 40810.1875 
769.046875 15434.234375 
END IONS

BEGIN IONS
RTINSECONDS=241.990005
CHARGE=1-
MSLEVEL=2
SMILES=COc1cc(O)c2c(C(=O)c3c(C2=O)c(O)c(C(=O)CCCCC)c(O)c3)c1
INCHI=InChI=1S/C21H20O7/c1-3-4-5-6-13(22)18-15(24)9-12-17(21(18)27)20(26)16-11(19(12)25)7-10(28-2)8-14(16)23/h7-9,23-24,27H,3-6H2,1-2H3
INCHIKEY=MLTVHORGISIISB-UHFFFAOYSA-N
CLASS=Quinones
ADDUCT=[M-H]-
INSTRUMENT=Waters Q-ToF Xevo G2-XS
PRECURSOR_MZ=383.1131
COMPOUND_NAME=Solorinic acid
ION_MODE=negative
FORMULA=C21H20O7
77.5886 31.0 
98.955002 91.209229 
99.964561 46.0 
100.931068 78.0 
116.926865 61.0 
145.940308 108.0 
163.060944 81.0 
186.03334 75.0 
213.018066 84.0 
214.024857 136.0 
242.023453 561.42041 
270.016418 1652.125 
284.029633 825.0 
297.034729 421.237549 
311.021027 222.527954 
325.032074 5028.921875 
340.092407 643.0 
365.10611 194.0 
648.267517 49.0 
688.241089 25.0 
END IONS

BEGIN IONS
RTINSECONDS=126.675003
CHARGE=1-
MSLEVEL=2
SMILES=c1c(cc2c(c1O)C(=O)c1c(cc(cc1C2=O)O)O)CO
INCHI=InChI=1S/C15H10O6/c16-5-6-1-8-12(10(18)2-6)15(21)13-9(14(8)20)3-7(17)4-11(13)19/h1-4,16-19H,5H2
INCHIKEY=YQHZABGPIPECSQ-UHFFFAOYSA-N
CLASS=Quinones
ADDUCT=[M-H]-
INSTRUMENT=Waters Q-ToF Xevo G2-XS
PRECURSOR_MZ=285.0399
COMPOUND_NAME=Citreorosein
ION_MODE=negative
FORMULA=C15H10O6
155.0513 7835.039062 
167.052795 19885.0625 
183.046448 33245.90625 
195.046936 67608.375 
211.042252 107125.9375 
224.049652 63577.40625 
241.052399 84008.0625 
257.048309 82683.25 
368.035278 74.0 
384.955902 309.803223 
413.966278 187.661987 
414.958008 87.27002 
419.031586 76.0 
420.832611 78.0 
448.964874 80.0 
475.925293 64.571167 
475.976227 78.0 
476.956696 68.0 
497.998077 88.0 
501.939301 92.0 
525.949097 81.0 
577.252686 68.0 
579.90155 76.0 
593.047485 61.308289 
593.074341 232.093506 
594.07135 67.0 
604.825439 91.0 
653.279236 50.0 
654.006226 103.17511 
654.129944 95.0 
655.012024 59.0 
661.052307 67.0 
714.034912 57.0 
716.022949 184.534302 
716.098206 84.0 
724.734924 60.0 
759.680176 59.0 
766.0 54.051483 
767.014465 59.0 
771.801208 59.0 
779.62323 52.0 
781.874023 51.0 
783.675537 47.0 
793.059326 57.0 
END IONS

BEGIN IONS
RTINSECONDS=174.524994
CHARGE=1-
MSLEVEL=2
SMILES=Oc1c(C(=O)Oc2cc(O)c(C(=O)O)c(CC(=O)CCC)c2)c(CC(=O)CCC)cc(OC)c1
INCHI=InChI=1S/C25H28O9/c1-4-6-16(26)8-14-11-19(13-20(28)22(14)24(30)31)34-25(32)23-15(9-17(27)7-5-2)10-18(33-3)12-21(23)29/h10-13,28-29H,4-9H2,1-3H3,(H,30,31)
INCHIKEY=QZZMDINWSWWNKM-UHFFFAOYSA-N
CLASS=Depsides (Didepsides)
ADDUCT=[M-H]-
INSTRUMENT=Waters Q-ToF Xevo G2-XS
PRECURSOR_MZ=471.1655
COMPOUND_NAME=Glomellic acid
ION_MODE=negative
FORMULA=C25H28O9
81.038933 78124.875 
105.037415 105712.0 
123.049934 612981.5 
124.05204 88299.8125 
146.04039 144893.375 
149.03743 727108.5 
193.087799 517396.75 
219.066177 910292.5 
220.074234 852278.0 
237.077271 908644.0 
238.080658 849002.0 
297.116241 6647.828125 
298.122498 2506.271484 
309.175446 2111.498047 
313.14679 16428.609375 
314.14682 41813.84375 
367.156799 1448.607422 
368.156128 1087.296875 
383.190643 14556.46875 
384.18866 77971.75 
384.263947 2752.71875 
539.155396 3627.974609 
569.097778 4593.238281 
571.093933 98385.375 
571.206787 5573.234375 
572.096863 39546.125 
573.096375 12545.585938 
616.089844 5496.675781 
639.078735 1499.511719 
666.071594 564.0 
710.004333 243.0 
731.227356 613.737793 
762.152832 619.158203 
762.182495 554.763184 
781.338928 1224.994141 
781.440674 460.0 
782.355469 466.486328 
END IONS

BEGIN IONS
RTINSECONDS=95.620003
CHARGE=1-
MSLEVEL=2
SMILES=Cc1cc(c(c2c1C(=O)Oc1c(O2)c2c(c(c1CO)O)C(=O)OC2O)C=O)OC
INCHI=InChI=1S/C19H14O10/c1-6-3-9(26-2)7(4-20)14-10(6)17(23)28-15-8(5-21)13(22)11-12(16(15)27-14)19(25)29-18(11)24/h3-4,19,21-22,25H,5H2,1-2H3
INCHIKEY=FYPCEUKJORJHDL-UHFFFAOYSA-N
CLASS=Depsidones
ADDUCT=[M-H+CH3OH]-
INSTRUMENT=Waters Q-ToF Xevo G2-XS
PRECURSOR_MZ=433.0771
COMPOUND_NAME=Constictic acid
ION_MODE=negative
FORMULA=C19H14O10
121.03244 22359.03125 
135.013519 9346.617188 
137.042984 14111.5625 
156.06073 18367.640625 
183.04892 27989.09375 
184.055573 17145.515625 
195.067322 20879.15625 
212.050507 135928.625 
240.046021 115057.8125 
241.044785 43466.1875 
255.068741 76633.4375 
268.037994 51858.1875 
283.062836 119001.5 
313.07428 27316.640625 
327.055481 46888.53125 
329.070496 43108.65625 
357.061432 179854.875 
389.091614 157941.25 
401.053955 108014.4375 
403.067444 30911.5625 
501.068329 230.43042 
533.004272 440.465332 
533.099915 228.444702 
533.990723 109.0 
537.029053 193.040527 
577.991272 123.0 
599.964172 56.0 
605.685364 114.0 
611.375427 52.0 
627.974426 83.758789 
644.981384 46.0 
658.205017 43.0 
662.036865 114.0 
768.840454 67.0 
792.867065 40.0 
END IONS

BEGIN IONS
RTINSECONDS=202.132996
CHARGE=1-
MSLEVEL=2
SMILES=CC12C(=O)C(=C(C=C1Oc1c2c(O)c(C)c(O)c1C(=O)C)O)C(=O)C
INCHI=InChI=1S/C18H16O7/c1-6-14(22)12(8(3)20)16-13(15(6)23)18(4)10(25-16)5-9(21)11(7(2)19)17(18)24/h5,21-23H,1-4H3
INCHIKEY=WEYVVCKOOFYHRW-UHFFFAOYSA-N
CLASS=Dibenzofuranes
ADDUCT=[2M-2H+Na]-
INSTRUMENT=Waters Q-ToF Xevo G2-XS
PRECURSOR_MZ=709.1533
COMPOUND_NAME=Usnic acid
ION_MODE=negative
FORMULA=C18H16O7
57.166409 97.0 
61.385166 138.0 
83.016182 4031.939453 
96.777298 150.0 
107.079567 137.0 
108.111031 138.0 
139.038559 178.963867 
215.069214 1019.634766 
231.064041 10875.140625 
231.11908 601.622559 
255.085251 1516.119141 
259.059814 74715.75 
259.123322 3377.166016 
299.090363 18243.890625 
328.057678 164042.75 
343.081482 865894.5 
343.162354 52396.71875 
343.268311 26814.15625 
343.418365 15624.507812 
409.826965 127.0 
442.838898 185.0 
452.731079 171.526123 
460.837952 214.0 
464.728088 156.0 
474.889923 165.0 
482.732941 212.0 
526.557861 136.0 
531.346619 138.0 
552.862488 122.0 
555.772644 118.0 
556.47522 458.0 
561.676636 124.0 
592.46637 138.0 
610.531006 156.0 
651.107178 121.0 
652.983215 121.0 
775.661499 130.0 
789.072021 96.0 
794.066162 95.0 
795.215271 131.0 
END IONS

BEGIN IONS
RTINSECONDS=156.925995
CHARGE=1-
MSLEVEL=2
SMILES=O=C(OC)c1c(C)cc(O)c(C=O)c1O
INCHI=InChI=1S/C10H10O5/c1-5-3-7(12)6(4-11)9(13)8(5)10(14)15-2/h3-4,12-13H,1-2H3
INCHIKEY=PXFMUVDLJWXOQM-UHFFFAOYSA-N
CLASS=Cleavage Products of Depsides and Depsidones
ADDUCT=[M-H]-
INSTRUMENT=Waters Q-ToF Xevo G2-XS
PRECURSOR_MZ=209.045
COMPOUND_NAME=Methyl Haematommate
ION_MODE=negative
FORMULA=C10H10O5
65.007271 46718.28125 
69.001747 92134.375 
81.037956 43416.28125 
105.04007 582284.5 
107.017647 113416.8125 
122.039177 63082.5 
133.031357 369231.5 
149.023621 492896.5 
177.024338 937294.0 
181.05278 161921.25 
308.97464 108.0 
310.96637 114.0 
311.171936 209.829224 
335.944794 158.0 
339.200378 202.0 
353.964661 148.611938 
403.305634 1195.675781 
417.321594 55810.3125 
417.401276 3460.509766 
418.32605 13037.929688 
419.328064 1370.574219 
431.336792 2283.591797 
469.283661 10506.640625 
470.280945 2543.146484 
485.308472 3254.929688 
486.31131 620.455078 
517.249023 2862.169922 
537.274292 523.379395 
553.29425 428.273926 
667.105652 673.718262 
680.287842 2242.085938 
681.290894 679.0 
682.063721 1784.326172 
683.077393 594.0 
685.067261 588.506836 
752.29248 157.367798 
760.314209 148.0 
787.368286 113.0 
END IONS

BEGIN IONS
RTINSECONDS=106.43
CHARGE=1-
MSLEVEL=2
SMILES=O=C(O)c1c(C)c(Cl)c(O)cc1O
INCHI=InChI=1S/C8H7ClO4/c1-3-6(8(12)13)4(10)2-5(11)7(3)9/h2,10-11H,1H3,(H,12,13)
INCHIKEY=GZQRFGTYUAPOOM-UHFFFAOYSA-N
CLASS=Cleavage Products of Depsides and Depsidones
ADDUCT=[2M-2H+Na]-
INSTRUMENT=Waters Q-ToF Xevo G2-XS
PRECURSOR_MZ=424.9807
COMPOUND_NAME=5-Chloroorsellinic acid
ION_MODE=negative
FORMULA=C8H7ClO4
65.036804 225.937744 
65.071899 127.0 
92.987404 183.0 
93.036804 59559.75 
109.112297 293.0 
121.031227 15448.617188 
157.004974 75127.5 
157.05452 3627.910156 
200.994339 288728.75 
201.052689 9934.21875 
201.137268 3240.021484 
202.992142 2520.800781 
258.886749 97.0 
268.859253 91.0 
287.240143 107.0 
321.083221 183.0 
322.054169 126.0 
340.936279 130.0 
356.824738 298.057129 
356.985474 140.0 
406.968414 373.119629 
513.378662 58.0 
519.251892 64.0 
530.027466 52.0 
535.963562 67.0 
558.628601 53.0 
568.296082 82.0 
618.88501 45.0 
620.766113 38.0 
622.653198 50.0 
624.818848 43.0 
649.464539 21.0 
680.258789 63.0 
702.084961 217.0 
709.093079 26.0 
710.473267 33.0 
731.948242 44.0 
748.216003 59.0 
772.97937 20.0 
781.444031 46.0 
END IONS

BEGIN IONS
RTINSECONDS=169.162994
CHARGE=1-
MSLEVEL=2
SMILES=C[C@@H]1CC(=O)C2=C(c3c(ccc(c3O)c3c(c4c(cc3)O[C@@]3([C@H]([C@@H](CC(=O)C3=C4O)C)O)C(=O)OC)O)O[C@@]2([C@H]1O)C(=O)OC)O
INCHI=InChI=1S/C32H30O14/c1-11-9-15(33)21-25(37)19-17(45-31(21,27(11)39)29(41)43-3)7-5-13(23(19)35)14-6-8-18-20(24(14)36)26(38)22-16(34)10-12(2)28(40)32(22,46-18)30(42)44-4/h5-8,11-12,27-28,35-40H,9-10H2,1-4H3/t11-,12-,27+,28+,31+,32+/m1/s1
INCHIKEY=NFZJAYYORNVZNI-ZKHWAINJSA-N
CLASS=Xanthones and bis-Xanthones
ADDUCT=[M-H]-
INSTRUMENT=Waters Q-ToF Xevo G2-XS
PRECURSOR_MZ=637.1557
COMPOUND_NAME=Secalonic acid A
ION_MODE=negative
FORMULA=C32H30O14
57.578716 242.0 
60.60429 126.0 
93.034241 203.314331 
111.047188 642.234863 
139.042542 354.919922 
141.054916 454.0 
149.026978 718.085449 
197.027557 1070.344727 
199.042572 3882.541016 
217.047852 700.666992 
225.023743 1289.150391 
243.037476 1228.0 
289.08252 893.373047 
305.083832 1576.068359 
311.057892 1004.837402 
331.065979 2284.505859 
333.076141 4413.59375 
349.073547 6228.085938 
365.097229 2236.441406 
391.087311 1938.477539 
393.068604 1864.792969 
409.092438 3773.986328 
427.103577 1253.039062 
453.086578 1922.620117 
479.096985 1662.257812 
483.110504 2452.683594 
499.121826 1843.359375 
501.117615 2555.222656 
543.128357 2119.257812 
559.124329 3408.777344 
561.141296 3628.871094 
577.135193 16763.78125 
587.120544 3474.835938 
605.130188 9680.429688 
619.144653 7776.628906 
705.135559 1081.382812 
706.143066 423.582275 
736.075623 343.062256 
777.067261 283.342285 
782.070374 244.7052 
785.085876 245.0 
END IONS

BEGIN IONS
RTINSECONDS=221.009003
CHARGE=1-
MSLEVEL=2
SMILES=CC[C@@H](C)C[C@@H](C)[C@@H]([C@H](C)C(=O)O[C@@H]([C@H](C)C[C@H](C)CC)[C@H](C)C(=O)O)O
INCHI=InChI=1S/C22H42O5/c1-9-13(3)11-15(5)19(23)17(7)22(26)27-20(18(8)21(24)25)16(6)12-14(4)10-2/h13-20,23H,9-12H2,1-8H3,(H,24,25)/t13-,14-,15-,16-,17+,18+,19+,20+/m1/s1
INCHIKEY=ZQEUMOKDJCSNHB-IHRHECOVSA-N
CLASS=Acids
ADDUCT=[M-H]-
INSTRUMENT=Waters Q-ToF Xevo G2-XS
PRECURSOR_MZ=385.2954
COMPOUND_NAME=Bourgeanic acid
ION_MODE=negative
FORMULA=C22H42O5
55.018448 283.0 
55.05191 93.0 
73.03347 57169.53125 
73.197807 116.0 
74.03299 150.0 
86.70314 173.0 
114.343292 249.0 
127.11087 239.0 
127.315071 154.0 
201.14917 405252.25 
201.211578 20805.171875 
201.291748 8077.960938 
201.370407 1102.233398 
201.405579 2934.539062 
202.154892 2632.0 
251.558975 120.0 
275.31488 264.0 
283.07132 119.0 
316.792053 126.0 
316.851471 125.0 
339.195679 338.316895 
461.782532 74.0 
480.43866 112.0 
493.546082 88.0 
512.62384 50.0 
535.645691 89.0 
536.069397 45.0 
556.367798 53.0 
568.318298 43.0 
572.362915 92.0 
588.183655 43.0 
597.903687 38.0 
607.26709 45.0 
630.927917 41.0 
659.689819 79.0 
661.904663 25.0 
672.03009 51.0 
696.014221 112.0 
712.27002 24.0 
735.2547 40.0 
735.506287 39.0 
741.582703 82.0 
751.323914 24.0 
757.996765 22.0 
767.693115 25.0 
787.345642 25.0 
792.400452 22.0 
END IONS

BEGIN IONS
RTINSECONDS=122.584999
CHARGE=1-
MSLEVEL=2
SMILES=[C@@H]1(CC(=O)N2[C@H](C(=O)N[C@H](CC(=O)N3[C@@H](C(=O)N1)CCC3)c1ccccc1)CCC2)c1ccccc1
INCHI=InChI=1S/C28H32N4O4/c33-25-17-21(19-9-3-1-4-10-19)29-27(35)23-13-7-16-32(23)26(34)18-22(20-11-5-2-6-12-20)30-28(36)24-14-8-15-31(24)25/h1-6,9-12,21-24H,7-8,13-18H2,(H,29,35)(H,30,36)/t21-,22-,23-,24+/m1/s1
INCHIKEY=PDLPVRYEPINIBU-YCAMKHIRSA-N
CLASS=N-Containing Compounds
ADDUCT=[M-H]-
INSTRUMENT=Waters Q-ToF Xevo G2-XS
PRECURSOR_MZ=487.2345
COMPOUND_NAME=Roccanin
ION_MODE=negative
FORMULA=C28H32N4O4
113.074028 64750.9375 
131.0513 14791.0 
138.057602 9667.015625 
155.083908 26047.75 
198.093643 44171.28125 
243.114624 1266880.0 
243.182312 158010.875 
243.268997 76672.4375 
243.352844 46051.65625 
244.118332 126049.4375 
303.132599 3834.328125 
303.200562 368.0 
329.161865 317.554688 
331.145752 2362.791016 
340.166992 359.435059 
373.152466 1744.21875 
382.175049 596.244629 
383.179535 187.0 
391.175354 294.338379 
558.130676 120.0 
558.48877 157.0 
620.89563 56.0 
623.352478 107.0 
632.963623 55.0 
661.046143 81.0 
666.315674 56.0 
677.016846 114.0 
717.438477 110.0 
730.638611 76.0 
767.197754 74.0 
770.598633 67.0 
771.407043 90.0 
795.764587 65.0 
795.818726 67.0 
797.614807 80.0 
END IONS

BEGIN IONS
RTINSECONDS=99.976997
CHARGE=1-
MSLEVEL=2
SMILES=Cc1cc(=O)c2c(o1)cc1c(c2O)C(=CC(=O)C1=O)O
INCHI=InChI=1S/C14H8O6/c1-5-2-7(15)12-10(20-5)3-6-11(14(12)19)8(16)4-9(17)13(6)18/h2-4,16,19H,1H3
INCHIKEY=NPUXQAACUNUHIX-UHFFFAOYSA-N
CLASS=Quinones
ADDUCT=[M-H]-
INSTRUMENT=Waters Q-ToF Xevo G2-XS
PRECURSOR_MZ=271.0243
COMPOUND_NAME=Canarione
ION_MODE=negative
FORMULA=C14H8O6
65.008141 23894.953125 
75.027672 24084.515625 
87.027504 40444.3125 
89.018921 29086.734375 
91.022095 202398.25 
103.022484 92361.4375 
115.02578 157301.125 
131.027206 155493.5 
143.04747 171569.0 
159.009903 344969.5 
175.041611 107385.3125 
199.0392 563335.5 
202.998138 401618.5 
243.029572 1096299.0 
333.226624 474.210693 
347.243591 2445.390625 
348.245392 320.0 
370.946838 2033.19043 
391.267792 331.702148 
405.291077 580.800781 
431.302155 854.69873 
433.310883 339.233643 
434.318146 274.562744 
461.952637 257.0 
463.329437 236.352051 
529.042419 1609.413086 
531.056763 2335.001953 
565.040771 22582.3125 
566.043396 6872.15625 
567.050415 2914.671875 
595.968445 1893.5 
596.975464 1662.084961 
597.98114 1638.796875 
663.959106 950.4375 
664.95929 403.548096 
695.125854 206.0 
716.923157 192.0 
725.931274 177.0 
732.070862 208.0 
748.938721 160.0 
783.943359 127.0 
793.910706 91.0 
END IONS

BEGIN IONS
RTINSECONDS=133.455994
CHARGE=1-
MSLEVEL=2
SMILES=O=c1cc(C)oc2c1c(O)c(C)c(O)c2C
INCHI=InChI=1S/C12H12O4/c1-5-4-8(13)9-11(15)6(2)10(14)7(3)12(9)16-5/h4,14-15H,1-3H3
INCHIKEY=ODNMTIVRLHXQTE-UHFFFAOYSA-N
CLASS=Chromanes and Chromones
ADDUCT=[M-H]-
INSTRUMENT=Waters Q-ToF Xevo G2-XS
PRECURSOR_MZ=219.0657
COMPOUND_NAME="N 5,7-Dihydroxy-2,6,8-trimethylchromone"
ION_MODE=negative
FORMULA=C12H12O4
79.023239 1058.94043 
83.013535 1109.660156 
91.055664 1056.719727 
119.055969 2239.396484 
133.066269 2449.671875 
135.047653 2835.421875 
175.074478 4010.037109 
177.054596 4252.40625 
299.617462 78.0 
311.159668 98.0 
317.89798 85.0 
322.239288 107.0 
346.132355 161.0 
396.016815 112.0 
399.984711 120.0 
404.10144 140.0 
409.993317 133.0 
432.003021 113.0 
460.309204 82.0 
461.392151 98.0 
466.330994 91.0 
474.156769 111.0 
483.810028 116.0 
514.318176 176.0 
542.030273 190.0 
545.104187 118.0 
560.893616 122.0 
570.319702 152.0 
592.206604 82.0 
600.716431 85.0 
616.123901 75.0 
646.663757 111.0 
652.712585 73.0 
664.698486 75.0 
699.548645 83.0 
701.050842 89.0 
715.711914 94.0 
738.660522 93.0 
746.763794 89.0 
749.680542 147.0 
768.750427 81.0 
775.554749 87.0 
792.797119 101.0 
END IONS

BEGIN IONS
RTINSECONDS=231.397003
CHARGE=1-
MSLEVEL=2
SMILES=O=C(O)C[C@@H]([C@H](CCCCCCCCCCCCCC)C(=O)O)C(=O)OC
INCHI=InChI=1S/C21H38O6/c1-3-4-5-6-7-8-9-10-11-12-13-14-15-17(20(24)25)18(16-19(22)23)21(26)27-2/h17-18H,3-16H2,1-2H3,(H,22,23)(H,24,25)/t17-,18-/m0/s1
INCHIKEY=MZWQZYDNVSKPPF-ROUUACIJSA-N
CLASS=Acids
ADDUCT=[M-H-H2O]-
INSTRUMENT=Waters Q-ToF Xevo G2-XS
PRECURSOR_MZ=367.2484
COMPOUND_NAME=Isorangiformic acid
ION_MODE=negative
FORMULA=C21H38O6
50.491585 104.581787 
56.186832 113.390198 
71.012589 254.578247 
75.312088 136.0 
83.050674 144.0 
113.021019 126.426208 
115.003983 289.55835 
124.015144 377.780273 
173.150848 133.0 
197.191513 180.096802 
212.597412 118.0 
269.247803 3112.853516 
279.26828 78320.75 
279.334259 4398.476562 
307.226593 10824.367188 
323.259247 5076.675781 
423.147552 238.662964 
425.18103 234.726318 
453.260284 556.628906 
467.252533 395.012451 
467.276398 453.964111 
475.286926 214.0 
489.242065 349.959717 
554.195129 184.0 
557.333252 885.682129 
557.354431 213.015259 
558.337402 224.599609 
575.145508 222.808594 
639.163635 119.0 
647.327209 113.0 
657.272034 118.863708 
669.117737 146.072754 
706.161316 134.0 
707.092468 190.0 
713.445923 427.257568 
714.431274 204.482666 
735.516479 137.977661 
767.080933 124.0 
782.104065 117.048157 
796.616577 197.0 
END IONS

BEGIN IONS
RTINSECONDS=200.746002
CHARGE=1-
MSLEVEL=2
SMILES=Cc1c2c(Oc3c(OC2=O)c(c(c(c3C)Cl)OC)C)c(Cl)c(O)c1Cl
INCHI=InChI=1S/C17H13Cl3O5/c1-5-8-16(11(20)12(21)9(5)18)24-14-6(2)10(19)13(23-4)7(3)15(14)25-17(8)22/h21H,1-4H3
INCHIKEY=MTWNEIGWRWQLFS-UHFFFAOYSA-N
CLASS=Depsidones
ADDUCT=[M-H]-
INSTRUMENT=Waters Q-ToF Xevo G2-XS
PRECURSOR_MZ=400.975
COMPOUND_NAME=Caloploicin
ION_MODE=negative
FORMULA=C17H13Cl3O5
57.709068 171.0 
74.966362 381.345459 
81.081154 276.0 
92.030029 400.008545 
166.043686 9568.632812 
172.96138 9400.1875 
194.055649 20651.1875 
230.015503 37411.71875 
258.012848 70604.6875 
277.995514 143598.375 
286.008179 100823.6875 
293.98941 129427.625 
305.989349 128964.75 
321.984985 206802.25 
341.966461 266266.75 
348.9711 49531.6875 
349.975952 604931.0 
365.001678 137036.125 
500.894257 1417.0 
501.904968 341.04541 
502.895203 1532.384766 
504.893646 358.374512 
542.895691 479.156006 
568.891418 322.691162 
570.882812 534.702148 
572.88031 303.0 
587.903625 247.0 
644.959167 145.0 
653.308594 157.999023 
697.391479 176.0 
700.196777 180.0 
725.753418 127.0 
730.144653 133.365479 
754.866943 157.0 
774.098206 209.0 
775.781189 135.0 
776.812378 121.0 
END IONS

BEGIN IONS
RTINSECONDS=187.238007
CHARGE=1-
MSLEVEL=2
SMILES=CC(=O)CCCCCCCCCCCCC[C@H]1[C@H](C(C)C(=O)O1)C(=O)O
INCHI=InChI=1S/C21H36O5/c1-16(22)14-12-10-8-6-4-3-5-7-9-11-13-15-18-19(20(23)24)17(2)21(25)26-18/h17-19H,3-15H2,1-2H3,(H,23,24)/t17?,18-,19-/m0/s1
INCHIKEY=SPGPUDJMXMJNCU-MNNMKWMVSA-N
CLASS=Paraconic acids
ADDUCT=[M-H]-
INSTRUMENT=Waters Q-ToF Xevo G2-XS
PRECURSOR_MZ=367.2484
COMPOUND_NAME=Dihydropertusaric
ION_MODE=negative
FORMULA=C21H36O5
53.045902 107.0 
69.033249 712.930176 
69.069359 180.0 
72.445457 108.0 
98.00235 171.012817 
113.026527 8919.3125 
144.002914 160.0 
155.145096 475.0 
169.158127 335.0 
207.210495 173.401123 
212.109695 198.0 
217.985168 319.0 
235.243423 1806.682617 
263.236603 1631.726562 
277.257172 3356.339844 
279.272003 72692.25 
321.242279 19311.953125 
323.25705 34850.96875 
433.229065 499.841309 
435.242126 1849.0 
436.239075 363.568848 
465.168976 659.428711 
467.175171 2311.847656 
468.180054 1017.125977 
501.197632 236.17981 
503.222778 483.861328 
519.297424 168.0 
535.160339 150.0 
558.177124 133.780884 
583.162964 159.05481 
643.396118 108.0 
646.131836 97.0 
653.308044 107.0 
653.401184 151.0 
665.104431 130.206055 
733.499817 212.318604 
735.500305 447.655518 
741.478577 210.0 
755.447083 228.977661 
755.48877 401.81958 
757.492004 718.0 
799.836243 192.0 
END IONS

BEGIN IONS
RTINSECONDS=198.557999
CHARGE=1-
MSLEVEL=2
SMILES=CCCCCc1cc(cc(c1C(=O)O)OC)OC(=O)c1c(cc(cc1CC(=O)CCCCC)OC)O
INCHI=InChI=1S/C28H36O8/c1-5-7-9-11-18-14-22(17-24(35-4)26(18)27(31)32)36-28(33)25-19(13-20(29)12-10-8-6-2)15-21(34-3)16-23(25)30/h14-17,30H,5-13H2,1-4H3,(H,31,32)
INCHIKEY=UANVCGQMNRTKGM-UHFFFAOYSA-N
CLASS=Depsides (Didepsides)
ADDUCT=[M-H]-
INSTRUMENT=Waters Q-ToF Xevo G2-XS
PRECURSOR_MZ=499.2332
COMPOUND_NAME=Confluentic acid
ION_MODE=negative
FORMULA=C28H36O8
58.539185 254.0 
122.039093 143693.75 
123.042152 39225.3125 
136.053894 16607.6875 
137.062866 29128.4375 
178.101028 195449.875 
179.104904 113069.75 
193.125137 757730.0 
194.127426 555345.0 
237.112778 845352.0 
237.235382 60595.71875 
238.121414 720467.0 
256.113068 60307.8125 
298.157654 117864.3125 
299.160156 178822.75 
313.181335 112912.25 
314.185394 223057.75 
341.168732 11419.101562 
354.183075 10283.382812 
396.229034 8363.59375 
397.233948 5873.074219 
411.254242 68172.625 
412.259399 188936.25 
456.24649 50413.1875 
567.222351 9246.414062 
568.22583 4090.828125 
599.15686 5443.175781 
600.162109 1377.702148 
601.164124 1321.72168 
647.163208 4379.074219 
649.165039 1238.960938 
669.138916 879.095703 
686.162781 1330.404297 
690.159668 2134.003906 
737.134583 604.219727 
737.356628 3024.759766 
738.363525 1309.817383 
761.346985 1468.769531 
761.387268 360.230225 
762.344666 603.738281 
797.051025 206.127197 
797.096863 214.0 
END IONS

BEGIN IONS
RTINSECONDS=102.058998
CHARGE=1-
MSLEVEL=2
SMILES=Cc1cc(c(c2c1C(=O)Oc1c(O2)c2c(c(c1CO)O)C(=O)OC2O)C=O)OC
INCHI=InChI=1S/C19H14O10/c1-6-3-9(26-2)7(4-20)14-10(6)17(23)28-15-8(5-21)13(22)11-12(16(15)27-14)19(25)29-18(11)24/h3-4,19,21-22,25H,5H2,1-2H3
INCHIKEY=FYPCEUKJORJHDL-UHFFFAOYSA-N
CLASS=Depsidones
ADDUCT=[M-H]-
INSTRUMENT=Waters Q-ToF Xevo G2-XS
PRECURSOR_MZ=401.0509
COMPOUND_NAME=Constictic acid
ION_MODE=negative
FORMULA=C19H14O10
93.037903 29914.59375 
121.033012 301579.25 
122.039261 51368.78125 
135.012161 100715.6875 
137.053101 68457.1875 
156.06102 155914.25 
183.045151 226905.375 
184.055511 127105.5 
211.044739 147023.5 
212.047485 551554.0 
225.055664 280576.75 
240.044479 933758.0 
253.052658 247157.875 
268.038483 477313.25 
270.056427 218112.0 
283.063599 300496.75 
284.063568 149015.5 
327.053955 94234.25 
357.060822 354472.25 
358.066864 174050.875 
483.974792 1008.186035 
500.977386 1816.46875 
533.004395 521.460449 
545.973694 2406.248047 
546.979248 601.709473 
595.941223 343.962646 
595.963684 391.0 
623.071289 387.0 
635.94342 251.0 
644.389954 236.0 
652.021973 293.159912 
664.022827 184.0 
694.884399 143.0 
745.988159 265.090576 
749.56958 162.0 
749.903076 149.0 
765.128662 165.0 
770.131531 202.0 
790.000549 120.06958 
798.183533 119.0 
END IONS

BEGIN IONS
RTINSECONDS=184.710999
CHARGE=1-
MSLEVEL=2
SMILES=Cc1c2c(c(c(c1Cl)O)Cl)oc1c(c2=O)c(c(c(c1Cl)O)Cl)O
INCHI=InChI=1S/C14H6Cl4O5/c1-2-3-9(19)4-10(20)6(16)12(22)8(18)14(4)23-13(3)7(17)11(21)5(2)15/h20-22H,1H3
INCHIKEY=MYBIAUJNAXMGTF-UHFFFAOYSA-N
CLASS=Xanthones and bis-Xanthones
ADDUCT=[M-H]-
INSTRUMENT=Waters Q-ToF Xevo G2-XS
PRECURSOR_MZ=392.8891
COMPOUND_NAME=Thiophanic acid
ION_MODE=negative
FORMULA=C14H6Cl4O5
50.91674 177.0 
63.709579 167.0 
76.031517 279.0 
84.802231 273.0 
110.962799 295.451172 
128.972488 1025.384766 
172.963348 3042.123047 
200.97377 13615.6875 
216.945801 28449.875 
228.968735 25130.453125 
236.950958 101076.0 
264.945984 280102.5 
265.954102 43354.875 
292.94101 298684.0 
300.922821 728219.0 
320.935822 116717.9375 
328.918152 850109.0 
357.920654 211220.25 
492.813263 9967.0 
493.818512 2254.337891 
494.81189 11736.554688 
495.815674 2842.521484 
496.811157 5697.957031 
497.809387 1058.004883 
560.808716 255.7323 
562.798401 214.766724 
564.796448 301.0 
597.234253 173.0 
607.603516 152.0 
614.778381 146.0 
637.158813 119.0 
722.793396 1006.700684 
724.783325 882.208496 
724.814575 306.395264 
726.762512 314.826416 
726.797546 333.77124 
784.75824 1424.77832 
786.75531 2644.494141 
788.733887 583.52002 
788.761414 1547.132812 
789.75 532.544922 
790.755066 840.583984 
END IONS

BEGIN IONS
RTINSECONDS=148.636993
CHARGE=1-
MSLEVEL=2
SMILES=Oc1cc2c(c3c1C(=O)OC3)c1c(O)cc(C)c(C(=O)O)c1o2
INCHI=InChI=1S/C16H10O7/c1-5-2-7(17)13-12-6-4-22-16(21)11(6)8(18)3-9(12)23-14(13)10(5)15(19)20/h2-3,17-18H,4H2,1H3,(H,19,20)
INCHIKEY=QZYZPZAPRHESDA-UHFFFAOYSA-N
CLASS=Dibenzofuranes
ADDUCT=[M-H]-
INSTRUMENT=Waters Q-ToF Xevo G2-XS
PRECURSOR_MZ=313.0348
COMPOUND_NAME=Porphyrilic acid
ION_MODE=negative
FORMULA=C16H10O7
100.935928 2884.0 
101.040871 799.0 
115.056236 2071.0 
154.044678 11492.9375 
169.067276 14763.335938 
182.037109 128152.375 
196.05278 25559.921875 
197.060013 269923.25 
225.05661 209210.75 
269.044983 447629.0 
269.114502 23399.078125 
366.857208 283.0 
381.163849 119.0 
393.249451 98.0 
412.963318 208.818848 
451.035278 176.0 
452.952484 172.0 
500.113892 191.0 
503.964111 286.574707 
504.056152 174.895996 
525.946289 183.0 
537.095642 145.984619 
553.945984 194.268066 
627.080994 1433.854492 
627.172974 214.232178 
628.080139 404.290527 
649.064575 575.729004 
650.07074 217.0 
663.015747 167.0 
711.039246 140.0 
717.068298 256.760742 
720.019592 134.0 
728.999695 138.0 
743.87677 161.0 
759.816467 151.439941 
772.004822 181.061768 
788.920776 150.0 
END IONS

BEGIN IONS
RTINSECONDS=191.675003
CHARGE=1-
MSLEVEL=2
SMILES=CC1=C(C(=O)O)[C@@H](CCCCCCCCCCCCC(C)CO)OC1=O
INCHI=InChI=1S/C21H36O5/c1-16(15-22)13-11-9-7-5-3-4-6-8-10-12-14-18-19(20(23)24)17(2)21(25)26-18/h16,18,22H,3-15H2,1-2H3,(H,23,24)/t16?,18-/m1/s1
INCHIKEY=FEGXSCTZZUZMJG-UHUGOGIASA-N
CLASS=Paraconic acids
ADDUCT=[2M-2H+Na]-
INSTRUMENT=Waters Q-ToF Xevo G2-XS
PRECURSOR_MZ=757.4867
COMPOUND_NAME=Isomurolic acid
ION_MODE=negative
FORMULA=C21H36O5
51.825378 54.0 
54.002514 49.0 
58.672558 28.0 
89.92762 41.0 
112.989609 62.0 
113.022018 262.0 
152.032272 123.0 
155.144073 100.5755 
158.975388 91.0 
164.285278 146.0 
171.700714 99.0 
235.241028 3599.335938 
263.234833 801.562012 
277.249634 1789.822266 
279.267944 67387.1875 
279.334778 3803.580078 
323.257782 52412.65625 
345.239166 6532.238281 
367.247894 82570.5625 
367.319031 4646.96875 
387.214905 645.191895 
389.228699 6045.753906 
450.160248 73.099915 
474.931213 72.0 
477.524963 88.0 
484.647247 72.0 
501.076569 75.0 
512.375916 69.0 
515.401306 67.0 
544.87616 214.0 
582.364746 102.0 
588.02948 88.0 
597.126526 100.0 
604.467468 71.0 
606.101624 91.0 
646.845581 193.0 
669.457092 91.0 
713.495178 2196.240234 
END IONS

BEGIN IONS
RTINSECONDS=117.442001
CHARGE=1-
MSLEVEL=2
SMILES=O=C1c2c(C)cc(O)c(C=O)c2Oc2c(O1)c(c(c(c2C)C(=O)O)O)COC(=O)/C=C/C(=O)O
INCHI=InChI=1S/C22H16O12/c1-8-5-12(24)10(6-23)19-15(8)22(31)34-20-11(7-32-14(27)4-3-13(25)26)17(28)16(21(29)30)9(2)18(20)33-19/h3-6,24,28H,7H2,1-2H3,(H,25,26)(H,29,30)/b4-3+
INCHIKEY=VEGGRTFDFMUBPD-ONEGZZNKSA-N
CLASS=Depsidones
ADDUCT=[M+Cl]-
INSTRUMENT=Waters Q-ToF Xevo G2-XS
PRECURSOR_MZ=507.033
COMPOUND_NAME=Fumarprotocetraric acid
ION_MODE=negative
FORMULA=C22H16O12
68.997993 903.38916 
71.019127 1722.641602 
89.025139 3229.787109 
89.066284 816.0 
101.029449 3154.457031 
119.033714 1054.783203 
149.031281 1067.692383 
151.034775 965.960938 
151.061005 8704.195312 
151.109818 615.990234 
203.036575 1838.329102 
229.051834 2204.480469 
239.072464 5951.105469 
241.051559 2318.177734 
255.06633 2452.707031 
257.04776 3095.457031 
267.068451 5791.683594 
283.05957 5637.765625 
311.055542 66942.25 
311.122803 2486.390625 
337.035706 3768.716797 
355.044952 22892.671875 
355.117279 1041.695312 
410.886414 107.0 
418.267975 101.0 
429.406372 222.0 
489.104767 733.068848 
553.154175 2458.205078 
554.172363 774.674316 
560.022766 373.0 
561.032715 196.0 
575.074585 168.975342 
606.073425 420.144043 
624.024597 120.0 
637.070068 152.0 
653.082458 111.0 
659.109863 105.0 
674.063965 101.0 
682.090271 133.0 
699.055115 92.0 
703.503906 84.0 
705.992004 87.0 
777.738098 323.0 
784.560303 89.0 
790.21991 133.0 
793.850647 90.0 
794.804932 68.0 
END IONS

BEGIN IONS
RTINSECONDS=19.771
CHARGE=1-
MSLEVEL=2
SMILES=COC1=C(NC(CO)CCC(=N)O)CC(CO)(O)CC1=O
INCHI=InChI=1S/C13H22N2O6/c1-21-12-9(4-13(20,7-17)5-10(12)18)15-8(6-16)2-3-11(14)19/h8,15-17,20H,2-7H2,1H3,(H2,14,19)
INCHIKEY=BVWBDCIYHWDCRQ-UHFFFAOYSA-N
CLASS=Mycosporines
ADDUCT=[M-H]-
INSTRUMENT=Waters Q-ToF Xevo G2-XS
PRECURSOR_MZ=301.14
COMPOUND_NAME=Mycosporine glutaminol
ION_MODE=negative
FORMULA=C13H22N2O6
73.032372 953.71875 
75.012192 2623.144531 
82.02951 703.99707 
98.060249 3024.271484 
99.011871 4229.171875 
145.048981 3600.927734 
155.079773 1598.955078 
170.053329 1748.520508 
180.06517 4932.777344 
228.110748 1830.642578 
238.097076 7243.464844 
243.134201 4226.570312 
283.129791 31617.859375 
353.398621 64.0 
372.334229 28.0 
440.946991 24.0 
481.198761 28.0 
505.720398 26.0 
506.83017 88.0 
513.115234 23.0 
552.647949 24.0 
590.657959 22.0 
590.783081 30.0 
660.95166 25.0 
677.555054 21.0 
731.313477 21.0 
END IONS

BEGIN IONS
RTINSECONDS=154.729004
CHARGE=1-
MSLEVEL=2
SMILES=O=c1c2c(oc3c1c(C)cc(O)c3Cl)cc(O)c(Cl)c2O
INCHI=InChI=1S/C14H8Cl2O5/c1-4-2-5(17)11(16)14-8(4)12(19)9-7(21-14)3-6(18)10(15)13(9)20/h2-3,17-18,20H,1H3
INCHIKEY=GKSZPGKBFDLXNF-UHFFFAOYSA-N
CLASS=Xanthones and bis-Xanthones
ADDUCT=[M-H]-
INSTRUMENT=Waters Q-ToF Xevo G2-XS
PRECURSOR_MZ=324.9671
COMPOUND_NAME="N 2,5-Dichloronorlichexanthone"
ION_MODE=negative
FORMULA=C14H8Cl2O5
113.041954 9633.695312 
114.045929 9575.242188 
141.034225 16822.296875 
142.040329 20200.421875 
169.029678 42646.1875 
170.034775 71217.3125 
233.000092 122899.1875 
234.007706 350272.75 
260.994904 304469.5 
262.00592 826797.0 
262.999756 144757.5 
422.906097 599.130859 
424.897552 17456.609375 
425.894348 3979.728516 
426.892578 10579.601562 
427.894653 2473.839844 
428.892395 2001.966797 
490.907257 170.81958 
515.892822 158.4823 
517.89386 143.103271 
537.873718 96.171082 
555.899231 92.0 
565.872498 92.0 
568.805176 113.38855 
588.898987 223.0 
672.930664 7267.199219 
673.931091 1430.205078 
674.923584 10179.34375 
675.926636 3318.580078 
676.920593 6067.144531 
677.918091 1011.641602 
733.872375 2293.669922 
735.865051 1417.451172 
736.872192 1257.973633 
737.864868 1355.849609 
738.87323 617.108398 
742.89679 679.339844 
795.866211 342.911865 
797.860901 604.0 
798.860962 197.665649 
799.855225 188.626099 
END IONS

BEGIN IONS
RTINSECONDS=120.724998
CHARGE=1-
MSLEVEL=2
SMILES=O=C1OCc2c1c(cc1c2c2c(C)cc(O)cc2o1)O
INCHI=InChI=1S/C15H10O5/c1-6-2-7(16)3-10-12(6)14-8-5-19-15(18)13(8)9(17)4-11(14)20-10/h2-4,16-17H,5H2,1H3
INCHIKEY=OOXFLIUVCWLPKE-UHFFFAOYSA-N
CLASS=Dibenzofuranes
ADDUCT=[M-H]-
INSTRUMENT=Waters Q-ToF Xevo G2-XS
PRECURSOR_MZ=269.045
COMPOUND_NAME=Strepsilin
ION_MODE=negative
FORMULA=C15H10O5
63.027882 862.061035 
101.041656 9742.890625 
141.07132 197268.375 
167.051025 218371.375 
169.068542 482531.5 
182.038696 235141.75 
196.054214 341410.0 
197.06337 909478.0 
225.054459 780795.5 
327.051178 382.516113 
328.970428 102.0 
337.027344 1129.829102 
352.872101 113.733093 
368.968109 698.246094 
369.050842 154.0 
414.964203 160.0 
421.954926 143.0 
449.281158 148.0 
459.9711 677.0 
460.069489 198.0 
460.973969 186.895508 
527.945679 438.782471 
539.095825 2107.126953 
540.10022 3116.197266 
559.062622 290.0 
561.075989 298.647217 
622.021362 290.493408 
623.018738 189.618164 
629.064697 136.054443 
639.015076 202.081177 
673.990417 333.952637 
684.019714 1608.93457 
685.017578 358.281982 
695.036987 201.0 
733.970825 183.793579 
734.007446 328.206299 
734.999512 193.510742 
751.994141 142.0 
760.810181 152.0 
END IONS

BEGIN IONS
RTINSECONDS=162.863007
CHARGE=1-
MSLEVEL=2
SMILES=O=c1c2c(oc3c1c(C)cc(O)c3)c(Cl)c(O)c(Cl)c2O
INCHI=InChI=1S/C14H8Cl2O5/c1-4-2-5(17)3-6-7(4)11(18)8-12(19)9(15)13(20)10(16)14(8)21-6/h2-3,17,19-20H,1H3
INCHIKEY=JPFFMNSHZHZAND-UHFFFAOYSA-N
CLASS=Xanthones and bis-Xanthones
ADDUCT=[M-H+HCOOH]-
INSTRUMENT=Waters Q-ToF Xevo G2-XS
PRECURSOR_MZ=370.9725
COMPOUND_NAME="N 2,4-Dichloronorlichexanthone"
ION_MODE=negative
FORMULA=C14H8Cl2O5
78.920708 1768.702148 
80.921249 7116.691406 
105.033463 1520.074219 
141.032791 3865.0 
149.021011 8255.09375 
157.026489 3975.066406 
169.027466 9356.257812 
170.035141 5939.871094 
197.022812 12892.273438 
198.031204 7947.9375 
225.017181 15592.4375 
232.999207 25513.921875 
234.997803 7527.585938 
260.994263 19986.078125 
262.991425 6225.261719 
289.996857 9857.226562 
291.994812 3765.902344 
429.835754 55.0 
447.640625 47.0 
469.812439 38.0 
480.145721 76.0 
488.029114 41.0 
501.783783 34.0 
510.595734 67.0 
535.432251 35.0 
564.202698 42.0 
583.474121 44.0 
587.796021 24.0 
594.886169 20.0 
614.205383 33.0 
626.770203 29.0 
631.913696 24.0 
663.441101 23.0 
699.032349 47.0 
702.902039 22.0 
724.143066 36.0 
768.552124 30.0 
784.56366 29.0 
END IONS

BEGIN IONS
RTINSECONDS=189.406006
CHARGE=1-
MSLEVEL=2
SMILES=O=C1c2c(C)c(Cl)c(OC)cc2Oc2c(O1)cc(c(c2C)Cl)OC
INCHI=InChI=1S/C17H14Cl2O5/c1-7-13-9(5-10(21-3)14(7)18)23-16-8(2)15(19)11(22-4)6-12(16)24-17(13)20/h5-6H,1-4H3
INCHIKEY=AYDBBWJGHVYDQE-UHFFFAOYSA-N
CLASS=Depsidones
ADDUCT=[M-2H+K]-
INSTRUMENT=Waters Q-ToF Xevo G2-XS
PRECURSOR_MZ=404.9699
COMPOUND_NAME=Scensidin
ION_MODE=negative
FORMULA=C17H14Cl2O5
53.215252 33.0 
76.162086 70.0 
81.067459 117.0 
107.014305 302.592285 
144.990356 7935.699219 
145.991592 3983.513672 
172.981888 75376.1875 
173.030853 4153.753906 
173.988174 43780.0 
174.99028 1912.336914 
231.0224 3353.892578 
232.029999 4179.261719 
292.027832 415.730225 
297.977356 1049.283203 
325.972046 1083.019531 
330.001251 535.578613 
469.766052 65.0 
490.024872 61.0 
527.217529 46.0 
542.652771 42.0 
547.028259 37.0 
550.611206 39.0 
555.493591 78.0 
555.701416 98.0 
601.3797 69.0 
611.839355 24.0 
616.647278 21.0 
617.68512 21.0 
624.12384 21.0 
629.724854 36.0 
638.051025 18.0 
641.757996 21.0 
688.8526 22.0 
737.948669 50.0 
756.319153 29.0 
782.721924 20.0 
790.236694 20.0 
END IONS

BEGIN IONS
RTINSECONDS=170.544006
CHARGE=1-
MSLEVEL=2
SMILES=O=C1c2c(C)c(Cl)c(O)c(Cl)c2Oc2c(O1)cc(c(c2C)C(=O)OC)OC
INCHI=InChI=1S/C18H14Cl2O7/c1-6-11-16(13(20)14(21)12(6)19)27-15-7(2)10(17(22)25-4)8(24-3)5-9(15)26-18(11)23/h5,21H,1-4H3
INCHIKEY=RPHAAJGBADUATP-UHFFFAOYSA-N
CLASS=Depsidones
ADDUCT=[M-H]-
INSTRUMENT=Waters Q-ToF Xevo G2-XS
PRECURSOR_MZ=411.0038
COMPOUND_NAME=Gangaleoidin
ION_MODE=negative
FORMULA=C18H14Cl2O7
74.964676 902.189453 
82.974609 600.449219 
89.003403 611.0 
172.96167 8386.320312 
194.040955 10377.328125 
210.035019 12315.640625 
293.987 560868.0 
294.998413 123940.0 
302.003143 160720.25 
308.00351 265210.75 
351.993744 204384.25 
352.994507 184731.75 
368.020569 230339.0 
376.031555 258224.375 
478.997589 806.506348 
480.986694 595.0 
510.930664 763.322754 
511.197327 526.979004 
512.928345 567.916016 
539.928894 530.885742 
550.921082 504.309326 
578.918152 320.911621 
580.912781 355.625977 
601.937195 456.52002 
603.934326 361.372314 
677.866211 249.402832 
704.881348 169.0 
719.888794 220.523804 
729.881409 166.358521 
733.8573 281.0 
746.169495 170.022949 
778.797424 156.0 
796.93927 129.0 
798.857544 181.0 
END IONS

BEGIN IONS
RTINSECONDS=223.281998
CHARGE=1-
MSLEVEL=2
SMILES=O=C1Oc2c(c(CCCCC)c(C(=O)O)c(O)c2)Oc2c1c(cc(c2)OC)CCCCC
INCHI=InChI=1S/C25H30O7/c1-4-6-8-10-15-12-16(30-3)13-19-21(15)25(29)32-20-14-18(26)22(24(27)28)17(23(20)31-19)11-9-7-5-2/h12-14,26H,4-11H2,1-3H3,(H,27,28)
INCHIKEY=RWVJYKHAFMWADK-UHFFFAOYSA-N
CLASS=Depsidones
ADDUCT=[M-H]-
INSTRUMENT=Waters Q-ToF Xevo G2-XS
PRECURSOR_MZ=441.1913
COMPOUND_NAME=Colensoic acid
ION_MODE=negative
FORMULA=C25H30O7
83.019615 8843.40625 
122.04126 38467.8125 
133.109451 995092.0 
134.081818 98339.4375 
179.11142 191172.75 
210.041458 333509.0 
243.103439 523933.0 
267.10614 1545594.0 
268.138397 845891.0 
281.120667 1006552.5 
282.127563 836679.5 
284.110077 1006034.0 
295.136597 1288720.0 
338.191284 1501740.0 
340.169006 720453.0 
353.214233 1229653.0 
355.198914 1246539.0 
397.204437 1330214.0 
509.181854 8989.203125 
539.127197 5721.84375 
541.121765 104164.875 
541.22406 5218.300781 
542.125183 46102.0625 
543.123535 13818.773438 
609.104248 8144.742188 
610.109497 2940.869141 
611.107178 2091.779297 
679.098389 851.162109 
681.291321 527.327637 
722.116333 1007.210449 
723.118408 7221.066406 
724.119934 2652.958984 
725.127869 472.548828 
793.397339 464.0 
794.407349 225.975342 
END IONS

BEGIN IONS
RTINSECONDS=192.376999
CHARGE=1-
MSLEVEL=2
SMILES=O=C1O/C(=C(/C(=O)N[C@H](C(=O)O)Cc2ccccc2)\c2ccccc2)/C(=C1c1ccccc1)O
INCHI=InChI=1S/C27H21NO6/c29-23-21(18-12-6-2-7-13-18)27(33)34-24(23)22(19-14-8-3-9-15-19)25(30)28-20(26(31)32)16-17-10-4-1-5-11-17/h1-15,20,29H,16H2,(H,28,30)(H,31,32)/b24-22+/t20-/m0/s1
INCHIKEY=XTLHEUFWRQKNNG-YVURAWIMSA-N
CLASS=Pulvinic Acid Derivatives
ADDUCT=[M-H]-
INSTRUMENT=Waters Q-ToF Xevo G2-XS
PRECURSOR_MZ=454.1291
COMPOUND_NAME=Norrhizocarpic acid
ION_MODE=negative
FORMULA=C27H21NO6
101.042709 49462.59375 
117.049873 1254900.0 
118.006805 411236.25 
118.040863 132671.25 
184.042694 119542.0 
191.086746 859762.0 
192.093307 265047.5 
234.072449 279470.25 
263.071564 1179347.0 
263.165314 123705.8125 
264.097229 1199424.0 
275.096008 94721.4375 
276.100037 137701.25 
339.164124 7791.878906 
365.136597 16305.351562 
366.153931 39760.78125 
367.155945 99745.125 
410.140381 274187.25 
411.146149 558997.0 
546.132141 4227.832031 
554.05896 41889.0 
555.06012 15360.125 
556.062195 4675.007812 
576.038208 3705.386719 
616.02594 261.0 
622.046753 1963.34375 
623.052246 770.52002 
653.977905 503.261719 
674.048828 239.0 
721.979553 146.0 
738.996216 157.0 
753.989258 156.0 
761.117981 180.0 
781.953247 122.0 
791.064941 116.0 
793.9422 129.0 
793.976807 137.0 
END IONS

BEGIN IONS
RTINSECONDS=14.925
CHARGE=1-
MSLEVEL=2
SMILES=OC[C@@H](O)[C@@H](O)[C@H](O)[C@H](O)CO
INCHI=InChI=1S/C6H14O6/c7-1-3(9)5(11)6(12)4(10)2-8/h3-12H,1-2H2/t3-,4-,5-,6-/m1/s1
INCHIKEY=FBPFZTCFMRRESA-KVTDHHQDSA-N
CLASS="Polyols, Monosaccharides, Carbohydrates"
ADDUCT=[M-H+HCOOH]-
INSTRUMENT=Waters Q-ToF Xevo G2-XS
PRECURSOR_MZ=227.0767
COMPOUND_NAME=D-Mannitol
ION_MODE=negative
FORMULA=C6H14O6
71.017296 30148.828125 
85.031456 13929.023438 
89.02713 52117.90625 
101.026657 66523.5 
113.022141 8056.480469 
119.035782 15561.1875 
163.060608 21046.09375 
181.070984 829047.0 
181.129227 62522.125 
181.208405 27178.078125 
181.298874 17482.0 
181.385941 7954.007812 
254.945419 95.0 
256.91861 165.0 
284.811951 60.0 
315.865356 113.0 
322.91394 74.0 
325.926788 85.0 
353.389557 66.0 
361.863922 99.0 
365.787506 57.0 
378.947601 51.0 
431.526031 79.0 
433.264801 45.0 
489.647552 46.0 
499.035034 22.0 
508.88208 22.0 
511.40741 28.0 
512.963867 20.0 
540.534729 37.0 
550.22229 37.0 
591.82843 38.0 
592.8172 41.0 
597.172058 63.0 
601.441345 51.0 
625.559021 62.0 
648.365845 41.0 
659.785828 24.0 
666.165649 37.0 
684.672607 96.0 
715.01709 39.0 
716.38739 31.0 
739.510132 27.0 
759.184387 20.0 
762.153076 59.0 
790.086365 36.0 
END IONS

BEGIN IONS
RTINSECONDS=180.753998
CHARGE=1-
MSLEVEL=2
SMILES=CC(C)C[C@H](NC(=O)c1ccccc1)C(=O)OC[C@@H](NC(=O)c1ccccc1)Cc1ccccc1
INCHI=InChI=1S/C29H32N2O4/c1-21(2)18-26(31-28(33)24-16-10-5-11-17-24)29(34)35-20-25(19-22-12-6-3-7-13-22)30-27(32)23-14-8-4-9-15-23/h3-17,21,25-26H,18-20H2,1-2H3,(H,30,32)(H,31,33)/t25-,26-/m0/s1
INCHIKEY=JOOSAYNHLJGJCN-UIOOFZCWSA-N
CLASS=N-Containing Compounds
ADDUCT=[M-H]-
INSTRUMENT=Waters Q-ToF Xevo G2-XS
PRECURSOR_MZ=471.2284
COMPOUND_NAME=Hypothallin
ION_MODE=negative
FORMULA=C29H32N2O4
66.037361 866.256348 
77.04335 10069.867188 
82.06929 18348.578125 
84.087143 1224.475586 
107.053223 1437.103516 
120.047775 16284.671875 
190.12558 445452.25 
234.11557 1001524.5 
234.180481 79004.375 
234.266724 41388.25 
234.370972 26412.59375 
254.12001 37893.0 
306.804993 113.0 
340.966736 188.0 
355.650574 113.0 
363.85202 135.0 
367.832672 129.0 
385.430054 184.0 
411.646515 127.0 
435.803802 172.0 
438.879028 152.0 
507.208008 639.33252 
508.206909 181.221924 
517.232605 175.0 
527.115601 94.0 
564.192688 85.0 
599.802856 113.0 
618.935425 135.0 
627.653992 74.0 
636.776489 75.0 
657.470032 65.0 
664.874817 78.0 
676.294739 73.0 
678.710571 60.0 
714.996277 49.0 
720.995422 60.0 
735.59729 47.0 
755.734741 48.0 
761.863281 60.0 
770.707275 89.0 
796.134338 47.0 
END IONS

BEGIN IONS
RTINSECONDS=151.514999
CHARGE=1-
MSLEVEL=2
SMILES=Cc1c2c(Oc3c(OC2=O)c(c(c(c3C)C(=O)O)O)COCC)c(C=O)c(O)c1
INCHI=InChI=1S/C20H18O9/c1-4-27-7-11-15(23)14(19(24)25)9(3)16-18(11)29-20(26)13-8(2)5-12(22)10(6-21)17(13)28-16/h5-6,22-23H,4,7H2,1-3H3,(H,24,25)
INCHIKEY=SPLUKWYWJOQKMJ-UHFFFAOYSA-N
CLASS=Depsidones
ADDUCT=[M-H+CH3OH]-
INSTRUMENT=Waters Q-ToF Xevo G2-XS
PRECURSOR_MZ=433.1135
COMPOUND_NAME=Cetraric acid
ION_MODE=negative
FORMULA=C20H18O9
68.999756 382.986084 
78.160042 426.0 
105.036507 1859.942383 
106.041824 1095.755859 
135.045578 1850.023438 
149.026672 5752.148438 
172.056366 4818.085938 
185.062912 6113.769531 
213.057861 70099.375 
228.044846 33567.59375 
238.064514 22114.34375 
239.073547 20592.453125 
267.068207 46391.25 
281.074432 40597.78125 
298.08432 35999.28125 
310.049286 17964.71875 
325.071686 222373.0 
357.097717 53047.21875 
369.060242 12564.890625 
387.071991 57101.875 
401.089691 253736.625 
401.168152 11364.796875 
489.346527 3090.458984 
490.340393 828.261719 
501.104645 851.0 
507.352386 897.0 
533.038147 1461.0 
545.127319 357.0 
573.036133 317.489014 
578.027893 938.52002 
578.054688 520.475098 
602.03241 279.214355 
646.0047 254.0 
675.014404 286.0 
694.969299 155.338501 
709.476501 399.0 
710.11499 146.0 
725.967957 166.0 
762.947754 131.0 
766.5625 163.0 
766.931152 129.0 
774.104736 209.0 
783.055359 125.0 
784.078674 126.0 
END IONS

BEGIN IONS
RTINSECONDS=178.470993
CHARGE=1-
MSLEVEL=2
SMILES=O=C1c2c(CC(=O)CCCCC)cc(O)cc2Oc2c(O1)cc(c(c2CCCCC)C(=O)O)O
INCHI=InChI=1S/C26H30O8/c1-3-5-7-9-16(27)11-15-12-17(28)13-20-22(15)26(32)34-21-14-19(29)23(25(30)31)18(24(21)33-20)10-8-6-4-2/h12-14,28-29H,3-11H2,1-2H3,(H,30,31)
INCHIKEY=KVTYWHGIZSCFLG-UHFFFAOYSA-N
CLASS=Depsidones
ADDUCT=[M-H+CH3OH]-
INSTRUMENT=Waters Q-ToF Xevo G2-XS
PRECURSOR_MZ=501.2125
COMPOUND_NAME=Physodic acid
ION_MODE=negative
FORMULA=C26H30O8
63.780006 308.0 
81.034157 890.437012 
105.034805 3279.109375 
123.04808 5930.285156 
133.10141 14175.359375 
149.026398 19241.703125 
161.036453 6005.5625 
165.093628 5384.53125 
225.05365 5841.160156 
226.061356 9394.476562 
247.097885 54590.84375 
259.133972 25917.46875 
283.132874 63124.71875 
285.114899 17383.5 
327.125153 27680.3125 
354.109894 30871.171875 
357.207642 29053.453125 
381.206421 165380.125 
383.185669 89573.5 
407.185608 333083.5 
425.19632 411831.5 
451.176025 81756.75 
469.186951 52061.34375 
483.201843 155205.125 
569.202209 11762.359375 
570.201538 2581.375 
584.126831 1584.807617 
601.141052 14542.375 
602.141907 5227.679688 
603.139404 2659.875 
641.132996 2795.724609 
646.136475 5310.890625 
647.137695 2288.525391 
669.124451 2044.807617 
714.130554 870.516602 
717.121826 369.022705 
722.073792 273.415771 
782.114685 235.716064 
794.065918 235.569092 
795.08374 269.436035 
END IONS

BEGIN IONS
RTINSECONDS=229.850006
CHARGE=1-
MSLEVEL=2
SMILES=CCCCCCCCCCCCC[C@H]1C(=C(C(=O)O1)C)C(=O)O
INCHI=InChI=1S/C19H32O4/c1-3-4-5-6-7-8-9-10-11-12-13-14-16-17(18(20)21)15(2)19(22)23-16/h16H,3-14H2,1-2H3,(H,20,21)/t16-/m0/s1
INCHIKEY=SLQVVNFTCYVCPB-INIZCTEOSA-N
CLASS=Paraconic acids
ADDUCT=[M-H]-
INSTRUMENT=Waters Q-ToF Xevo G2-XS
PRECURSOR_MZ=323.2222
COMPOUND_NAME=Lichesterinic acid
ION_MODE=negative
FORMULA=C19H32O4
53.557144 241.0 
54.292343 275.0 
59.149685 262.0 
74.0662 244.0 
75.375961 258.0 
81.575813 280.0 
144.274445 249.0 
153.599792 233.0 
183.012497 367.265625 
223.203323 241.550537 
235.245941 91031.9375 
236.249619 63808.03125 
279.232513 814191.0 
280.235474 665445.5 
391.213776 4389.148438 
392.212494 940.0 
398.235046 719.037598 
423.148407 13047.710938 
424.151825 3395.029297 
425.154358 1073.552734 
463.14444 1820.189453 
491.142944 5787.570312 
492.138245 1988.836914 
575.416138 355.0 
591.062561 423.533447 
647.455017 128040.3125 
648.458313 54759.0625 
669.437866 251490.875 
670.440186 143255.25 
671.443298 40939.3125 
685.409851 20292.046875 
730.377197 6042.359375 
749.390137 4108.171875 
769.363281 34086.65625 
770.36438 17343.765625 
771.369629 5746.074219 
785.338074 1889.660156 
END IONS

BEGIN IONS
RTINSECONDS=188.886002
CHARGE=1-
MSLEVEL=2
SMILES=Cc1cc(c2c(c1)C(=O)c1c(c(cc(c1C2=O)O)O)c1c2c(c(cc1O)O)C(=O)c1c(cc(cc1C2=O)C)O)O
INCHI=InChI=1S/C30H18O10/c1-9-3-11-19(13(31)5-9)29(39)23-17(35)7-15(33)21(25(23)27(11)37)22-16(34)8-18(36)24-26(22)28(38)12-4-10(2)6-14(32)20(12)30(24)40/h3-8,31-36H,1-2H3
INCHIKEY=MQSXZQXHIJMNAF-UHFFFAOYSA-N
CLASS=Quinones
ADDUCT=[M-H]-
INSTRUMENT=Waters Q-ToF Xevo G2-XS
PRECURSOR_MZ=537.0822
COMPOUND_NAME=Skyrin
ION_MODE=negative
FORMULA=C30H18O10
77.888405 142.0 
84.412064 143.0 
100.66568 155.0 
107.047272 175.298462 
131.048889 225.0 
159.045303 322.34375 
173.058914 411.378174 
175.041046 13478.570312 
187.043076 801.655273 
201.058441 32508.0 
225.059113 4543.328125 
265.051392 4274.609375 
269.048584 3336.722656 
281.044159 26214.734375 
293.049713 6151.765625 
309.043091 46302.53125 
335.023376 20286.46875 
425.105438 8099.042969 
451.085968 30065.90625 
468.084412 11680.859375 
469.09668 42364.84375 
475.087158 14659.523438 
493.091827 31996.765625 
519.074402 59416.375 
605.061523 152.0 
605.135864 99.0 
607.104065 150.0 
620.001343 196.0 
627.047485 103.269836 
660.776672 95.0 
674.067749 112.0 
682.004028 138.0 
695.028503 135.07373 
703.045227 91.0 
705.82782 91.0 
743.955322 70.0 
745.768005 95.0 
749.996887 85.0 
774.811035 62.0 
777.711182 64.0 
797.946289 107.0 
END IONS

BEGIN IONS
RTINSECONDS=103.263
CHARGE=1-
MSLEVEL=2
SMILES=Oc1c2c([C@@H](OC)[C@H](C)OC2=O)c(O)c2c1C(=O)C=C(OC)C2=O
INCHI=InChI=1S/C16H14O8/c1-5-15(23-3)10-11(16(21)24-5)13(19)8-6(17)4-7(22-2)12(18)9(8)14(10)20/h4-5,15,19-20H,1-3H3/t5-,15-/m0/s1
INCHIKEY=WPHIVUBMBWBSCK-SPHRHWQCSA-N
CLASS=Quinones
ADDUCT=[M-H]-
INSTRUMENT=Waters Q-ToF Xevo G2-XS
PRECURSOR_MZ=333.061
COMPOUND_NAME=Methoxyhaemoventosine
ION_MODE=negative
FORMULA=C16H14O8
60.684017 209.0 
115.054909 1348.0 
131.039749 3038.164062 
159.043747 5520.292969 
187.042908 10465.71875 
216.040268 13839.726562 
231.032669 32282.4375 
246.056686 23806.09375 
256.041626 31767.3125 
259.039703 52688.375 
274.050568 42606.875 
303.022614 38204.1875 
401.051605 302.820557 
411.071991 893.268066 
437.110382 596.636719 
447.12616 601.062988 
451.082153 339.0 
469.138397 477.516113 
495.15448 1309.095703 
519.103699 168.0 
527.096863 137.162598 
531.114075 139.0 
585.175232 149.0 
611.120178 229.040527 
623.130249 141.0 
689.111694 440.293213 
709.144043 567.090332 
714.121216 497.0 
753.141052 1420.135742 
771.158386 5291.984375 
772.158875 1882.364258 
785.141846 2002.220703 
786.160583 672.0 
793.154602 1132.029297 
END IONS

BEGIN IONS
RTINSECONDS=139.705994
CHARGE=1-
MSLEVEL=2
SMILES=O=c1c2c(oc3c1c(C)cc(O)c3)cc(O)cc2O
INCHI=InChI=1S/C14H10O5/c1-6-2-7(15)4-10-12(6)14(18)13-9(17)3-8(16)5-11(13)19-10/h2-5,15-17H,1H3
INCHIKEY=AQZHBCDRWFMXIN-UHFFFAOYSA-N
CLASS=Xanthones and bis-Xanthones
ADDUCT=[M-H]-
INSTRUMENT=Waters Q-ToF Xevo G2-XS
PRECURSOR_MZ=257.045
COMPOUND_NAME=Norlichexanthone
ION_MODE=negative
FORMULA=C14H10O5
65.012466 3153.894531 
105.037697 326963.75 
107.017517 15232.09375 
131.051559 123166.0 
149.026505 312180.75 
157.067612 233418.75 
185.060608 148330.25 
187.042084 78258.0625 
213.054855 738838.0 
356.970154 5718.0 
357.974365 1468.969727 
389.065552 891.512695 
391.03833 779.471191 
393.037567 476.451172 
398.982117 664.4375 
447.970917 619.342285 
449.027557 252.0 
507.006622 993.80127 
527.0979 3260.044922 
527.189148 313.788818 
528.108215 525.130859 
529.093811 294.859131 
579.08313 369.491211 
596.026917 266.508545 
598.021301 4008.255859 
599.029907 1588.411133 
600.010071 303.023438 
660.019897 1177.0 
661.018555 300.374023 
679.093384 370.0 
697.034302 196.0 
709.994446 211.13562 
726.050903 167.0 
731.080872 155.0 
748.053772 1007.154297 
749.062073 154.68042 
781.107361 119.243103 
END IONS

BEGIN IONS
RTINSECONDS=188.513
CHARGE=1-
MSLEVEL=2
SMILES=O=C1OC2=C(c3ccccc3)C(=O)OC2=C1c1ccccc1
INCHI=InChI=1S/C18H10O4/c19-17-13(11-7-3-1-4-8-11)15-16(22-17)14(18(20)21-15)12-9-5-2-6-10-12/h1-10H
INCHIKEY=KQTXUHHOWJUFOZ-UHFFFAOYSA-N
CLASS=Pulvinic Acid Derivatives
ADDUCT=[M-H+CH3OH]-
INSTRUMENT=Waters Q-ToF Xevo G2-XS
PRECURSOR_MZ=321.0763
COMPOUND_NAME=Pulvinic acid dilactone
ION_MODE=negative
FORMULA=C18H10O4
89.042992 2529.59375 
101.041779 10454.546875 
117.041855 896386.0 
117.078423 10108.484375 
118.033318 211982.0 
125.042229 9265.234375 
189.069733 899432.0 
189.1716 77225.0625 
190.081787 977445.0 
191.087799 884282.0 
249.091034 1000138.0 
250.112198 1022398.0 
262.062897 518721.25 
263.071991 534977.0 
421.000641 1801.767578 
422.006683 701.96875 
423.006195 254.878418 
425.103699 176.0 
460.998871 549.418457 
479.935089 213.0 
488.992554 2024.875 
489.988129 658.50293 
490.020569 265.0 
535.230469 215.0 
555.826294 124.0 
575.011292 95.0 
641.146484 4460.714844 
665.145081 149077.875 
665.25824 6487.929688 
666.147583 56327.28125 
667.148987 14840.054688 
681.117737 5180.574219 
727.121033 1306.894531 
745.084839 1043.544922 
765.071716 1114.875977 
799.015686 173.0 
END IONS

BEGIN IONS
RTINSECONDS=146.408997
CHARGE=1-
MSLEVEL=2
SMILES=O=C1c2c(C)cc(OC)c(C)c2Oc2c(O1)cc(c(c2C)C(=O)O)O
INCHI=InChI=1S/C18H16O7/c1-7-5-11(23-4)8(2)16-13(7)18(22)24-12-6-10(19)14(17(20)21)9(3)15(12)25-16/h5-6,19H,1-4H3,(H,20,21)
INCHIKEY=IXEVSIMCIWOSQO-UHFFFAOYSA-N
CLASS=Depsidones
ADDUCT=[M-H+CH3OH]-
INSTRUMENT=Waters Q-ToF Xevo G2-XS
PRECURSOR_MZ=375.108
COMPOUND_NAME=Notatic acid
ION_MODE=negative
FORMULA=C18H16O7
60.185555 184.0 
70.92981 209.0 
109.031868 1328.609375 
120.055634 387.767822 
137.02359 3278.138672 
138.033813 6045.789062 
182.023483 6532.726562 
197.060944 34428.1875 
211.07933 16244.085938 
240.080032 91908.0625 
242.060562 10802.320312 
255.102631 44875.59375 
257.082062 21797.15625 
299.09201 31849.328125 
325.072937 3106.351562 
343.082184 49574.09375 
443.097626 193.0 
455.069305 148.0 
458.045563 293.381348 
471.172333 202.0 
475.03772 142.0 
515.019836 193.0 
518.015198 136.0 
520.033997 399.880371 
569.994873 126.8172 
571.014282 112.0 
588.015625 146.0 
607.210938 102.0 
608.103577 143.0 
615.762756 119.0 
666.082581 191.0 
668.079041 307.567383 
668.107422 143.803955 
670.103088 170.294189 
677.698792 132.0 
743.738159 76.0 
765.902161 71.0 
766.054443 75.0 
772.179504 95.067322 
773.505188 90.0 
782.65625 71.0 
789.903748 72.0 
END IONS

BEGIN IONS
RTINSECONDS=192.964996
CHARGE=1-
MSLEVEL=2
SMILES=CCCCCCCCCC[C@H]1C[C@H]([C@@H](C(=O)O1)C)C(=O)O
INCHI=InChI=1S/C17H30O4/c1-3-4-5-6-7-8-9-10-11-14-12-15(16(18)19)13(2)17(20)21-14/h13-15H,3-12H2,1-2H3,(H,18,19)/t13-,14-,15+/m0/s1
INCHIKEY=SRMPRRDLILJEAW-SOUVJXGZSA-N
CLASS=Acids
ADDUCT=[M-H]-
INSTRUMENT=Waters Q-ToF Xevo G2-XS
PRECURSOR_MZ=297.2066
COMPOUND_NAME=Acaranoic acid
ION_MODE=negative
FORMULA=C17H30O4
73.034088 4086.03125 
83.053047 15279.179688 
85.033241 21985.5 
99.045158 5174.894531 
112.017609 1425.0 
113.023087 1294.193359 
167.144638 4406.707031 
169.16243 32599.21875 
183.014954 1762.105469 
183.175644 4254.246094 
197.190491 2229.908203 
253.224609 1286349.0 
397.135529 21952.765625 
397.221954 2564.296875 
425.131653 1201.363281 
429.160278 2223.330078 
468.143158 1260.849609 
469.153168 1556.958984 
497.145172 1239.806641 
551.116699 173.0 
615.39502 10296.617188 
617.4104 42889.125 
618.413086 14857.9375 
659.478088 28324.8125 
679.444275 22124.4375 
681.457947 84937.0 
682.461548 29997.75 
683.445801 16736.46875 
712.387146 13738.710938 
761.401611 1659.0 
779.421448 1294.913086 
781.383911 2017.889648 
782.37439 965.834961 
END IONS

BEGIN IONS
RTINSECONDS=143.119995
CHARGE=1-
MSLEVEL=2
SMILES=CCCCCc1cc(cc(c1C(=O)O)O)O
INCHI=InChI=1S/C12H16O4/c1-2-3-4-5-8-6-9(13)7-10(14)11(8)12(15)16/h6-7,13-14H,2-5H2,1H3,(H,15,16)
INCHIKEY=SXFKFRRXJUJGSS-UHFFFAOYSA-N
CLASS=Cleavage Products of Depsides and Depsidones
ADDUCT=[M-H]-
INSTRUMENT=Waters Q-ToF Xevo G2-XS
PRECURSOR_MZ=223.097
COMPOUND_NAME=Olivetolcarboxylic acid
ION_MODE=negative
FORMULA=C12H16O4
79.058006 774.852051 
81.037193 7384.042969 
91.023468 1777.621094 
122.039116 10998.289062 
135.117813 30196.8125 
137.09903 57866.71875 
179.106491 376725.5 
205.089218 14325.046875 
279.030182 316.0 
311.167175 229.0 
323.02652 446.963623 
325.184387 805.970703 
339.201019 386.0 
367.18634 788.048828 
368.023041 748.333496 
370.035797 1171.287109 
442.149567 690.890137 
445.191925 724.73877 
456.315369 828.139648 
469.185638 3888.443359 
500.117828 4074.230469 
501.116211 1102.46875 
504.142822 7488.679688 
505.148407 1455.366211 
533.283936 1156.976562 
551.305237 433.830566 
554.127808 1394.984375 
572.134644 376.316895 
623.340515 1363.884766 
628.22406 2441.001953 
638.254639 13604.007812 
639.256531 5039.046875 
640.253479 1236.0 
674.38208 1575.412109 
688.234619 744.878906 
741.347961 791.699707 
772.36377 10534.359375 
773.370178 2733.636719 
774.378723 872.269043 
779.344482 4528.855469 
781.355286 1912.125 
END IONS

BEGIN IONS
RTINSECONDS=91.751999
CHARGE=1-
MSLEVEL=2
SMILES=Cc1cc(cc(c1C(=O)O)O)O
INCHI=InChI=1S/C8H8O4/c1-4-2-5(9)3-6(10)7(4)8(11)12/h2-3,9-10H,1H3,(H,11,12)
INCHIKEY=AMKYESDOVDKZKV-UHFFFAOYSA-N
CLASS=Cleavage Products of Depsides and Depsidones
ADDUCT=[M-H]-
INSTRUMENT=Waters Q-ToF Xevo G2-XS
PRECURSOR_MZ=167.0344
COMPOUND_NAME=Orsellinic acid
ION_MODE=negative
FORMULA=C8H8O4
65.0065 2160.587891 
77.044518 17876.578125 
79.059647 316140.5 
81.03968 717437.0 
81.187744 15523.617188 
123.051025 930810.0 
123.242752 24854.5625 
149.026138 24692.015625 
249.956726 337.0 
252.016495 69.0 
266.956696 108.0 
301.927704 97.0 
357.061279 7541.195312 
358.062073 1308.177734 
359.045227 638.876465 
387.989471 5012.664062 
388.996887 2038.0 
389.998199 586.0 
423.963226 325.263916 
455.974365 146.0 
525.090515 748.867676 
541.069214 1760.324219 
557.04248 2484.0 
558.045593 676.291992 
559.039185 1829.168945 
578.016174 1596.0 
625.083679 196.0 
646.008423 205.071411 
647.007202 333.268311 
660.942871 183.562622 
715.108459 226.0 
731.09021 553.108887 
762.013916 493.0 
768.048645 653.986328 
769.049133 512.624023 
776.974304 546.022949 
777.99176 575.533691 
END IONS

BEGIN IONS
RTINSECONDS=157.283005
CHARGE=1-
MSLEVEL=2
SMILES=Cc1cc(c(c(c1C(=O)O)O)C=O)O
INCHI=InChI=1S/C9H8O5/c1-4-2-6(11)5(3-10)8(12)7(4)9(13)14/h2-3,11-12H,1H3,(H,13,14)
INCHIKEY=KCOOTJRKKIDHTM-UHFFFAOYSA-N
CLASS=Cleavage Products of Depsides and Depsidones
ADDUCT=[M-H]-
INSTRUMENT=Waters Q-ToF Xevo G2-XS
PRECURSOR_MZ=195.0293
COMPOUND_NAME=Haematommic acid
ION_MODE=negative
FORMULA=C9H8O5
69.001839 6970.875 
105.036865 30020.234375 
109.032051 3476.986328 
123.045746 4610.601562 
133.030609 49202.34375 
151.041428 7613.316406 
177.017944 184072.0 
177.072189 8980.0 
254.756302 43.0 
255.142853 64.0 
265.889099 50.0 
297.161255 40.0 
305.909393 47.0 
325.382751 28.0 
350.141571 25.0 
351.962128 31.0 
360.240875 23.0 
410.269531 39.0 
411.483093 89.0 
416.684509 24.0 
428.793945 79.0 
459.693024 123.0 
475.653717 74.0 
498.117126 34.0 
509.72522 25.0 
521.379028 37.0 
541.697937 39.0 
581.67572 49.0 
592.743469 46.0 
593.51123 25.0 
600.306702 36.0 
657.065491 47.0 
658.775635 27.0 
697.989563 36.0 
END IONS

BEGIN IONS
RTINSECONDS=181.378998
CHARGE=1-
MSLEVEL=2
SMILES=Oc1c(C(=O)Oc2c(O)c(C=O)c(c(C(=O)O)c2C)O)c(C)cc(OC)c1C(=O)O
INCHI=InChI=1S/C19H16O11/c1-6-4-9(29-3)12(18(26)27)15(23)10(6)19(28)30-16-7(2)11(17(24)25)13(21)8(5-20)14(16)22/h4-5,21-23H,1-3H3,(H,24,25)(H,26,27)
INCHIKEY=RNCJCRJLNVRWJX-UHFFFAOYSA-N
CLASS=Depsides (Didepsides)
ADDUCT=[M-2H+K]-
INSTRUMENT=Waters Q-ToF Xevo G2-XS
PRECURSOR_MZ=457.0173
COMPOUND_NAME=Thamnolic acid
ION_MODE=negative
FORMULA=C19H16O11
79.055984 778.0 
81.038864 3064.726562 
91.022423 43695.6875 
105.035988 5034.550781 
133.101639 8954.585938 
135.11441 19789.171875 
137.100128 32252.78125 
161.099854 94954.9375 
179.110931 224576.625 
205.092636 765846.0 
223.098129 683658.0 
223.18222 41509.71875 
251.094986 15635.851562 
282.135162 503.675049 
297.15097 5098.105469 
325.143646 783.408203 
338.155365 485.371094 
353.178162 3708.347656 
369.210266 28852.53125 
387.14801 666.586914 
525.177368 4266.417969 
526.185364 488.632568 
540.107178 958.926758 
557.110352 5490.460938 
558.115417 1328.115234 
559.111572 2483.074219 
598.113831 961.387207 
602.109253 2843.783203 
625.093201 769.291016 
652.089172 402.234131 
666.09967 318.0 
670.093567 559.0 
695.092529 254.774414 
701.023438 225.0 
719.042053 230.0 
757.065369 180.0 
767.006165 155.0 
774.625732 226.0 
788.027466 132.0 
END IONS

BEGIN IONS
RTINSECONDS=195.556
CHARGE=1-
MSLEVEL=2
SMILES=CC(C[C@H](NC(=O)/C(=C\1/C(=C(c2ccccc2)C(=O)O1)O)/c1ccccc1)C(=O)O)C
INCHI=InChI=1S/C24H23NO6/c1-14(2)13-17(23(28)29)25-22(27)19(16-11-7-4-8-12-16)21-20(26)18(24(30)31-21)15-9-5-3-6-10-15/h3-12,14,17,26H,13H2,1-2H3,(H,25,27)(H,28,29)/b21-19-/t17-/m0/s1
INCHIKEY=ZQLBONJLBKDOLE-UFVMTTLYSA-N
CLASS=Pulvinic Acid Derivatives
ADDUCT=[M-H]-
INSTRUMENT=Waters Q-ToF Xevo G2-XS
PRECURSOR_MZ=420.1447
COMPOUND_NAME=Norepanorin
ION_MODE=negative
FORMULA=C24H23NO6
101.04129 15193.953125 
117.040138 590290.5 
118.036736 102158.8125 
118.080261 5704.460938 
130.089966 66679.5625 
157.055435 14753.492188 
191.089172 238807.25 
192.089371 52503.625 
214.126572 124630.0625 
263.07309 1342974.0 
263.142761 174487.75 
263.240509 88234.9375 
264.081329 652069.5 
314.156006 16141.945312 
330.152527 30046.46875 
332.168854 110746.6875 
333.166779 30340.59375 
376.155304 488395.5 
377.159698 148322.25 
510.11853 1755.0 
519.064026 1355.595703 
520.073792 12747.46875 
521.077698 4215.167969 
542.053162 1173.046875 
578.094177 431.154297 
588.06311 1530.25 
590.065491 591.254395 
640.08136 186.947388 
680.017639 191.29541 
681.954163 232.0 
694.040161 192.0 
696.076233 234.0 
704.981506 206.673828 
762.973999 141.0 
769.085693 146.0 
777.3396 209.0 
784.945618 151.0 
785.758057 263.898193 
END IONS

BEGIN IONS
RTINSECONDS=190.800003
CHARGE=1-
MSLEVEL=2
SMILES=O=C1c2c(CCCCC)cc(OC)c(O)c2Oc2c(O1)cc(c(c2CCCCC)C(=O)O)O
INCHI=InChI=1S/C25H30O8/c1-4-6-8-10-14-12-17(31-3)21(27)23-19(14)25(30)32-18-13-16(26)20(24(28)29)15(22(18)33-23)11-9-7-5-2/h12-13,26-27H,4-11H2,1-3H3,(H,28,29)
INCHIKEY=VZPSCITXDMDLDC-UHFFFAOYSA-N
CLASS=Depsidones
ADDUCT=[M-H]-
INSTRUMENT=Waters Q-ToF Xevo G2-XS
PRECURSOR_MZ=457.1862
COMPOUND_NAME=3-Hydroxycolensoic acid
ION_MODE=negative
FORMULA=C25H30O8
83.018761 4460.84375 
91.025909 12511.679688 
122.041206 76736.875 
133.105713 217732.75 
164.049698 84373.25 
179.112839 857078.5 
205.090775 280646.25 
207.10701 200095.875 
221.086884 402997.25 
222.094147 130709.75 
283.100159 548303.0 
297.116943 1209364.0 
298.134583 525002.5 
311.132416 1240303.0 
327.092468 1366891.0 
342.112274 994959.0 
354.185822 1556691.0 
369.208252 1198295.0 
371.188477 537931.5 
413.198303 1125245.0 
525.173584 5220.453125 
555.124146 3525.199219 
557.115479 68711.125 
557.216614 3631.824219 
558.118286 27366.796875 
559.118103 7035.171875 
625.096252 2359.982422 
652.087891 703.020508 
666.092896 568.0 
695.085754 224.565552 
727.025391 289.0 
737.139832 219.0 
738.076782 271.155762 
774.685059 256.0 
783.043396 238.855835 
END IONS

BEGIN IONS
RTINSECONDS=102.584999
CHARGE=1-
MSLEVEL=2
SMILES=Cc1cc(O)c2c(oc3c2c(C)c(C(=O)O)c(O)c3)c1C(=O)O
INCHI=InChI=1S/C16H12O7/c1-5-3-7(17)13-12-6(2)11(16(21)22)8(18)4-9(12)23-14(13)10(5)15(19)20/h3-4,17-18H,1-2H3,(H,19,20)(H,21,22)
INCHIKEY=ZVWOMGLVQVBJQN-UHFFFAOYSA-N
CLASS=Dibenzofuranes
ADDUCT=[M-H]-
INSTRUMENT=Waters Q-ToF Xevo G2-XS
PRECURSOR_MZ=315.0505
COMPOUND_NAME=Pannaric acid
ION_MODE=negative
FORMULA=C16H12O7
131.052795 5633.945312 
171.081345 14043.835938 
197.061661 63251.34375 
199.075424 73860.75 
212.049805 107778.6875 
227.070801 158874.0 
253.050919 52386.3125 
271.060791 152289.5 
297.041168 97054.5625 
367.972717 105.0 
383.033264 115.0 
389.605286 98.0 
414.980072 107.0 
445.226471 95.0 
459.981659 341.0 
490.166992 151.0 
503.976196 124.0 
513.474548 167.0 
519.921204 110.0 
521.579346 150.0 
555.042358 146.0 
583.084656 504.0 
585.108154 170.807617 
599.092224 180.17041 
629.094177 1402.314453 
630.092712 368.011475 
649.068848 359.075928 
651.083008 772.083984 
653.103271 841.143066 
684.024597 190.091675 
729.024963 161.0 
736.379089 153.0 
750.00415 136.0 
750.78894 139.0 
754.825317 132.0 
793.898315 150.0 
END IONS

BEGIN IONS
RTINSECONDS=215.057999
CHARGE=1-
MSLEVEL=2
SMILES=CCCCCCCCCCCCC[C@H]1[C@H]([C@H](C(=O)O1)C)C(=O)O
INCHI=InChI=1S/C19H34O4/c1-3-4-5-6-7-8-9-10-11-12-13-14-16-17(18(20)21)15(2)19(22)23-16/h15-17H,3-14H2,1-2H3,(H,20,21)/t15-,16+,17+/m1/s1
INCHIKEY=WLGALFYTFVOQPY-IKGGRYGDSA-N
CLASS=Paraconic acids
ADDUCT=[M-H+CH3OH]-
INSTRUMENT=Waters Q-ToF Xevo G2-XS
PRECURSOR_MZ=357.2641
COMPOUND_NAME=Nephromopsic acid
ION_MODE=negative
FORMULA=C19H34O4
69.035492 2898.947266 
83.012436 541.0 
85.030586 2054.46875 
97.031281 3792.625 
98.000633 559.449219 
113.026077 43355.9375 
145.055283 535.843262 
171.042023 673.705566 
189.052216 844.40625 
215.041306 1067.463867 
231.063431 6183.871094 
243.033722 1762.0 
259.061737 9402.8125 
281.246094 20217.3125 
286.047913 8544.570312 
325.236603 147583.625 
420.668304 57.0 
425.157166 273.588867 
425.21521 118.0 
425.25769 200.0 
461.474152 46.0 
484.738312 38.0 
521.900269 24.0 
570.335266 24.0 
581.12146 19.0 
598.849304 43.0 
618.635254 30.0 
634.005676 26.0 
643.081482 28.0 
681.916748 42.0 
685.473572 34.0 
736.329102 101.0 
755.823486 64.0 
777.228943 20.0 
END IONS

BEGIN IONS
RTINSECONDS=207.313004
CHARGE=1-
MSLEVEL=2
SMILES=CCCCCCCCCCCCCC[C@H](C(=O)O)[C@H](C(=O)O)CC(=O)O
INCHI=InChI=1S/C20H36O6/c1-2-3-4-5-6-7-8-9-10-11-12-13-14-16(19(23)24)17(20(25)26)15-18(21)22/h16-17H,2-15H2,1H3,(H,21,22)(H,23,24)(H,25,26)/t16-,17+/m0/s1
INCHIKEY=YBZIIVKQVVKTTD-DLBZAZTESA-N
CLASS=Acids
ADDUCT=[M-H-H2O]-
INSTRUMENT=Waters Q-ToF Xevo G2-XS
PRECURSOR_MZ=353.2328
COMPOUND_NAME=Norrangiformic acid
ION_MODE=negative
FORMULA=C20H36O6
71.028008 32596.640625 
79.977966 7380.054688 
83.052933 30750.59375 
96.962875 28147.328125 
124.018204 57445.5625 
125.024841 5849.117188 
249.224548 64004.6875 
255.234604 132611.0 
265.253296 892456.0 
266.271088 930646.5 
293.21402 155963.25 
294.218323 176113.5 
445.282684 1243.586914 
467.173462 880.354492 
483.189819 4622.367188 
485.188171 57548.96875 
485.284088 3735.730469 
488.189606 1117.001953 
526.186279 635.87793 
570.093811 139.746216 
585.370422 100.0 
641.342651 125.0 
651.050537 117.0 
653.296692 104.0 
664.189392 141.0 
666.195679 94.0 
667.214355 103.0 
673.322998 104.0 
678.081543 117.0 
730.436707 297.630615 
757.470703 892.126465 
778.455078 343.0 
781.512268 674.902344 
793.631409 4370.195312 
794.628723 744.186035 
END IONS

BEGIN IONS
RTINSECONDS=122.915001
CHARGE=1-
MSLEVEL=2
SMILES=Cc1cc(=O)c2c(c(c(cc2o1)O)C)O
INCHI=InChI=1S/C11H10O4/c1-5-3-8(13)10-9(15-5)4-7(12)6(2)11(10)14/h3-4,12,14H,1-2H3
INCHIKEY=HMAUJNAGOIPKDG-UHFFFAOYSA-N
CLASS=Chromanes and Chromones
ADDUCT=[M-H]-
INSTRUMENT=Waters Q-ToF Xevo G2-XS
PRECURSOR_MZ=205.0501
COMPOUND_NAME=Eugenitol
ION_MODE=negative
FORMULA=C11H10O4
77.044075 229617.625 
79.024094 226284.25 
81.039017 226307.125 
83.01828 204812.375 
119.056328 815465.0 
133.066727 166867.5 
135.048752 397955.5 
161.073151 915195.0 
163.043289 508957.75 
296.323944 189.0 
304.977966 830.744141 
305.983307 501.488281 
333.975952 579.371094 
341.062927 211.0 
366.232269 259.0 
367.984619 236.057373 
395.979187 996.966797 
396.981659 306.0 
464.014954 659.387207 
465.027161 1262.927734 
494.03476 6426.171875 
495.033356 1358.788086 
511.038452 1142.5625 
546.007568 618.40625 
556.040833 2896.224609 
557.039856 1103.714844 
606.027649 324.617432 
607.023132 239.0 
670.078247 3136.859375 
706.055664 11368.875 
707.061829 3773.615234 
708.04895 5007.453125 
716.084351 28145.375 
717.088074 10029.195312 
766.068481 2347.335938 
789.033264 121.135681 
790.009766 112.0 
END IONS

BEGIN IONS
RTINSECONDS=162.621002
CHARGE=1-
MSLEVEL=2
SMILES=O=C1c2c(C)cc(O)c(C=O)c2Oc2c(O1)c(c(cc2C(=O)O)OC)C
INCHI=InChI=1S/C18H14O8/c1-7-4-11(20)10(6-19)15-13(7)18(23)26-14-8(2)12(24-3)5-9(17(21)22)16(14)25-15/h4-6,20H,1-3H3,(H,21,22)
INCHIKEY=FUCWJKJZOHOLEO-UHFFFAOYSA-N
CLASS=Depsidones
ADDUCT=[M-H]-
INSTRUMENT=Waters Q-ToF Xevo G2-XS
PRECURSOR_MZ=357.061
COMPOUND_NAME=Psoromic acid
ION_MODE=negative
FORMULA=C18H14O8
69.001625 110046.0625 
70.005104 4753.132812 
76.032127 2490.09375 
105.036926 8566.195312 
120.024139 18556.78125 
130.043716 13951.203125 
135.045731 34550.125 
226.066574 410986.75 
228.042068 1029660.5 
229.05069 301664.0 
243.068207 282980.5 
254.058853 602063.5 
313.072906 393506.25 
331.082642 1058289.0 
332.088837 606221.0 
454.991028 2174.939453 
456.991974 50153.4375 
457.989685 15492.828125 
458.994415 4813.753906 
469.185364 916.671875 
547.989746 1398.727539 
548.98468 309.410645 
556.90271 190.0 
588.944641 226.0 
597.973877 189.0 
618.9151 182.0 
624.066223 141.0 
653.301025 170.0 
715.131836 22673.765625 
716.135986 8584.984375 
717.138306 2247.574219 
737.11499 32329.625 
738.117554 12384.6875 
798.058838 6177.261719 
799.059265 3951.0625 
END IONS

BEGIN IONS
RTINSECONDS=148.119003
CHARGE=1-
MSLEVEL=2
SMILES=O=C1c2c(C)cc(OC)c(C)c2Oc2c(O1)cc(c(c2C)C(=O)O)O
INCHI=InChI=1S/C18H16O7/c1-7-5-11(23-4)8(2)16-13(7)18(22)24-12-6-10(19)14(17(20)21)9(3)15(12)25-16/h5-6,19H,1-4H3,(H,20,21)
INCHIKEY=IXEVSIMCIWOSQO-UHFFFAOYSA-N
CLASS=Depsidones
ADDUCT=[M-H]-
INSTRUMENT=Waters Q-ToF Xevo G2-XS
PRECURSOR_MZ=343.0818
COMPOUND_NAME=Notatic acid
ION_MODE=negative
FORMULA=C18H16O7
79.057976 27068.578125 
83.018631 24636.890625 
91.058655 188683.75 
92.062683 26999.53125 
119.053986 241933.375 
173.064774 343844.75 
197.075012 1196575.0 
198.070648 718953.0 
211.091721 904991.0 
241.100357 1048311.0 
255.13327 1480687.0 
256.111725 1007535.5 
299.097626 628521.0 
300.099823 363758.75 
441.018951 7394.265625 
443.011749 118103.3125 
443.10257 5236.046875 
443.224426 4299.851562 
444.014862 48799.5625 
445.014099 11800.5 
510.991913 1091.263672 
542.934937 618.48584 
553.191528 578.594238 
597.177856 1729.536133 
641.173706 22768.578125 
642.172363 7369.117188 
685.160645 60089.53125 
686.164246 21983.203125 
709.158142 122407.3125 
710.161072 46227.0 
740.08783 124357.25 
741.090576 52194.84375 
752.092957 15781.21875 
END IONS

BEGIN IONS
RTINSECONDS=204.257996
CHARGE=1-
MSLEVEL=2
SMILES=CCCCCCCCCCCC1[C@H](C(=O)O)C(C)C(=O)O1
INCHI=InChI=1S/C17H30O4/c1-3-4-5-6-7-8-9-10-11-12-14-15(16(18)19)13(2)17(20)21-14/h13-15H,3-12H2,1-2H3,(H,18,19)/t13?,14?,15-/m1/s1
INCHIKEY=PKXAQFKGSXYQJX-YMAMQOFZSA-N
CLASS=Paraconic acids
ADDUCT=[M-H]-
INSTRUMENT=Waters Q-ToF Xevo G2-XS
PRECURSOR_MZ=297.2066
COMPOUND_NAME=Nephrosteranic acid
ION_MODE=negative
FORMULA=C17H30O4
50.809673 178.0 
58.799122 265.0 
61.802528 277.0 
69.033966 230.414307 
113.02504 2644.910156 
113.061592 258.142334 
119.049179 253.939697 
159.951584 267.0 
167.91861 227.0 
183.010193 683.0 
183.070282 198.0 
193.455276 281.0 
253.219101 229946.625 
254.222107 3642.279297 
356.188965 503.520264 
365.192566 2799.1875 
366.198761 634.0 
397.131592 7332.058594 
398.134552 1795.00293 
421.223938 494.48999 
433.184692 656.238281 
437.12616 611.530762 
445.136292 1111.388672 
488.126038 400.439209 
513.122681 330.404541 
515.124146 227.0 
565.040039 374.887939 
595.419006 5762.0 
596.423706 1887.350586 
617.402527 8790.929688 
618.406616 2522.615234 
619.404297 682.975098 
678.34021 923.969727 
679.360168 560.286621 
685.394104 770.991699 
697.342163 867.756348 
698.337646 398.0 
699.330688 579.694336 
747.367126 354.0 
753.371094 215.0 
754.391602 216.0 
766.328125 245.244141 
END IONS

BEGIN IONS
RTINSECONDS=159.046997
CHARGE=1-
MSLEVEL=2
SMILES=O=c1c2c(oc3c1c(C)cc(O)c3Cl)cc(O)c(Cl)c2O
INCHI=InChI=1S/C14H8Cl2O5/c1-4-2-5(17)11(16)14-8(4)12(19)9-7(21-14)3-6(18)10(15)13(9)20/h2-3,17-18,20H,1H3
INCHIKEY=GKSZPGKBFDLXNF-UHFFFAOYSA-N
CLASS=Xanthones and bis-Xanthones
ADDUCT=[M-H+HCOOH]-
INSTRUMENT=Waters Q-ToF Xevo G2-XS
PRECURSOR_MZ=370.9725
COMPOUND_NAME="N 2,5-Dichloronorlichexanthone"
ION_MODE=negative
FORMULA=C14H8Cl2O5
78.923416 522.0 
80.918617 1948.979492 
80.952713 278.164551 
141.037918 549.217773 
149.028351 2137.193359 
153.032227 1125.983398 
169.027832 3071.126953 
170.037888 1797.356445 
197.023392 4204.589844 
198.033218 3388.773438 
225.017914 7861.230469 
233.00148 9717.046875 
260.99826 10603.296875 
262.991974 3346.099609 
289.998749 7000.03125 
291.998352 1540.779297 
448.286163 57.0 
462.34317 29.0 
469.158295 25.0 
487.638397 40.0 
488.683716 24.0 
556.42749 18.0 
575.480408 30.0 
578.403625 24.0 
579.529968 22.0 
579.809265 25.0 
597.722229 24.0 
684.035339 18.0 
721.702332 34.0 
745.42865 32.0 
762.789795 21.0 
770.62207 36.0 
793.440857 24.0 
END IONS

BEGIN IONS
RTINSECONDS=229.485001
CHARGE=1-
MSLEVEL=2
SMILES=CCCCCCCCCCCCCC1C(C(=C)C(=O)O1)C(=O)O
INCHI=InChI=1S/C19H32O4/c1-3-4-5-6-7-8-9-10-11-12-13-14-16-17(18(20)21)15(2)19(22)23-16/h16-17H,2-14H2,1H3,(H,20,21)
INCHIKEY=WZYZDHVPSZCEEP-UHFFFAOYSA-N
CLASS=Paraconic acids
ADDUCT=[M-H]-
INSTRUMENT=Waters Q-ToF Xevo G2-XS
PRECURSOR_MZ=323.2222
COMPOUND_NAME=Protolichesterinic acid
ION_MODE=negative
FORMULA=C19H32O4
51.676514 265.0 
54.055199 207.013428 
56.938641 177.0 
85.359093 139.0 
112.669701 145.0 
117.067337 156.0 
163.494431 173.0 
175.89949 214.0 
180.449677 252.0 
183.013138 321.604004 
223.203629 336.0 
235.246368 300454.5 
236.245529 54084.125 
279.234436 1339292.0 
280.244263 600053.0 
391.213837 3964.601562 
407.171539 1375.085938 
423.153076 26684.515625 
424.151611 7897.746094 
425.158386 2222.525391 
451.158447 1668.129883 
491.144318 4117.292969 
492.139709 1464.316406 
527.183838 249.253906 
539.14325 386.513916 
541.139893 261.700684 
595.170715 244.991333 
647.456116 96233.9375 
648.458923 38930.65625 
669.445312 236135.0 
669.701782 10270.0 
670.44104 127002.25 
671.44397 31557.859375 
730.377991 27268.0625 
731.381897 13917.96875 
749.379822 11515.070312 
769.36438 34842.375 
770.366699 16867.34375 
771.369995 5988.707031 
END IONS

BEGIN IONS
RTINSECONDS=128.401001
CHARGE=1-
MSLEVEL=2
SMILES=O=C(C)O[C@@H]1[C@@H](O)[C@H](O)[C@@H](COC(=O)C)O[C@H]1Oc1cc2oc(C)cc(=O)c2c(O)c1C
INCHI=InChI=1S/C21H24O11/c1-8-5-12(24)16-14(29-8)6-13(9(2)17(16)25)31-21-20(30-11(4)23)19(27)18(26)15(32-21)7-28-10(3)22/h5-6,15,18-21,25-27H,7H2,1-4H3/t15-,18-,19+,20-,21-/m1/s1
INCHIKEY=AFCAWRFTSGVRQA-CMWLGVBASA-N
CLASS=Chromanes and Chromones
ADDUCT=[M-H+HCOOH]-
INSTRUMENT=Waters Q-ToF Xevo G2-XS
PRECURSOR_MZ=497.1295
COMPOUND_NAME=Roccellin
ION_MODE=negative
FORMULA=C21H24O11
77.038223 2172.730469 
79.022842 3541.53125 
83.018898 2598.232422 
119.051453 16659.828125 
161.061417 57417.59375 
204.046158 749491.0 
205.052002 1044657.0 
205.133606 107379.5 
205.164902 42713.46875 
206.055283 501153.25 
289.07132 2525.384766 
331.084991 1421.450195 
332.089294 1915.788086 
350.094574 3902.431641 
391.107697 9516.367188 
392.106598 30331.640625 
392.182159 2163.142578 
451.126526 1220710.0 
451.258484 105452.4375 
452.129578 1159226.0 
452.223846 88942.8125 
551.054688 8110.40625 
552.059204 3152.705078 
567.099487 1838.496094 
596.049377 7214.40625 
597.055298 1633.946289 
646.035034 954.711914 
657.194641 411.743896 
664.021057 511.598145 
694.310608 631.352539 
695.983643 356.0 
712.973694 490.291748 
730.549438 304.0 
752.034241 277.175781 
773.813965 317.0 
780.992249 261.866211 
END IONS

BEGIN IONS
RTINSECONDS=128.783997
CHARGE=1-
MSLEVEL=2
SMILES=O=C1c2c(c3c(cc(O)c(O)c3)o2)C(=O)c2c1c1c(o2)cc(c(c1)O)O
INCHI=InChI=1S/C18H8O8/c19-7-1-5-11(3-9(7)21)25-17-13(5)15(23)18-14(16(17)24)6-2-8(20)10(22)4-12(6)26-18/h1-4,19-22H
INCHIKEY=PDICCECAPKBDBB-UHFFFAOYSA-N
CLASS=Quinones
ADDUCT=[M-H]-
INSTRUMENT=Waters Q-ToF Xevo G2-XS
PRECURSOR_MZ=351.0141
COMPOUND_NAME=Thelephoric acid
ION_MODE=negative
FORMULA=C18H8O8
73.002998 110.0 
102.956184 285.0 
147.008286 369.138672 
167.053345 672.56543 
183.045135 531.830566 
211.042786 1124.264648 
222.031357 729.710449 
239.036392 951.403809 
251.03598 789.820801 
266.022186 916.575684 
267.032318 988.69873 
295.025604 1613.65625 
322.013794 1366.408203 
323.018311 891.087891 
END IONS

BEGIN IONS
RTINSECONDS=199.774002
CHARGE=1-
MSLEVEL=2
SMILES=O=C1c2c(C)c(Cl)c(OC)cc2Oc2c(O1)c(c(c(c2C)Cl)OC)Cl
INCHI=InChI=1S/C17H13Cl3O5/c1-6-10-8(5-9(22-3)11(6)18)24-14-7(2)12(19)15(23-4)13(20)16(14)25-17(10)21/h5H,1-4H3
INCHIKEY=HEZSUFJPGFDKIG-UHFFFAOYSA-N
CLASS=Depsidones
ADDUCT=[M-H+CH3OH]-
INSTRUMENT=Waters Q-ToF Xevo G2-XS
PRECURSOR_MZ=433.0012
COMPOUND_NAME=3-Dechloro-4-O-methyldiploicin
ION_MODE=negative
FORMULA=C17H13Cl3O5
62.634548 229.0 
89.045631 259.0 
96.984734 1708.900391 
97.022217 262.0 
98.9608 324.779785 
140.976074 15220.289062 
152.975601 7112.480469 
176.950485 515334.75 
177.007111 38777.21875 
204.946381 1156631.0 
205.009171 128470.5625 
205.089615 60588.65625 
205.165604 40114.0625 
271.991333 4409.128906 
279.969116 2456.296875 
298.946838 4644.992188 
307.963837 18750.34375 
326.938568 11228.4375 
350.983826 2773.369141 
354.931122 23397.84375 
366.976898 63940.09375 
500.991943 1695.303711 
502.984772 2216.3125 
532.924133 2178.984375 
533.921814 845.873047 
534.923523 2500.830078 
582.931152 730.604004 
619.926941 503.0 
621.941528 480.246094 
623.936035 527.023926 
625.916687 545.270508 
718.899048 184.274414 
723.002808 199.0 
724.855957 148.471924 
732.887268 131.0 
757.175415 216.0 
784.861694 137.0 
786.079407 136.418213 
787.443115 151.0 
789.906128 141.0 
END IONS

BEGIN IONS
RTINSECONDS=187.701996
CHARGE=1-
MSLEVEL=2
SMILES=O=C1c2c(C)c(Cl)c(OC)cc2Oc2c(O1)cc(c(c2C)Cl)OC
INCHI=InChI=1S/C17H14Cl2O5/c1-7-13-9(5-10(21-3)14(7)18)23-16-8(2)15(19)11(22-4)6-12(16)24-17(13)20/h5-6H,1-4H3
INCHIKEY=AYDBBWJGHVYDQE-UHFFFAOYSA-N
CLASS=Depsidones
ADDUCT=[M-H+CH3OH]-
INSTRUMENT=Waters Q-ToF Xevo G2-XS
PRECURSOR_MZ=399.0402
COMPOUND_NAME=Scensidin
ION_MODE=negative
FORMULA=C17H14Cl2O5
65.004425 277.292236 
66.004166 243.0 
79.029686 401.558838 
81.033508 496.0 
107.016632 9313.492188 
142.992706 210104.875 
143.992767 93898.5625 
170.990479 992369.0 
171.11618 41103.40625 
171.991241 467455.25 
172.984833 64590.90625 
229.029556 105908.0 
230.030319 46719.03125 
292.982941 15137.171875 
293.987183 9861.578125 
320.974091 25749.46875 
325.009155 29657.078125 
461.002472 1863.494141 
462.994598 2114.105469 
463.998077 519.0 
498.971344 3161.957031 
499.968689 763.697754 
500.965637 1895.330078 
560.918457 362.853027 
572.612915 172.0 
589.971313 367.897461 
612.916199 147.467285 
614.954102 128.0 
614.984802 128.0 
616.959656 212.0 
655.038086 172.0 
683.90387 105.0 
684.001099 131.0 
694.900574 122.0 
731.272095 174.0 
746.725159 107.0 
747.284485 113.0 
792.959839 147.0 
799.016418 148.0 
799.093689 13538.5 
799.147278 169.0 
799.204834 431.162109 
799.234558 228.85791 
END IONS

BEGIN IONS
RTINSECONDS=113.638
CHARGE=1-
MSLEVEL=2
SMILES=O=C1c2cc(O)cc(O)c2C(=O)c2c1cc(C(=O)O)cc2O
INCHI=InChI=1S/C15H8O7/c16-6-3-8-12(10(18)4-6)14(20)11-7(13(8)19)1-5(15(21)22)2-9(11)17/h1-4,16-18H,(H,21,22)
INCHIKEY=ZJXVNNSMRGTDBI-UHFFFAOYSA-N
CLASS=Quinones
ADDUCT=[M-H]-
INSTRUMENT=Waters Q-ToF Xevo G2-XS
PRECURSOR_MZ=299.0192
COMPOUND_NAME=Emodic acid
ION_MODE=negative
FORMULA=C15H8O7
65.010788 1621.150391 
91.021149 14510.648438 
101.042366 8229.835938 
139.056396 31054.21875 
157.031052 39303.875 
167.0504 65807.25 
171.044617 96651.0625 
182.035751 105821.5 
183.044235 128171.75 
211.038696 541148.0 
226.027161 106100.8125 
227.033722 298582.5 
255.029312 887224.5 
398.939911 902.321289 
398.977051 112.895081 
399.952545 155.912109 
428.971771 127.0 
438.933411 164.0 
460.99295 143.0 
461.944275 135.0 
489.946899 347.551025 
490.040588 189.0 
511.939758 112.0 
519.032776 147.0 
535.929871 172.0 
570.306763 195.0 
621.03418 8189.546875 
622.032715 1777.394531 
622.151733 185.0 
623.028748 495.966797 
636.994812 249.603027 
681.968445 446.408203 
682.99646 389.023926 
689.005615 364.953125 
710.98822 207.0 
720.939941 228.0 
743.969727 515.541992 
760.947205 162.0 
775.749023 125.0 
779.9198 127.0 
784.998352 146.0 
793.957825 189.0 
END IONS

BEGIN IONS
RTINSECONDS=200.996994
CHARGE=1-
MSLEVEL=2
SMILES=CC12C(=O)C(=C(C=C1Oc1c2c(O)c(C)c(O)c1C(=O)C)O)C(=O)C
INCHI=InChI=1S/C18H16O7/c1-6-14(22)12(8(3)20)16-13(15(6)23)18(4)10(25-16)5-9(21)11(7(2)19)17(18)24/h5,21-23H,1-4H3
INCHIKEY=WEYVVCKOOFYHRW-UHFFFAOYSA-N
CLASS=Dibenzofuranes
ADDUCT=[M-H]-
INSTRUMENT=Waters Q-ToF Xevo G2-XS
PRECURSOR_MZ=343.0818
COMPOUND_NAME=Usnic acid
ION_MODE=negative
FORMULA=C18H16O7
83.016853 243943.625 
95.050346 4428.167969 
145.065048 28592.03125 
161.060089 22735.484375 
171.052582 39594.40625 
187.05394 48372.8125 
189.054993 79213.375 
215.039902 102744.375 
229.052704 249634.125 
231.065491 549021.5 
257.050568 190191.0 
259.060242 624073.0 
313.03476 643391.0 
411.068359 1065.291992 
428.058655 232.0 
433.052155 439.0 
443.008759 510.946777 
482.999695 916.006348 
484.002716 378.197021 
491.016663 433.474365 
511.000427 2607.109375 
512.000916 594.653809 
512.996887 324.121582 
569.22113 281.0 
615.749451 179.0 
623.922607 183.0 
636.863586 174.618042 
651.478027 324.0 
709.155579 102789.4375 
709.276672 5271.035156 
709.425415 2231.0 
710.157776 41080.75 
711.159058 10625.351562 
725.129761 4204.417969 
789.098877 9378.039062 
790.103943 3400.037109 
791.097412 4256.335938 
792.098022 1603.988281 
793.093872 1463.373047 
END IONS

BEGIN IONS
RTINSECONDS=173.651001
CHARGE=1-
MSLEVEL=2
SMILES=O=C1c2c(c(Cl)c(c(C=O)c2Oc2c(C)c(c(O)c(C)c2O1)C(=O)O)O)C
INCHI=InChI=1S/C18H13ClO8/c1-5-10-16(8(4-20)13(22)11(5)19)26-14-6(2)9(17(23)24)12(21)7(3)15(14)27-18(10)25/h4,21-22H,1-3H3,(H,23,24)
INCHIKEY=NLEQXKZDZFGBFP-UHFFFAOYSA-N
CLASS=Depsidones
ADDUCT=[M-H]-
INSTRUMENT=Waters Q-ToF Xevo G2-XS
PRECURSOR_MZ=391.0221
COMPOUND_NAME=Chlorovirensic acid
ION_MODE=negative
FORMULA=C18H13ClO8
52.106968 177.0 
69.003944 1831.766602 
89.081474 251.0 
105.034843 568.051758 
107.054466 518.826172 
143.056763 1001.804199 
195.077072 6003.144531 
196.054474 5835.203125 
199.04837 3243.34375 
211.073303 8073.105469 
239.073303 43481.71875 
263.015656 10658.453125 
267.069611 9519.632812 
283.061218 11519.90625 
291.015198 7779.550781 
303.042908 41378.15625 
311.056854 24774.453125 
347.033936 11915.828125 
355.046661 106979.8125 
437.062042 1660.34668 
438.064697 506.0 
459.105804 173.0 
490.943146 139.0 
491.963135 162.0 
503.069672 140.0 
507.071503 138.504761 
536.978455 347.0 
573.229614 166.0 
576.99176 167.0 
581.991333 204.0 
626.848755 120.0 
652.376404 348.0 
679.170776 141.0 
686.520203 121.0 
713.825195 352.0 
719.78949 166.0 
737.865662 122.0 
779.780457 128.753418 
797.154236 219.398682 
799.143311 113.0 
END IONS

BEGIN IONS
RTINSECONDS=193.789001
CHARGE=1-
MSLEVEL=2
SMILES=O=c1oc(CCCCC)cc2c1c(cc(c2)OC)Oc1c(CC(=O)CCCCC)c(C(=O)O)c(O)cc1O
INCHI=InChI=1S/C29H34O9/c1-4-6-8-10-18(30)14-21-26(28(33)34)22(31)16-23(32)27(21)38-24-15-20(36-3)13-17-12-19(11-9-7-5-2)37-29(35)25(17)24/h12-13,15-16,31-32H,4-11,14H2,1-3H3,(H,33,34)
INCHIKEY=NDOGMEJTCDSZAS-UHFFFAOYSA-N
CLASS=Diphenylethers
ADDUCT=[M-H]-
INSTRUMENT=Waters Q-ToF Xevo G2-XS
PRECURSOR_MZ=525.2125
COMPOUND_NAME=Beta-Collatolic acid
ION_MODE=negative
FORMULA=C29H34O9
109.032814 23654.90625 
123.01326 41706.78125 
124.018501 60479.6875 
137.033783 27379.9375 
165.022583 67464.125 
189.052872 110782.5 
191.109467 51471.625 
219.102509 223150.125 
260.132935 715411.0 
261.121857 262241.25 
262.118103 154573.875 
263.095154 131328.375 
264.102875 265737.5 
285.082733 109334.5625 
340.16391 174626.25 
368.12912 233860.375 
382.15979 258167.75 
383.156555 993912.0 
384.161072 662936.5 
409.138702 410615.75 
437.236725 347967.5 
463.220856 331171.25 
480.239868 1038158.0 
481.23056 866530.0 
482.23291 647115.5 
593.205017 6748.5 
624.156433 22001.703125 
625.144958 68056.125 
626.147522 25867.46875 
627.147461 7338.601562 
759.310852 612.0 
761.339844 364.741699 
787.309448 415.78125 
788.289368 271.776367 
END IONS

BEGIN IONS
RTINSECONDS=167.455994
CHARGE=1-
MSLEVEL=2
SMILES=Cc1cc(O)c2c(C(=O)c3cc(O)cc(O)c3C2=O)c1
INCHI=InChI=1S/C15H10O5/c1-6-2-8-12(10(17)3-6)15(20)13-9(14(8)19)4-7(16)5-11(13)18/h2-5,16-18H,1H3
INCHIKEY=RHMXXJGYXNZAPX-UHFFFAOYSA-N
CLASS=Quinones
ADDUCT=[M-H]-
INSTRUMENT=Waters Q-ToF Xevo G2-XS
PRECURSOR_MZ=269.045
COMPOUND_NAME=Emodin
ION_MODE=negative
FORMULA=C15H10O5
53.063473 223.0 
64.531204 123.0 
67.290649 132.0 
77.040436 147.0 
78.241364 212.0 
105.033752 326.611328 
115.055214 273.511963 
181.06366 1337.535156 
182.037079 1560.792969 
195.045807 1531.338867 
197.05777 2887.003906 
210.029205 1935.6875 
225.053619 9463.65625 
241.049011 3690.074219 
311.171631 412.907227 
371.292114 97.0 
385.280121 100.0 
409.294495 88.0 
445.152893 97.0 
447.125854 139.0 
458.905945 139.0 
465.041962 89.0 
475.224304 137.0 
500.149261 63.0 
551.753174 53.0 
559.914429 64.0 
562.814209 49.0 
566.219727 56.0 
575.783813 76.0 
642.123474 119.0 
645.438171 111.0 
651.17395 68.0 
656.754395 75.0 
663.070007 114.0 
703.723022 85.0 
721.920471 93.0 
724.772644 128.0 
744.860291 125.0 
758.272278 87.0 
765.106323 101.0 
779.231262 159.0 
795.877808 65.0 
END IONS

BEGIN IONS
RTINSECONDS=120.765999
CHARGE=1-
MSLEVEL=2
SMILES=OC1=C(OC)C(=O)c2c(O)c3oc(C(=O)C)c(O)c3c(O)c2C1=O
INCHI=InChI=1S/C15H10O9/c1-3(16)13-11(21)6-7(17)4-5(9(19)14(6)24-13)10(20)15(23-2)12(22)8(4)18/h17,19,21-22H,1-2H3
INCHIKEY=ILUWXELFYCLFHQ-UHFFFAOYSA-N
CLASS=Quinones
ADDUCT=[M-H]-
INSTRUMENT=Waters Q-ToF Xevo G2-XS
PRECURSOR_MZ=333.0247
COMPOUND_NAME=Chiodectonic acid
ION_MODE=negative
FORMULA=C15H10O9
68.999069 251.0 
79.017532 289.0 
94.008583 1044.580078 
122.011482 2209.787109 
134.012405 2226.0 
136.019165 4580.402344 
150.001816 12637.234375 
178.017838 2189.658203 
205.006805 953.654785 
206.022675 5379.460938 
234.015701 4316.160156 
262.013519 3410.886719 
290.00592 16053.734375 
390.92337 97.0 
416.926941 57.0 
420.353149 65.0 
423.207153 57.0 
457.022766 84.0 
461.484589 119.0 
487.633606 104.0 
501.94751 76.0 
505.021698 80.0 
518.97998 70.0 
548.946594 76.0 
552.949463 90.325562 
565.057739 73.0 
572.98999 100.0 
593.015869 80.0 
600.8974 90.0 
601.805969 69.0 
610.83905 67.0 
658.719116 64.0 
658.9245 62.0 
663.019287 99.0 
669.885864 63.0 
689.919067 65.0 
713.046875 89.0 
715.382263 69.0 
721.023743 64.0 
746.442139 58.0 
768.79187 56.0 
776.719482 59.0 
791.339294 55.0 
793.933716 51.0 
END IONS

BEGIN IONS
RTINSECONDS=189.406006
CHARGE=1-
MSLEVEL=2
SMILES=O=C1c2c(C)c(Cl)c(OC)cc2Oc2c(O1)cc(c(c2C)Cl)OC
INCHI=InChI=1S/C17H14Cl2O5/c1-7-13-9(5-10(21-3)14(7)18)23-16-8(2)15(19)11(22-4)6-12(16)24-17(13)20/h5-6H,1-4H3
INCHIKEY=AYDBBWJGHVYDQE-UHFFFAOYSA-N
CLASS=Depsidones
ADDUCT=[M+Cl]-
INSTRUMENT=Waters Q-ToF Xevo G2-XS
PRECURSOR_MZ=402.9907
COMPOUND_NAME=Scensidin
ION_MODE=negative
FORMULA=C17H14Cl2O5
53.18549 39.0 
76.162086 70.0 
81.067459 117.0 
107.014252 302.592285 
144.990433 7935.699219 
145.991592 3983.513672 
170.98555 1795.49707 
172.984512 75376.1875 
173.98793 43780.0 
174.989883 1912.336914 
231.02327 3353.892578 
232.029922 4179.261719 
292.027832 415.730225 
297.977631 1049.283203 
325.972046 1083.019531 
330.001251 535.578613 
469.766052 65.0 
490.024872 61.0 
526.057495 54.0 
527.217529 46.0 
542.652771 42.0 
543.18634 41.0 
555.493591 78.0 
555.701416 98.0 
601.3797 69.0 
611.839355 24.0 
616.647278 21.0 
617.68512 21.0 
618.255005 21.0 
624.12384 21.0 
629.724854 36.0 
638.051025 18.0 
641.757996 21.0 
688.8526 22.0 
727.519409 30.0 
737.948669 50.0 
756.319153 29.0 
782.721924 20.0 
790.236694 20.0 
END IONS

BEGIN IONS
RTINSECONDS=209.882996
CHARGE=1-
MSLEVEL=2
SMILES=Cc1c(c(C(=O)C)c(c2c1OC1=CC(=C(C(=O)C21C)C(=O)C)O)O)O
INCHI=InChI=1S/C18H16O7/c1-6-14(22)12(8(3)20)15(23)13-16(6)25-10-5-9(21)11(7(2)19)17(24)18(10,13)4/h5,21-23H,1-4H3
INCHIKEY=GRIDHCOCFJSWSY-UHFFFAOYSA-N
CLASS=Dibenzofuranes
ADDUCT=[M-H]-
INSTRUMENT=Waters Q-ToF Xevo G2-XS
PRECURSOR_MZ=343.0818
COMPOUND_NAME=Isousnic acid
ION_MODE=negative
FORMULA=C18H16O7
55.10326 147.0 
83.01339 2959.285156 
83.051712 255.299927 
102.933029 293.949463 
104.930992 346.0 
158.117828 207.0 
189.055725 441.662842 
215.041183 1008.255371 
229.051346 2748.080078 
231.06456 4542.039062 
257.044952 6085.769531 
259.06131 4632.328125 
285.038513 3383.625 
313.034973 16453.0 
421.224518 162.0 
421.297729 167.0 
433.28067 128.0 
446.750671 119.0 
447.231537 163.0 
510.996735 259.303711 
515.00824 106.0 
518.233276 95.0 
519.303894 104.0 
577.833496 128.0 
589.191406 108.0 
597.661743 97.0 
613.794128 113.0 
642.69574 111.0 
661.726501 114.0 
672.527527 136.0 
677.15033 146.0 
697.009949 99.0 
699.713013 112.0 
722.126343 110.0 
754.982422 162.80481 
766.952393 101.0 
783.969177 94.0 
END IONS

BEGIN IONS
RTINSECONDS=200.039001
CHARGE=1-
MSLEVEL=2
SMILES=O=C1c2c(C)c(Cl)c(OC)cc2Oc2c(O1)c(c(c(c2C)Cl)OC)Cl
INCHI=InChI=1S/C17H13Cl3O5/c1-6-10-8(5-9(22-3)11(6)18)24-14-7(2)12(19)15(23-4)13(20)16(14)25-17(10)21/h5H,1-4H3
INCHIKEY=HEZSUFJPGFDKIG-UHFFFAOYSA-N
CLASS=Depsidones
ADDUCT=[M+Cl]-
INSTRUMENT=Waters Q-ToF Xevo G2-XS
PRECURSOR_MZ=436.9517
COMPOUND_NAME=3-Dechloro-4-O-methyldiploicin
ION_MODE=negative
FORMULA=C17H13Cl3O5
63.873226 89.0 
72.666656 230.0 
98.977356 429.806152 
142.97467 3413.015625 
178.947495 115383.0 
180.944839 54738.53125 
206.942657 224647.875 
207.000931 11922.40625 
207.950287 5806.097656 
208.940048 110370.4375 
273.984436 876.103516 
302.948639 1151.850586 
309.959778 4811.460938 
311.957306 1484.172852 
330.933411 2400.619141 
358.924896 3069.791016 
368.972565 2364.353516 
370.973816 1587.279297 
503.154633 127.0 
512.889954 125.0 
520.7854 85.0 
525.663513 80.0 
556.598938 184.0 
582.889221 81.0 
594.529602 64.0 
600.010193 71.0 
626.572327 83.0 
627.047852 75.0 
655.291626 70.0 
666.437073 61.0 
669.216187 46.0 
703.992188 76.0 
719.305603 82.0 
722.997314 57.0 
732.427612 59.0 
734.315735 50.0 
768.143799 76.0 
774.395996 54.0 
789.120178 49.0 
796.102722 64.0 
796.854797 39.0 
END IONS

BEGIN IONS
RTINSECONDS=92.005997
CHARGE=1-
MSLEVEL=2
SMILES=Cc1cc(cc(c1C(=O)O)O)O
INCHI=InChI=1S/C8H8O4/c1-4-2-5(9)3-6(10)7(4)8(11)12/h2-3,9-10H,1H3,(H,11,12)
INCHIKEY=AMKYESDOVDKZKV-UHFFFAOYSA-N
CLASS=Cleavage Products of Depsides and Depsidones
ADDUCT=[2M-2H+Na]-
INSTRUMENT=Waters Q-ToF Xevo G2-XS
PRECURSOR_MZ=357.0586
COMPOUND_NAME=Orsellinic acid
ION_MODE=negative
FORMULA=C8H8O4
77.047394 574.749512 
79.05835 17377.9375 
81.03933 25714.484375 
123.047752 149887.75 
167.033905 336371.0 
167.085922 17625.546875 
167.169968 5016.097656 
167.2677 1188.0 
168.037064 1366.496094 
250.629532 231.0 
268.853882 234.0 
287.075806 253.612671 
302.98349 228.0 
410.78009 93.0 
459.167511 71.0 
463.446716 82.0 
476.711243 110.0 
491.104675 64.0 
529.56134 45.0 
542.452759 19.0 
556.289673 23.0 
597.46106 171.0 
623.124084 26.0 
635.690063 21.0 
655.717896 37.0 
675.875854 66.0 
681.287415 21.0 
687.911865 25.0 
694.526733 64.0 
760.859741 18.0 
775.423157 19.0 
777.756042 38.0 
781.973389 24.0 
795.451782 20.0 
END IONS

BEGIN IONS
RTINSECONDS=227.550995
CHARGE=1-
MSLEVEL=2
SMILES=Oc1c(C(=O)Oc2cc(CCCCC)c(c(O)c2)C(=O)O)c(CCCCC)cc(OC)c1
INCHI=InChI=1S/C25H32O7/c1-4-6-8-10-16-13-19(15-20(26)22(16)24(28)29)32-25(30)23-17(11-9-7-5-2)12-18(31-3)14-21(23)27/h12-15,26-27H,4-11H2,1-3H3,(H,28,29)
INCHIKEY=UTAQXQVSEKIWBB-UHFFFAOYSA-N
CLASS=Depsides (Didepsides)
ADDUCT=[M-H]-
INSTRUMENT=Waters Q-ToF Xevo G2-XS
PRECURSOR_MZ=443.207
COMPOUND_NAME=Perlatolic acid
ION_MODE=negative
FORMULA=C25H32O7
81.038895 76853.75 
91.02784 661128.0 
105.039337 96317.875 
135.118637 450369.0 
137.103455 714369.0 
161.111954 1002403.0 
179.121109 1401325.0 
205.092072 1510028.0 
205.134399 1083412.0 
206.094299 1040114.5 
223.100647 1537474.0 
224.116806 1074812.0 
282.131531 50065.3125 
283.140106 46655.875 
284.147125 41859.65625 
297.156189 29514.015625 
339.202271 280933.25 
340.207916 72675.6875 
355.234436 453531.25 
355.420563 11687.78125 
356.233582 85772.8125 
511.198212 7878.59375 
541.141235 9846.617188 
543.138672 133336.0 
543.23999 8260.0625 
544.140747 59746.84375 
545.139648 17696.203125 
611.122253 8993.25 
612.128357 2915.0 
613.121704 2053.263672 
643.065674 1050.425781 
661.305237 2005.821289 
665.305542 738.803711 
681.114685 939.729492 
689.294739 1898.09375 
689.320251 1042.602539 
746.033936 335.0 
749.099487 719.0 
755.045654 349.213623 
791.372009 246.0 
796.554504 359.0 
END IONS

BEGIN IONS
RTINSECONDS=201.725006
CHARGE=1-
MSLEVEL=2
SMILES=O=C(O)C(CCCCCCCCCCCC)C(C)C(=O)O
INCHI=InChI=1S/C17H32O4/c1-3-4-5-6-7-8-9-10-11-12-13-15(17(20)21)14(2)16(18)19/h14-15H,3-13H2,1-2H3,(H,18,19)(H,20,21)
INCHIKEY=CADNMISJDLVPCK-UHFFFAOYSA-N
CLASS=Acids
ADDUCT=[M-H]-
INSTRUMENT=Waters Q-ToF Xevo G2-XS
PRECURSOR_MZ=299.2222
COMPOUND_NAME=Roccellic acid
ION_MODE=negative
FORMULA=C17H32O4
54.130733 247.0 
61.564739 237.0 
83.054146 11264.929688 
85.067078 380.91333 
105.537109 262.0 
111.010445 10086.359375 
112.019371 32990.28125 
113.021294 258.828857 
175.085922 365.0 
195.175659 627.227051 
237.224915 248480.75 
255.232773 1537713.0 
255.381012 298019.75 
281.211151 273150.0 
367.207123 1743.040039 
397.224731 1106.44043 
399.156769 2390.404297 
400.151672 697.474609 
401.146942 684.0 
439.153473 1080.802734 
444.144989 610.0 
467.141235 412.0 
469.132538 347.577148 
489.117401 183.0 
525.163086 173.0 
531.105347 160.642822 
537.132507 161.661499 
541.14856 166.0 
551.090088 159.0 
621.431885 23005.5 
622.438232 7823.015625 
623.43457 1088.612305 
637.416626 1190.103516 
643.417114 1178.304688 
652.363586 1638.026367 
677.356079 1158.210938 
701.380005 1280.918945 
702.374756 621.491699 
703.379333 574.53418 
743.34436 1009.165039 
755.292786 548.25 
757.304626 579.0 
765.326721 433.914551 
777.276794 398.849609 
END IONS

BEGIN IONS
RTINSECONDS=153.785995
CHARGE=1-
MSLEVEL=2
SMILES=Cc1c(C(=O)OC)c(OC)cc2c1c1c(cc(c(C(=O)O)c1o2)C)OC
INCHI=InChI=1S/C19H18O7/c1-8-6-10(23-3)16-14-9(2)15(19(22)25-5)11(24-4)7-12(14)26-17(16)13(8)18(20)21/h6-7H,1-5H3,(H,20,21)
INCHIKEY=WBIQYHZEYQDKCL-UHFFFAOYSA-N
CLASS=Dibenzofuranes
ADDUCT=[M-H]-
INSTRUMENT=Waters Q-ToF Xevo G2-XS
PRECURSOR_MZ=357.0974
COMPOUND_NAME=Schizopeltic acid
ION_MODE=negative
FORMULA=C19H18O7
50.080112 262.490723 
55.787086 231.0 
65.003006 745.0 
75.010872 461.281494 
167.05162 25269.53125 
168.058212 19085.90625 
195.047348 241379.625 
196.055847 272013.25 
197.061691 52312.625 
223.041595 176416.125 
224.050339 241350.125 
251.038788 634571.5 
255.068481 378223.0 
283.071045 1249798.0 
298.085846 1220213.0 
313.108673 1212027.0 
313.220093 113074.8125 
425.085632 2537.0 
455.025818 3352.462891 
457.022705 61915.1875 
457.115173 2186.503906 
458.025543 20271.0625 
459.025543 4296.859375 
485.015381 1598.095703 
548.026428 1016.0 
549.021484 257.033203 
598.001892 286.0 
623.478516 180.0 
628.35498 714.233398 
629.343445 496.384277 
641.943787 288.921387 
664.946899 188.0 
715.203186 74651.75 
716.206543 29050.5 
717.208374 8960.84375 
737.187622 33845.78125 
738.187866 14005.34375 
796.124146 575.01416 
798.124756 12971.773438 
799.132141 7760.351562 
END IONS

BEGIN IONS
RTINSECONDS=133.238007
CHARGE=1-
MSLEVEL=2
SMILES=O=C1c2c(C)cc(O)c(C)c2Oc2c(O1)cc(c(c2C)C(=O)O)O
INCHI=InChI=1S/C17H14O7/c1-6-4-9(18)7(2)15-12(6)17(22)23-11-5-10(19)13(16(20)21)8(3)14(11)24-15/h4-5,18-19H,1-3H3,(H,20,21)
INCHIKEY=HETZRHDDRHBPKX-UHFFFAOYSA-N
CLASS=Depsidones
ADDUCT=[M-H]-
INSTRUMENT=Waters Q-ToF Xevo G2-XS
PRECURSOR_MZ=329.0661
COMPOUND_NAME=Nornotatic acid
ION_MODE=negative
FORMULA=C17H14O7
65.040558 26532.3125 
93.040451 38429.6875 
119.053909 265205.0 
120.059479 102585.75 
173.061859 408253.0 
175.044846 444800.75 
197.068405 499874.75 
201.055847 1037519.0 
217.091721 720873.5 
226.063675 518555.25 
241.088043 1385878.0 
242.100388 1015884.0 
286.083466 466752.75 
397.052094 1556.053711 
426.998566 1893.265625 
428.992859 38240.5 
429.088959 1870.557617 
429.995331 10393.929688 
430.996674 2806.296875 
473.991058 3858.494141 
523.969482 345.476562 
541.974609 335.151123 
544.985229 298.0 
569.1474 576.328613 
613.13623 4880.285156 
657.127136 24588.96875 
659.142273 47268.125 
660.145447 15047.195312 
681.123962 90381.6875 
682.126953 30872.03125 
712.054382 70523.1875 
713.057678 27638.34375 
714.059937 8304.773438 
781.040222 1395.552734 
782.045959 937.0 
END IONS

BEGIN IONS
RTINSECONDS=200.809998
CHARGE=1-
MSLEVEL=2
SMILES=O=C1c2c(C(=O)CCCC)cc(OC)cc2Oc2c(O1)cc(c(c2CCCCC)C(=O)O)O
INCHI=InChI=1S/C25H28O8/c1-4-6-8-9-15-21(24(28)29)18(27)13-20-23(15)32-19-12-14(31-3)11-16(17(26)10-7-5-2)22(19)25(30)33-20/h11-13,27H,4-10H2,1-3H3,(H,28,29)
INCHIKEY=JHEWMLHQNRHTQX-UHFFFAOYSA-N
CLASS=Depsidones
ADDUCT=[M-H]-
INSTRUMENT=Waters Q-ToF Xevo G2-XS
PRECURSOR_MZ=455.1706
COMPOUND_NAME=Lobaric acid
ION_MODE=negative
FORMULA=C25H28O8
83.030197 10088.296875 
108.025856 11135.242188 
133.108505 478794.0 
161.029678 120611.125 
196.029922 194483.625 
198.042236 230534.875 
255.046677 599629.0 
281.084229 1447644.0 
282.12262 1040994.5 
295.102386 1302745.0 
296.112122 1076419.0 
298.091644 805001.5 
309.117523 1327606.0 
352.171722 1505554.0 
367.192871 1203041.0 
368.196716 1134498.0 
369.175415 1216535.0 
412.189911 1143328.0 
523.164001 5461.0 
538.092651 3692.169922 
555.102295 73456.375 
555.197144 5147.65625 
556.105103 27263.890625 
557.104736 8291.1875 
623.081116 3633.400391 
624.087708 1727.958984 
659.323975 1926.183594 
660.332336 898.0 
707.030518 422.719971 
727.042908 311.880859 
759.343689 300.0 
761.078125 305.0 
777.366821 412.0 
780.362854 233.0 
END IONS

BEGIN IONS
RTINSECONDS=161.444
CHARGE=1-
MSLEVEL=2
SMILES=Cc1cc(c2c(c1)C(=O)C13C4C5C(C1C(=O)C1=C(c6c(cc(cc6C(=O)C51C(C4O)C(=O)C3=C2O)C)O)O)O)O
INCHI=InChI=1S/C30H22O10/c1-7-3-9-13(11(31)5-7)21(33)17-25(37)20-23(35)15-16-24(36)19(29(15,17)27(9)39)26(38)18-22(34)14-10(28(40)30(16,18)20)4-8(2)6-12(14)32/h3-6,15-16,19-20,23-24,31-36H,1-2H3
INCHIKEY=QFDPVUTXKUGISP-UHFFFAOYSA-N
CLASS=Quinones
ADDUCT=[M-H]-
INSTRUMENT=Waters Q-ToF Xevo G2-XS
PRECURSOR_MZ=541.1135
COMPOUND_NAME=Rugulosin
ION_MODE=negative
FORMULA=C30H22O10
66.580002 177.0 
74.345383 189.0 
105.035278 512.071289 
181.06868 26819.765625 
197.062515 65380.90625 
225.056046 691181.5 
253.054092 467317.25 
269.047516 1434073.0 
269.211456 216244.75 
270.060364 417523.75 
271.07135 343294.0 
435.092499 208701.125 
436.098267 19859.390625 
438.08017 127494.5625 
453.103424 176745.0 
471.111481 215880.125 
472.11261 93905.5 
631.08905 632.614746 
640.033875 1019.620117 
641.037598 5733.628906 
642.04187 2247.144531 
643.046082 1186.574219 
681.029541 1046.267578 
686.035767 744.300293 
709.018677 658.589844 
709.053711 485.397461 
710.029663 559.0 
757.047241 222.712402 
776.011353 168.661377 
785.094238 132.0 
791.985352 114.0 
END IONS

BEGIN IONS
RTINSECONDS=216.011002
CHARGE=1-
MSLEVEL=2
SMILES=CC(C)(C)CCCCCCCCCC1C(C(=O)O)C(C(=O)O1)C
INCHI=InChI=1S/C19H34O4/c1-14-16(17(20)21)15(23-18(14)22)12-10-8-6-5-7-9-11-13-19(2,3)4/h14-16H,5-13H2,1-4H3,(H,20,21)
INCHIKEY=NRFWTRPHJATQOB-UHFFFAOYSA-N
CLASS=Paraconic acids
ADDUCT=[M-H+CH3OH]-
INSTRUMENT=Waters Q-ToF Xevo G2-XS
PRECURSOR_MZ=357.2641
COMPOUND_NAME=Neodihydroprotolichesterinic acid
ION_MODE=negative
FORMULA=C19H34O4
69.036423 1931.0 
85.029724 907.479004 
85.064537 233.0 
98.005066 518.207031 
113.025421 24864.875 
113.065674 746.847168 
145.04866 862.306641 
164.501907 104.0 
176.85968 192.04187 
177.85643 112.795044 
177.899384 166.0 
216.922638 329.0 
219.876373 117.0 
267.229156 461.0 
281.245758 15085.007812 
311.224365 4719.339844 
311.297943 580.357422 
325.23761 96638.375 
325.308228 3583.78125 
434.433411 76.0 
437.831848 19.0 
439.796143 30.0 
463.014282 129.0 
535.861328 20.0 
596.576111 23.0 
649.835083 34.0 
684.967102 31.0 
687.020752 45.0 
690.797302 25.0 
703.615601 31.0 
706.233398 20.0 
778.608032 27.0 
END IONS

BEGIN IONS
RTINSECONDS=198.100998
CHARGE=1-
MSLEVEL=2
SMILES=Cc1cc(OC(=O)c2c(O)c(C)c(OC)cc2C)c(C)c(O)c1C(=O)O
INCHI=InChI=1S/C19H20O7/c1-8-7-13(11(4)16(20)14(8)18(22)23)26-19(24)15-9(2)6-12(25-5)10(3)17(15)21/h6-7,20-21H,1-5H3,(H,22,23)
INCHIKEY=NMKBRSYSHBPUPY-UHFFFAOYSA-N
CLASS=Depsides (Didepsides)
ADDUCT=[M-H]-
INSTRUMENT=Waters Q-ToF Xevo G2-XS
PRECURSOR_MZ=359.1131
COMPOUND_NAME=Barbatic acid
ION_MODE=negative
FORMULA=C19H20O7
77.043579 8891.554688 
81.0383 21886.875 
93.074196 82985.5625 
95.052963 17672.09375 
119.05246 269698.5 
137.068176 713316.5 
163.039536 697506.0 
163.136551 55167.875 
181.050339 1023110.0 
181.12056 89772.25 
181.251144 45733.53125 
241.090164 3942.367188 
255.100632 390.260498 
256.111176 1066.143555 
271.136932 3277.755859 
427.099365 1784.235352 
428.102692 533.509766 
442.031433 2138.753906 
459.043213 3346.472656 
499.038086 920.277344 
500.041626 875.146973 
504.041382 900.078613 
527.025513 1238.34668 
610.963623 350.509033 
617.054626 195.0 
619.974548 174.0 
626.943237 179.0 
636.013062 183.0 
653.94751 196.0 
673.924683 163.0 
679.035339 146.0 
741.215576 13006.898438 
741.328857 474.0 
742.218811 5628.324219 
743.227844 741.0 
772.139587 498.26709 
797.144287 524.871582 
END IONS

BEGIN IONS
RTINSECONDS=188.141998
CHARGE=1-
MSLEVEL=2
SMILES=C[C@H](O)CCCCCCCCCCCCC[C@@H]1C(C(=O)O)C(=C)C(=O)O1
INCHI=InChI=1S/C21H36O5/c1-16(22)14-12-10-8-6-4-3-5-7-9-11-13-15-18-19(20(23)24)17(2)21(25)26-18/h16,18-19,22H,2-15H2,1H3,(H,23,24)/t16-,18+,19?/m0/s1
INCHIKEY=UYUDMGMNHAKPEV-CXEJCQMISA-N
CLASS=Paraconic acids
ADDUCT=[M-H]-
INSTRUMENT=Waters Q-ToF Xevo G2-XS
PRECURSOR_MZ=367.2484
COMPOUND_NAME=Murolic acid
ION_MODE=negative
FORMULA=C21H36O5
69.034912 281.045166 
83.047943 393.848389 
85.06768 1057.0 
141.130524 354.421143 
155.146622 6641.203125 
169.162308 4593.164062 
207.212051 2023.573242 
209.191696 5573.355469 
235.243225 14561.007812 
263.236328 48580.4375 
277.252747 54334.75 
279.269104 25164.46875 
323.258392 936448.0 
323.33725 61649.71875 
323.439178 31417.640625 
435.233948 3050.748047 
450.175873 1176.375 
467.173889 5136.277344 
468.176117 1541.566406 
469.188599 3026.822266 
470.193878 1417.363281 
512.175415 570.861816 
535.161316 504.269531 
571.21405 224.876465 
583.170654 180.413574 
639.193054 193.0 
639.23175 173.100098 
665.135254 158.0 
683.218506 164.0 
735.504089 2685.087891 
757.487305 11780.304688 
758.486084 3887.076172 
759.496765 9216.601562 
760.501709 3009.318359 
761.501465 2498.021484 
790.434753 1815.704102 
END IONS

BEGIN IONS
RTINSECONDS=23.086
CHARGE=1-
MSLEVEL=2
SMILES=C(=C\C(=O)O)/C(=O)O
INCHI=InChI=1S/C4H4O4/c5-3(6)1-2-4(7)8/h1-2H,(H,5,6)(H,7,8)/b2-1+
INCHIKEY=VZCYOOQTPOCHFL-OWOJBTEDSA-N
CLASS=Acids
ADDUCT=[2M-2H+Na]-
INSTRUMENT=Waters Q-ToF Xevo G2-XS
PRECURSOR_MZ=252.996
COMPOUND_NAME=Fumaric acid
ION_MODE=negative
FORMULA=C4H4O4
71.018059 8152.421875 
99.926895 257.0 
115.007317 152992.375 
116.008118 397.609619 
116.056213 360.681641 
136.98909 6796.320312 
172.891129 131.0 
172.952744 170.0 
189.024643 138.0 
208.884705 229.0 
209.007614 275.865967 
234.948837 212.908936 
366.922791 240.0 
384.968262 309.0 
390.992676 182.0 
400.941528 914.369629 
402.948822 188.084717 
445.942078 734.848145 
469.924713 112.0 
495.938934 348.0 
515.957336 569.0 
519.872192 129.0 
522.950745 122.0 
537.925659 171.0 
538.937561 469.017334 
587.875 135.0 
616.88269 140.0 
645.782166 84.0 
653.941833 173.0 
659.686707 127.0 
660.972595 80.0 
686.905823 93.0 
710.737183 72.0 
715.906311 94.0 
731.821289 75.0 
737.688354 78.0 
767.902771 134.0 
788.724854 35.0 
789.881348 49.0 
END IONS

BEGIN IONS
RTINSECONDS=182.104996
CHARGE=1-
MSLEVEL=2
SMILES=O=C1Oc2c(c(CC(=O)CCCCC)c(C(=O)O)c(O)c2)Oc2c1c(cc(c2)O)CC(=O)CCCCC
INCHI=InChI=1S/C28H32O9/c1-3-5-7-9-17(29)11-16-12-19(31)14-22-24(16)28(35)37-23-15-21(32)25(27(33)34)20(26(23)36-22)13-18(30)10-8-6-4-2/h12,14-15,31-32H,3-11,13H2,1-2H3,(H,33,34)
INCHIKEY=ZDIOCINAHISORH-UHFFFAOYSA-N
CLASS=Depsidones
ADDUCT=[M-H+CH3OH]-
INSTRUMENT=Waters Q-ToF Xevo G2-XS
PRECURSOR_MZ=543.223
COMPOUND_NAME=Alpha-Alectoronic acid
ION_MODE=negative
FORMULA=C28H32O9
93.0327 564.770996 
123.006981 1323.535156 
123.038872 3928.34375 
149.031433 5556.863281 
161.033951 2889.564453 
203.08078 8822.882812 
219.105453 10224.578125 
227.066971 15101.578125 
247.096817 25866.125 
270.06424 10412.257812 
271.071381 11620.046875 
301.147614 31395.78125 
325.143433 33180.375 
327.124298 18300.546875 
354.110443 62018.71875 
368.125397 26802.078125 
369.134155 89583.3125 
423.216766 43934.09375 
425.196198 31931.21875 
449.195679 39133.75 
467.207458 207969.0 
493.186157 52190.4375 
499.233215 41831.5 
511.19696 35450.46875 
611.119934 2512.0 
611.207886 2995.328125 
643.148376 6032.675781 
644.150391 2232.095703 
645.142822 1492.40332 
684.146851 916.930664 
688.141785 1658.835938 
711.138428 633.562012 
738.111328 330.479004 
738.155396 288.0 
781.132019 175.002197 
790.071106 173.0 
792.082642 221.0 
END IONS

BEGIN IONS
RTINSECONDS=105.915001
CHARGE=1-
MSLEVEL=2
SMILES=Cc1c(O)c(C(=O)O)c(C)cc1O
INCHI=InChI=1S/C9H10O4/c1-4-3-6(10)5(2)8(11)7(4)9(12)13/h3,10-11H,1-2H3,(H,12,13)
INCHIKEY=VHNLJRRECIZZPX-UHFFFAOYSA-N
CLASS=Cleavage Products of Depsides and Depsidones
ADDUCT=[M-H]-
INSTRUMENT=Waters Q-ToF Xevo G2-XS
PRECURSOR_MZ=181.0501
COMPOUND_NAME=b-Orcinolcarboxylic acid
ION_MODE=negative
FORMULA=C9H10O4
81.037727 68447.625 
93.072716 93841.9375 
95.052856 43345.8125 
119.052429 41785.0625 
137.068268 1110804.0 
163.042206 284531.75 
263.968781 246.191162 
264.959747 173.0 
280.955658 185.157349 
311.169922 997.929688 
345.097626 12032.648438 
345.127747 809.479004 
346.099365 2921.816406 
385.089111 4988.335938 
386.093353 1012.0 
413.082855 1394.388672 
416.020294 3843.0 
445.022888 1823.310547 
452.001892 808.679199 
485.014404 591.431152 
490.028748 742.844238 
513.014404 558.050781 
539.999695 247.405762 
584.134949 322.35083 
599.083923 1924.62207 
600.083984 263.98291 
601.086853 672.578125 
602.086548 338.0 
713.186279 4606.582031 
714.189819 1581.999023 
715.16626 997.003418 
744.113464 1069.569336 
745.114319 491.17334 
748.134949 532.436523 
781.177185 246.957764 
793.136719 375.315674 
795.124451 302.926758 
END IONS

BEGIN IONS
RTINSECONDS=192.964005
CHARGE=1-
MSLEVEL=2
SMILES=CC(=O)CCCCCCCCCCCCC[C@@H]1C(C(=O)O)C(=C)C(=O)O1
INCHI=InChI=1S/C21H34O5/c1-16(22)14-12-10-8-6-4-3-5-7-9-11-13-15-18-19(20(23)24)17(2)21(25)26-18/h18-19H,2-15H2,1H3,(H,23,24)/t18-,19?/m1/s1
INCHIKEY=SKQHRBRVCRUFSX-MRTLOADZSA-N
CLASS=Paraconic acids
ADDUCT=[M-H]-
INSTRUMENT=Waters Q-ToF Xevo G2-XS
PRECURSOR_MZ=365.2328
COMPOUND_NAME=Muronic acid
ION_MODE=negative
FORMULA=C21H34O5
57.041756 677.903809 
69.038719 4527.765625 
70.041214 1085.602539 
71.05497 2446.039062 
83.054398 1507.165039 
85.06591 1248.249023 
155.141937 1310.204102 
156.147003 1453.635742 
169.160889 18198.921875 
170.16156 21860.203125 
183.177765 6827.609375 
184.180344 9210.21875 
208.213867 12823.054688 
224.212326 5522.699219 
277.253174 425711.0 
278.268005 1263667.0 
278.561859 47538.40625 
279.389648 32346.78125 
321.243225 194767.125 
322.25 554116.0 
433.228027 7453.867188 
434.225098 1364.589844 
465.160095 18737.46875 
466.162811 5703.316406 
467.171051 1779.745117 
494.167694 1856.612305 
533.15271 1548.211914 
552.165649 679.167969 
556.16272 2016.431641 
581.156128 479.082275 
624.147827 290.764893 
633.061096 391.0 
655.115356 172.0 
731.477417 80982.625 
732.481262 36807.6875 
733.485474 10223.8125 
753.460266 112646.4375 
754.463623 50045.25 
755.465576 15257.789062 
END IONS

BEGIN IONS
RTINSECONDS=130.25
CHARGE=1-
MSLEVEL=2
SMILES=O=C1c2c(C)cc(O)c(C=O)c2Oc2c(O1)c(c(c1c2C(O)OC1=O)O)C
INCHI=InChI=1S/C18H12O9/c1-5-3-8(20)7(4-19)14-9(5)16(22)26-13-6(2)12(21)10-11(15(13)25-14)18(24)27-17(10)23/h3-4,18,20-21,24H,1-2H3
INCHIKEY=IEVVSJFLBYOUCJ-UHFFFAOYSA-N
CLASS=Depsidones
ADDUCT=[M-H+HCOOH]-
INSTRUMENT=Waters Q-ToF Xevo G2-XS
PRECURSOR_MZ=417.0458
COMPOUND_NAME=Norstictic acid
ION_MODE=negative
FORMULA=C18H12O9
93.036926 3414.939453 
121.031349 8435.421875 
171.047516 81345.4375 
209.061676 225916.75 
227.040314 663405.5 
241.052124 622237.0 
242.035614 425049.0 
254.058624 225390.625 
265.051636 209762.875 
313.07489 109621.875 
341.069489 260447.5 
342.06897 95497.75 
385.055664 651608.0 
386.058319 724462.0 
461.109314 2287.458984 
485.069153 616.303711 
505.133698 490.591309 
517.006287 706.318848 
529.979187 518.852539 
550.945312 135.343262 
557.012146 149.876709 
562.003845 444.693359 
584.982117 118.0 
606.101929 94.0 
625.001343 118.0 
646.892822 213.0 
669.938232 60.0 
681.265686 48.207947 
702.194031 44.0 
714.927429 48.0 
785.048096 63.0 
787.217834 58.0 
793.10022 140.0 
795.110413 88.0 
END IONS

BEGIN IONS
RTINSECONDS=138.931
CHARGE=1-
MSLEVEL=2
SMILES=Oc1c(C(=O)Oc2cc(C)c(C(=O)O)c(O)c2)c(C)cc(O)c1
INCHI=InChI=1S/C16H14O7/c1-7-3-9(17)5-11(18)14(7)16(22)23-10-4-8(2)13(15(20)21)12(19)6-10/h3-6,17-19H,1-2H3,(H,20,21)
INCHIKEY=HEMSJKZDHNSSEW-UHFFFAOYSA-N
CLASS=Depsides (Didepsides)
ADDUCT=[M-H]-
INSTRUMENT=Waters Q-ToF Xevo G2-XS
PRECURSOR_MZ=317.0661
COMPOUND_NAME=Lecanoric acid
ION_MODE=negative
FORMULA=C16H14O7
77.042 970.403809 
79.05986 22361.109375 
81.038506 45141.09375 
105.038483 51966.40625 
123.047729 258503.0 
149.028015 114299.875 
167.038956 633081.0 
167.102768 42279.4375 
167.268753 10741.46875 
226.877258 433.116211 
229.086441 1463.405273 
255.061417 355.121338 
272.788788 790.920898 
299.055511 220.0 
385.298218 77.0 
390.771454 68.0 
397.026367 139.0 
427.565887 156.0 
446.970367 80.0 
451.6409 67.0 
457.527405 62.0 
491.245392 70.0 
510.021149 59.0 
522.959045 83.0 
532.3255 63.0 
538.333374 61.0 
546.471741 57.0 
569.507812 94.0 
598.940063 30.0 
651.148682 29.0 
652.428711 40.0 
655.621155 36.0 
668.257202 33.0 
681.866028 331.0 
693.466248 49.0 
702.774475 36.0 
714.87616 45.0 
732.338623 36.0 
736.327759 105.0 
753.003662 50.0 
756.446289 54.0 
790.062866 28.0 
792.391968 59.0 
792.714966 30.0 
END IONS

BEGIN IONS
RTINSECONDS=130.069
CHARGE=1-
MSLEVEL=2
SMILES=Cc1cc(=O)c2c(o1)cc1c(c2O)C(=CC(=O)C1=O)O
INCHI=InChI=1S/C14H8O6/c1-5-2-7(15)12-10(20-5)3-6-11(14(12)19)8(16)4-9(17)13(6)18/h2-4,16,19H,1H3
INCHIKEY=NPUXQAACUNUHIX-UHFFFAOYSA-N
CLASS=Quinones
ADDUCT=[M-H+CH3OH]-
INSTRUMENT=Waters Q-ToF Xevo G2-XS
PRECURSOR_MZ=303.0505
COMPOUND_NAME=Canarione
ION_MODE=negative
FORMULA=C14H8O6
65.002731 1265.933594 
87.028465 2476.867188 
91.021057 1615.166016 
103.018105 6928.996094 
115.019333 4835.980469 
119.013313 4231.648438 
131.013763 13121.335938 
147.0112 7221.152344 
159.007874 23288.546875 
175.003601 5489.90625 
202.997528 35095.0 
230.992676 95893.875 
231.052902 5048.027344 
243.029724 4337.550781 
271.025482 4954.746094 
362.113342 59.0 
377.052643 20.0 
399.910156 23.0 
436.797577 35.0 
455.560059 50.0 
470.356567 100.0 
471.915771 61.0 
483.679901 41.0 
484.151428 45.0 
528.269104 33.0 
532.097778 41.0 
538.864563 24.0 
596.473267 23.0 
624.908264 69.0 
640.579773 29.0 
660.725403 20.0 
670.382141 21.0 
695.127686 53.0 
723.348022 33.0 
764.454712 26.0 
778.349731 32.0 
794.107361 54.0 
END IONS

BEGIN IONS
RTINSECONDS=184.154007
CHARGE=1-
MSLEVEL=2
SMILES=CC(C)C[C@H](NC(=O)c1ccccc1)C(=O)OC[C@@H](NC(=O)c1ccccc1)Cc1ccccc1
INCHI=InChI=1S/C29H32N2O4/c1-21(2)18-26(31-28(33)24-16-10-5-11-17-24)29(34)35-20-25(19-22-12-6-3-7-13-22)30-27(32)23-14-8-4-9-15-23/h3-17,21,25-26H,18-20H2,1-2H3,(H,30,32)(H,31,33)/t25-,26-/m0/s1
INCHIKEY=JOOSAYNHLJGJCN-UIOOFZCWSA-N
CLASS=N-Containing Compounds
ADDUCT=[M-H+HCOOH]-
INSTRUMENT=Waters Q-ToF Xevo G2-XS
PRECURSOR_MZ=517.2339
COMPOUND_NAME=Hypothallin
ION_MODE=negative
FORMULA=C29H32N2O4
66.035965 462.61499 
77.044029 3581.130859 
82.068054 6401.398438 
82.101212 683.417969 
84.080742 867.818848 
107.055161 1005.156738 
120.047783 34816.3125 
190.122223 611873.0 
234.114609 1477205.0 
234.182236 264880.5 
234.205795 90724.1875 
234.266754 123051.375 
254.12059 93290.3125 
350.493073 223.0 
356.415222 159.0 
359.353516 115.0 
361.903259 153.0 
411.953186 134.0 
428.211334 208.0 
471.154785 287.810303 
471.225525 203862.25 
471.311676 7526.882812 
471.443329 399.088379 
585.300476 131.0 
613.76062 120.0 
620.910828 94.0 
621.292664 116.0 
630.079163 100.0 
630.298096 151.207886 
677.211487 111.0 
689.04718 90.0 
698.054199 91.0 
709.785583 130.0 
712.224121 200.0 
715.070374 111.0 
722.77948 100.0 
768.535034 54.0 
770.220337 97.0 
777.934692 108.0 
781.156067 58.0 
END IONS

BEGIN IONS
RTINSECONDS=159.695999
CHARGE=1-
MSLEVEL=2
SMILES=O=c1c2c(oc3c1c(C)cc(O)c3)c(Cl)c(O)c(Cl)c2O
INCHI=InChI=1S/C14H8Cl2O5/c1-4-2-5(17)3-6-7(4)11(18)8-12(19)9(15)13(20)10(16)14(8)21-6/h2-3,17,19-20H,1H3
INCHIKEY=JPFFMNSHZHZAND-UHFFFAOYSA-N
CLASS=Xanthones and bis-Xanthones
ADDUCT=[M-H]-
INSTRUMENT=Waters Q-ToF Xevo G2-XS
PRECURSOR_MZ=324.9671
COMPOUND_NAME="N 2,4-Dichloronorlichexanthone"
ION_MODE=negative
FORMULA=C14H8Cl2O5
105.036423 100374.5625 
125.041534 124920.0625 
141.036118 240276.75 
149.025284 263497.0 
153.035858 185775.375 
169.032059 370045.0 
197.023087 493699.25 
226.024918 338759.0 
232.99939 575314.5 
234.005539 341327.75 
260.996887 96108.5625 
262.000671 271392.25 
424.895203 16406.015625 
425.894958 4449.667969 
426.891388 10821.507812 
426.972656 515.074707 
427.893402 2162.714844 
428.890442 2126.240234 
515.896667 358.0 
517.896484 108.873901 
538.163879 102.0 
559.858948 95.0 
584.896667 161.0 
587.067261 120.0 
672.925415 5718.996094 
673.929077 2490.621094 
674.924744 8718.804688 
675.925659 2010.139648 
676.922729 4239.710938 
677.927612 1096.326172 
733.870605 971.844238 
734.873108 575.270508 
735.871155 1183.146484 
737.869812 772.098633 
740.915039 450.135498 
790.896484 414.712891 
795.867188 337.185791 
797.873657 277.935791 
END IONS

BEGIN IONS
RTINSECONDS=155.761993
CHARGE=1-
MSLEVEL=2
SMILES=O=C1c2c(C)cc(O)c(C=O)c2Oc2c(O1)c(c(c(c2C)C(=O)O)O)COC(=O)C
INCHI=InChI=1S/C20H16O10/c1-7-4-12(23)10(5-21)17-13(7)20(27)30-18-11(6-28-9(3)22)15(24)14(19(25)26)8(2)16(18)29-17/h4-5,23-24H,6H2,1-3H3,(H,25,26)
INCHIKEY=SKXNIRUDASOCCN-UHFFFAOYSA-N
CLASS=Depsidones
ADDUCT=[M-H]-
INSTRUMENT=Waters Q-ToF Xevo G2-XS
PRECURSOR_MZ=415.0665
COMPOUND_NAME=Physodalic acid
ION_MODE=negative
FORMULA=C20H16O10
69.002487 25909.859375 
70.005196 5253.175781 
123.041382 5919.246094 
149.027557 14890.1875 
150.030212 9196.53125 
151.043076 13108.523438 
239.073944 116933.0625 
240.073593 126319.6875 
256.069366 71840.0 
283.061066 293207.25 
284.068085 161196.75 
311.056549 1164146.0 
312.069214 926698.0 
355.046631 1286998.0 
355.160675 128610.4375 
356.050049 898446.0 
483.051758 797.69873 
497.990417 2513.287109 
514.992676 7283.15625 
515.988647 2123.986328 
516.99115 810.806152 
559.989014 4911.339844 
560.996948 1341.728516 
582.973938 514.993164 
583.980835 460.0 
609.974487 571.639648 
627.971436 893.0 
651.095215 494.425293 
654.912415 175.0896 
676.906921 174.169312 
696.942017 153.0 
708.939148 144.445679 
734.089783 180.028809 
786.142578 196.0 
793.077515 364.756592 
793.114624 1175.34082 
794.071777 198.310791 
794.109497 447.689209 
795.096497 242.0 
END IONS

BEGIN IONS
RTINSECONDS=122.321999
CHARGE=1-
MSLEVEL=2
SMILES=[C@@H]1(CC(=O)N2[C@H](C(=O)N[C@H](CC(=O)N3[C@@H](C(=O)N1)CCC3)c1ccccc1)CCC2)c1ccccc1
INCHI=InChI=1S/C28H32N4O4/c33-25-17-21(19-9-3-1-4-10-19)29-27(35)23-13-7-16-32(23)26(34)18-22(20-11-5-2-6-12-20)30-28(36)24-14-8-15-31(24)25/h1-6,9-12,21-24H,7-8,13-18H2,(H,29,35)(H,30,36)/t21-,22-,23-,24+/m1/s1
INCHIKEY=PDLPVRYEPINIBU-YCAMKHIRSA-N
CLASS=N-Containing Compounds
ADDUCT=[M-H+HCOOH]-
INSTRUMENT=Waters Q-ToF Xevo G2-XS
PRECURSOR_MZ=533.24
COMPOUND_NAME=Roccanin
ION_MODE=negative
FORMULA=C28H32N4O4
113.073647 43652.96875 
114.0756 8898.046875 
131.051376 14285.0 
155.084442 17167.59375 
200.109406 52615.90625 
243.113037 1055403.0 
243.181122 56789.03125 
243.211075 85565.9375 
244.118576 952910.0 
244.185364 53785.40625 
303.134613 2430.691406 
304.137024 2709.904297 
313.515869 274.29248 
331.144135 725.97998 
332.144897 877.123047 
333.23053 562.669922 
373.155457 374.248291 
374.157745 602.320801 
383.176544 318.52002 
391.174042 360.504883 
392.167664 356.752197 
487.23465 433266.5 
488.238312 1301704.0 
488.337097 103015.625 
488.460175 70854.875 
621.213684 777.734863 
633.163757 1011.572754 
650.169861 1767.524414 
661.36438 863.125488 
678.163147 8513.414062 
679.166565 3749.207031 
729.14801 453.0 
731.18457 359.001465 
746.114685 268.824707 
746.150269 322.757568 
795.10022 261.935059 
END IONS

BEGIN IONS
RTINSECONDS=200.658005
CHARGE=1-
MSLEVEL=2
SMILES=CCCCCc1c2c(cc(c1C(=O)O)O)oc1c2c(cc(c1)OC)CCC
INCHI=InChI=1S/C22H26O5/c1-4-6-7-9-15-20(22(24)25)16(23)12-18-21(15)19-13(8-5-2)10-14(26-3)11-17(19)27-18/h10-12,23H,4-9H2,1-3H3,(H,24,25)
INCHIKEY=IDZVZCQOFFSQMO-UHFFFAOYSA-N
CLASS=Dibenzofuranes
ADDUCT=[M-H]-
INSTRUMENT=Waters Q-ToF Xevo G2-XS
PRECURSOR_MZ=369.1702
COMPOUND_NAME=Didymic acid
ION_MODE=negative
FORMULA=C22H26O5
50.572529 265.0 
55.699551 226.0 
70.228088 268.0 
93.029976 825.923828 
212.052032 640360.5 
225.070312 679667.0 
238.069443 1557397.0 
239.077545 1460042.0 
252.084229 774187.0 
254.09549 1049167.0 
310.154755 1406842.0 
310.382111 873174.0 
311.202606 1442219.0 
311.252197 1225842.0 
326.187195 944749.5 
437.157074 2122.0 
467.099518 2525.138672 
469.099182 45150.625 
470.100525 14675.242188 
471.103363 4012.041016 
514.093567 1827.791992 
537.081543 1037.124023 
573.319763 2830.832031 
574.316406 1175.643555 
574.342468 658.798828 
634.333008 6164.609375 
635.33606 2291.117188 
649.355652 9256.164062 
650.361328 3926.109375 
737.336548 270483.75 
737.456238 20245.515625 
738.338867 169815.625 
739.341736 62518.53125 
761.332886 88423.0 
762.335815 41243.71875 
792.264526 25556.484375 
793.267944 13039.359375 
END IONS

BEGIN IONS
RTINSECONDS=161.123001
CHARGE=1-
MSLEVEL=2
SMILES=O=C1c2c(CC(=O)CCCCC)cc(O)c(O)c2Oc2c(O1)cc(c(c2CCCCC)C(=O)O)O
INCHI=InChI=1S/C26H30O9/c1-3-5-7-9-15(27)11-14-12-18(29)22(30)24-20(14)26(33)34-19-13-17(28)21(25(31)32)16(23(19)35-24)10-8-6-4-2/h12-13,28-30H,3-11H2,1-2H3,(H,31,32)
INCHIKEY=BQHHNAPTXQOPBW-UHFFFAOYSA-N
CLASS=Depsidones
ADDUCT=[M-H]-
INSTRUMENT=Waters Q-ToF Xevo G2-XS
PRECURSOR_MZ=485.1812
COMPOUND_NAME=3-Hydroxyphysodic acid
ION_MODE=negative
FORMULA=C26H30O9
65.00782 4431.335938 
81.037231 5460.308594 
109.033325 88903.25 
110.036247 22183.953125 
137.043839 176147.625 
138.055801 66805.5625 
179.110031 117765.0625 
180.104065 78004.4375 
207.105286 129669.875 
208.105301 97868.1875 
223.100433 173697.25 
235.103928 710249.0 
236.103943 88190.375 
261.082642 496655.25 
301.109863 86613.375 
328.100647 160084.375 
342.116608 61631.78125 
373.203308 161110.375 
397.206207 558027.0 
399.182251 1153589.0 
423.182068 409417.0 
441.194794 1435277.0 
442.196625 471867.75 
467.174469 300828.75 
553.169983 2709.298828 
567.099548 1136.791992 
583.100098 2288.755859 
585.109009 17449.140625 
586.109985 7815.546875 
625.099426 1890.958008 
630.104797 6334.984375 
631.107544 1904.626953 
653.096558 1657.243164 
654.102234 873.054199 
696.078979 320.0 
729.759644 236.0 
734.037231 244.0 
751.332581 245.237549 
795.364075 3111.5 
796.375244 834.883789 
797.358704 698.38916 
798.361755 377.0 
799.431885 219.0 
END IONS

BEGIN IONS
RTINSECONDS=19.443001
CHARGE=1-
MSLEVEL=2
SMILES=COC1=C(NC(CO)CO)C[C@](CO)(O)CC1=O
INCHI=InChI=1S/C11H19NO6/c1-18-10-8(12-7(4-13)5-14)2-11(17,6-15)3-9(10)16/h7,12-15,17H,2-6H2,1H3/t11-/m0/s1
INCHIKEY=VVTDHOIRNPCGTH-NSHDSACASA-N
CLASS=Mycosporines
ADDUCT=[M-H]-
INSTRUMENT=Waters Q-ToF Xevo G2-XS
PRECURSOR_MZ=260.1134
COMPOUND_NAME=Mycosporine serinol
ION_MODE=negative
FORMULA=C11H19NO6
75.013374 5077.414062 
80.053574 4924.433594 
98.0494 2114.697266 
99.013069 9175.210938 
145.052719 11036.734375 
167.060379 6909.1875 
172.06514 4021.076172 
197.067902 7563.886719 
202.106964 7630.664062 
227.079117 8078.121094 
242.10553 53403.46875 
306.120911 2968.236328 
307.121643 387.873047 
327.068817 296.821533 
354.167938 438.503662 
372.177734 977.530762 
416.164948 581.974609 
418.135254 186.775391 
437.142456 372.446533 
438.14621 266.607666 
448.149048 295.0 
490.11264 296.779053 
507.03479 1289.040039 
508.039246 290.0 
519.063232 578.867676 
520.084473 251.658569 
533.117065 484.393555 
574.158386 432.199463 
575.149597 195.0 
609.299316 155.0 
612.139526 263.0 
641.087402 129.739258 
641.118652 169.872192 
643.109558 136.0 
649.125366 120.0 
679.118286 109.0 
702.20459 128.0 
746.362366 188.0 
768.14325 925.974121 
768.174438 736.678223 
769.166565 517.708496 
770.161865 306.096191 
770.244629 183.0 
END IONS

BEGIN IONS
RTINSECONDS=209.158997
CHARGE=1-
MSLEVEL=2
SMILES=Cc1c2c(Oc3c(OC2=O)c(c(c(c3C)Cl)OC)C)c(C=O)c(O)c1Cl
INCHI=InChI=1S/C18H14Cl2O6/c1-6-10-17(9(5-21)13(22)11(6)19)25-15-7(2)12(20)14(24-4)8(3)16(15)26-18(10)23/h5,22H,1-4H3
INCHIKEY=SNNDIPJEAQAKTJ-UHFFFAOYSA-N
CLASS=Depsidones
ADDUCT=[M-H]-
INSTRUMENT=Waters Q-ToF Xevo G2-XS
PRECURSOR_MZ=395.0089
COMPOUND_NAME=Argopsin
ION_MODE=negative
FORMULA=C18H14Cl2O6
69.00248 53802.375 
138.998428 35161.71875 
170.017929 30013.40625 
182.989075 65083.625 
196.05423 20614.28125 
231.025848 31546.25 
244.033447 56504.09375 
259.021179 66043.0 
272.026062 98973.4375 
276.023254 86709.6875 
288.020599 102376.0625 
308.003906 158863.875 
316.01825 197825.25 
331.041748 129607.75 
335.99704 320768.25 
359.033508 372073.5 
462.997589 545.748535 
494.935638 2421.544922 
496.926758 603.262695 
534.928284 728.327637 
542.944702 785.304199 
562.918518 928.567383 
564.920532 765.654785 
581.941406 503.91626 
649.930786 180.173584 
653.944641 214.0 
664.251221 131.0 
673.877808 126.479797 
690.879578 127.214478 
733.592896 165.0 
745.669373 185.0 
772.996704 145.0 
779.873779 161.0 
797.036987 172.600098 
798.050476 127.41626 
799.033325 166.0 
END IONS

BEGIN IONS
RTINSECONDS=189.703995
CHARGE=1-
MSLEVEL=2
SMILES=O=c1c2c(oc3c1c(C)cc(OC)c3Cl)c(Cl)c(O)c(Cl)c2O
INCHI=InChI=1S/C15H9Cl3O5/c1-4-3-5(22-2)8(16)14-6(4)11(19)7-12(20)9(17)13(21)10(18)15(7)23-14/h3,20-21H,1-2H3
INCHIKEY=SMLUHOHPDVBXKH-UHFFFAOYSA-N
CLASS=Xanthones and bis-Xanthones
ADDUCT=[M-H]-
INSTRUMENT=Waters Q-ToF Xevo G2-XS
PRECURSOR_MZ=372.9437
COMPOUND_NAME=6-O-Methylarthothelin
ION_MODE=negative
FORMULA=C15H9Cl3O5
82.973015 740.038086 
103.993301 2501.054688 
140.006042 9115.84375 
158.943893 8882.375 
162.938843 52615.6875 
173.990219 54413.46875 
201.984695 81126.0 
229.979843 52997.0 
230.988586 28172.25 
237.959427 104975.125 
265.953827 207240.125 
293.948975 123870.6875 
328.917816 196611.875 
329.925812 342909.5 
472.872803 8284.960938 
473.874329 1757.744141 
474.867096 7426.421875 
475.87085 711.066895 
476.865173 2520.814453 
477.865143 504.982422 
540.856934 402.785889 
541.859558 172.362183 
542.856262 345.753418 
565.862122 136.0 
614.565125 100.0 
616.997803 137.0 
620.761414 87.0 
637.826416 139.0 
653.328186 72.0 
670.738342 72.0 
718.890625 148.0 
768.881104 9256.804688 
770.876648 21194.453125 
771.880249 6352.511719 
772.876831 18852.484375 
773.876892 4553.449219 
774.873962 7885.101562 
END IONS

BEGIN IONS
RTINSECONDS=194.306
CHARGE=1-
MSLEVEL=2
SMILES=CCCCCc1cc(cc(c1C(=O)Oc1cc(c(c(c1)CCCCC)C(=O)O)O)O)O
INCHI=InChI=1S/C24H30O7/c1-3-5-7-9-15-11-17(25)13-19(26)22(15)24(30)31-18-12-16(10-8-6-4-2)21(23(28)29)20(27)14-18/h11-14,25-27H,3-10H2,1-2H3,(H,28,29)
INCHIKEY=BEFYPHLCGVCBFF-UHFFFAOYSA-N
CLASS=Depsides (Didepsides)
ADDUCT=[M-H]-
INSTRUMENT=Waters Q-ToF Xevo G2-XS
PRECURSOR_MZ=429.1913
COMPOUND_NAME=Anziaic acid
ION_MODE=negative
FORMULA=C24H30O7
81.03952 18844.203125 
91.022568 58907.75 
92.025047 20995.703125 
135.118896 79585.375 
137.100189 144644.625 
138.102982 80912.3125 
179.107712 695483.0 
180.115509 608382.0 
205.086807 260671.625 
206.093979 253776.75 
223.097885 1080539.0 
224.109787 1056589.0 
283.13208 803.67334 
284.137421 1423.855469 
300.206268 2023.759766 
341.215302 3400.263672 
342.217743 31575.9375 
343.081116 1355.783203 
368.198395 936.085449 
497.179749 1494.310547 
528.11145 509.48877 
529.119019 2275.085938 
530.119629 528.184082 
531.11908 647.014648 
570.119324 639.85791 
597.101135 774.811035 
625.122498 198.0 
638.107788 289.91333 
667.340942 171.412598 
675.274292 174.0 
683.042419 157.0 
727.39978 175.0 
729.376648 147.0 
731.254333 196.0 
784.671509 122.0 
789.072937 228.927979 
795.231995 166.621338 
795.273193 565.467285 
END IONS

BEGIN IONS
RTINSECONDS=148.983994
CHARGE=1-
MSLEVEL=2
SMILES=O=C1c2c(C)cc(O)c(C)c2Oc2c(O1)c(c(c(c2C)C(=O)O)O)C
INCHI=InChI=1S/C18H16O7/c1-6-5-10(19)7(2)14-11(6)18(23)25-16-9(4)13(20)12(17(21)22)8(3)15(16)24-14/h5,19-20H,1-4H3,(H,21,22)
INCHIKEY=CFPLLTGKDKZLIH-UHFFFAOYSA-N
CLASS=Depsidones
ADDUCT=[M-H]-
INSTRUMENT=Waters Q-ToF Xevo G2-XS
PRECURSOR_MZ=343.0818
COMPOUND_NAME=Hypoprotocetraric acid
ION_MODE=negative
FORMULA=C18H16O7
65.006378 110.0 
91.056313 656.988281 
91.096451 175.0 
119.04995 737.451172 
137.060089 197.89856 
149.065643 266.850586 
163.041428 730.267578 
183.119583 433.198242 
201.054703 453.308105 
211.077271 527.0 
227.109299 1109.962891 
240.077393 1170.303711 
243.066299 1677.850586 
255.102936 15657.476562 
281.082001 499.380371 
299.090637 1929.273438 
325.081207 220.737915 
399.752319 36.0 
458.826477 28.0 
490.855072 20.0 
682.48053 64.0 
737.313477 37.0 
END IONS

BEGIN IONS
RTINSECONDS=178.873001
CHARGE=1-
MSLEVEL=2
SMILES=Cc1cc(OC)cc2c1c(=O)c1c(c(Cl)c(O)cc1O)o2
INCHI=InChI=1S/C15H11ClO5/c1-6-3-7(20-2)4-10-11(6)14(19)12-8(17)5-9(18)13(16)15(12)21-10/h3-5,17-18H,1-2H3
INCHIKEY=UBUNKICAVVWKMH-UHFFFAOYSA-N
CLASS=Xanthones and bis-Xanthones
ADDUCT=[M-H]-
INSTRUMENT=Waters Q-ToF Xevo G2-XS
PRECURSOR_MZ=305.0217
COMPOUND_NAME=4-Chloro-6-O-methylnorlichexanthone
ION_MODE=negative
FORMULA=C15H11ClO5
106.044945 68492.875 
128.977966 179521.375 
142.039566 160755.875 
169.031769 146458.25 
170.041489 407849.75 
198.031433 716460.0 
233.004349 138107.5 
246.983688 256420.25 
260.996277 654722.5 
262.003235 234747.125 
373.013 336.205811 
404.948578 1627.647461 
405.033539 436.874756 
406.94519 863.722168 
407.948669 413.437256 
409.050476 893.453125 
480.056671 122.0 
484.248535 275.333008 
495.952667 263.0 
508.975342 375.775879 
530.785339 144.0 
544.184143 214.487549 
559.329956 111.0 
583.792908 135.0 
612.829834 100.0 
633.022827 584.714844 
693.981934 607.926758 
694.986572 223.0 
695.980591 244.098145 
696.977173 158.0 
701.018311 319.0 
755.972534 582.561523 
756.107666 113.0 
757.971924 555.612305 
759.973633 127.0 
778.647095 186.0 
END IONS

BEGIN IONS
RTINSECONDS=230.442993
CHARGE=1-
MSLEVEL=2
SMILES=CCCCCCCCCCCCCC(=O)CC(C(=O)O)C
INCHI=InChI=1S/C18H34O3/c1-3-4-5-6-7-8-9-10-11-12-13-14-17(19)15-16(2)18(20)21/h16H,3-15H2,1-2H3,(H,20,21)
INCHIKEY=FYKXUGIGKHKTDH-UHFFFAOYSA-N
CLASS=Acids
ADDUCT=[M-H]-
INSTRUMENT=Waters Q-ToF Xevo G2-XS
PRECURSOR_MZ=297.243
COMPOUND_NAME=Lichesterylic acid
ION_MODE=negative
FORMULA=C18H34O3
69.039749 5653.957031 
85.069954 114674.4375 
96.025963 25278.09375 
97.068192 20378.03125 
111.052544 12781.976562 
124.055832 16410.265625 
211.210297 80972.0 
225.226044 121489.0 
237.225143 117828.9375 
251.242096 311669.5 
253.255615 1130022.0 
279.239166 1016579.0 
365.234497 9200.664062 
366.234924 1396.78125 
397.178802 12442.59375 
398.203094 4763.058594 
399.170471 849.0 
399.231323 1058.276367 
445.174622 807.914062 
484.179382 2234.085938 
486.177795 382.99585 
488.1716 550.291504 
513.165344 344.0 
513.407166 312.0 
565.081787 1257.336914 
566.081543 454.319092 
581.065979 390.486816 
617.479675 13919.304688 
618.480286 4626.625 
619.485168 618.909668 
633.446472 961.614746 
678.417725 14425.476562 
679.422485 6798.867188 
697.420471 17868.125 
698.426941 4782.484375 
699.417236 10056.1875 
700.417603 4454.246094 
765.408508 1452.338867 
766.411499 965.186523 
767.408447 1081.974609 
END IONS

BEGIN IONS
RTINSECONDS=120.944
CHARGE=1-
MSLEVEL=2
SMILES=O=C1c2c(C)cc(O)cc2Oc2c(O1)cc1c(c2O)C(=O)OC1
INCHI=InChI=1S/C16H10O7/c1-6-2-8(17)4-9-11(6)16(20)23-10-3-7-5-21-15(19)12(7)13(18)14(10)22-9/h2-4,17-18H,5H2,1H3
INCHIKEY=LPUOVEFMUOQBFV-UHFFFAOYSA-N
CLASS=Depsidones
ADDUCT=[M-H]-
INSTRUMENT=Waters Q-ToF Xevo G2-XS
PRECURSOR_MZ=313.0348
COMPOUND_NAME=Variolaric acid
ION_MODE=negative
FORMULA=C16H10O7
65.011314 3204.560547 
75.028595 6206.421875 
91.025177 10274.382812 
105.037491 55340.40625 
149.027206 52323.5625 
157.063416 44304.90625 
169.066757 56111.53125 
183.047653 52521.65625 
196.055878 71735.25 
197.064011 289172.5 
213.058563 137229.875 
225.056381 642867.0 
241.053909 255861.125 
269.046936 772863.0 
269.116913 51906.8125 
370.296326 251.0 
381.020233 823.063965 
412.952728 297.906738 
441.963501 441.680908 
442.982971 277.57666 
458.956116 282.690186 
464.151245 219.0 
475.970398 416.0 
503.961578 931.42334 
525.943787 264.935547 
529.899536 232.974487 
627.076538 30302.4375 
627.188843 1162.947266 
628.079163 10197.203125 
629.08197 1684.050781 
649.048828 4055.921875 
650.061829 1926.71875 
710.014587 632.930664 
725.997437 564.269043 
772.002991 1420.047852 
772.117249 552.0 
772.994812 833.0 
793.964111 652.386719 
797.927612 416.019287 
END IONS

BEGIN IONS
RTINSECONDS=201.429001
CHARGE=1-
MSLEVEL=2
SMILES=Oc1c2c(oc3c(c(C)cc(O)c3Cl)c2=O)c(Cl)c(OC)c1Cl
INCHI=InChI=1S/C15H9Cl3O5/c1-4-3-5(19)8(16)13-6(4)11(20)7-12(21)9(17)15(22-2)10(18)14(7)23-13/h3,19,21H,1-2H3
INCHIKEY=SWYXXNJANIXCRQ-UHFFFAOYSA-N
CLASS=Xanthones and bis-Xanthones
ADDUCT=[M-H]-
INSTRUMENT=Waters Q-ToF Xevo G2-XS
PRECURSOR_MZ=372.9437
COMPOUND_NAME=Thuringione
ION_MODE=negative
FORMULA=C15H9Cl3O5
53.664501 187.0 
54.687683 190.0 
75.997314 459.57373 
82.972801 909.399902 
103.991394 3263.210938 
140.004272 13788.265625 
158.943512 11552.53125 
162.938187 65799.5 
173.989182 65782.0625 
201.984894 102470.75 
229.977936 65715.375 
230.987671 35958.6875 
237.959152 128404.9375 
257.97226 55111.15625 
265.953033 400751.75 
293.948151 286576.0 
328.916992 240483.625 
329.924774 736233.0 
472.87384 3240.212891 
473.873352 975.231934 
474.872894 3128.929688 
475.868317 804.544922 
476.870056 1175.338867 
477.869263 372.225098 
540.857483 206.679443 
542.859558 178.599487 
542.94574 156.0 
576.521179 118.0 
581.043762 124.0 
600.340271 77.0 
613.614441 72.0 
630.754822 91.0 
653.304321 97.0 
658.831848 66.0 
663.903992 86.0 
665.832886 66.0 
718.82605 79.0 
768.894409 2712.556641 
770.881714 8808.898438 
771.880798 2816.667969 
772.87677 7424.832031 
773.871216 1908.709961 
774.874207 3014.951172 
END IONS

BEGIN IONS
RTINSECONDS=167.535004
CHARGE=1-
MSLEVEL=2
SMILES=Cc1cc(c(c2c1c(=O)c1c(o2)c(c(c(c1O)Cl)O)Cl)Cl)O
INCHI=InChI=1S/C14H7Cl3O5/c1-3-2-4(18)7(15)13-5(3)10(19)6-11(20)8(16)12(21)9(17)14(6)22-13/h2,18,20-21H,1H3
INCHIKEY=NTAXLEHKEDVPRK-UHFFFAOYSA-N
CLASS=Xanthones and bis-Xanthones
ADDUCT=[M-H+HCOOH]-
INSTRUMENT=Waters Q-ToF Xevo G2-XS
PRECURSOR_MZ=404.9336
COMPOUND_NAME=Arthothelin
ION_MODE=negative
FORMULA=C14H7Cl3O5
78.922981 850.089844 
80.922874 1553.609375 
139.007706 498.028076 
167.013016 1465.641602 
174.994385 770.987793 
182.982498 2334.150391 
195.008469 1967.389648 
202.990082 1649.893555 
230.984222 6666.0 
231.991135 3135.621094 
258.982788 11846.0 
266.96106 5968.273438 
268.958252 3581.931641 
294.957031 5069.140625 
323.95871 4665.039062 
325.956421 3112.472656 
340.902405 4270.707031 
486.868958 43.0 
487.369598 30.0 
496.154083 42.0 
497.526459 30.0 
522.968689 28.0 
527.823486 42.0 
528.260681 43.0 
542.541992 53.0 
559.932312 40.0 
574.246277 49.0 
590.270813 25.0 
597.474854 25.0 
601.729797 128.0 
638.161682 30.0 
682.585876 38.0 
710.556458 24.0 
749.346191 24.0 
752.33783 45.0 
766.665222 28.0 
769.3172 71.0 
783.492126 33.0 
792.762207 18.0 
END IONS

BEGIN IONS
RTINSECONDS=169.240997
CHARGE=1-
MSLEVEL=2
SMILES=CC(CC)C(C(=O)NC(C(C)C)COC(=O)c1ccccc1)NC(=O)c1ccccc1
INCHI=InChI=1S/C25H32N2O4/c1-5-18(4)22(27-23(28)19-12-8-6-9-13-19)24(29)26-21(17(2)3)16-31-25(30)20-14-10-7-11-15-20/h6-15,17-18,21-22H,5,16H2,1-4H3,(H,26,29)(H,27,28)
INCHIKEY=CYKHBJCXJDXSPW-UHFFFAOYSA-N
CLASS=N-Containing Compounds
ADDUCT=[M-H+CH3OH]-
INSTRUMENT=Waters Q-ToF Xevo G2-XS
PRECURSOR_MZ=455.2546
COMPOUND_NAME=Isoarthonin
ION_MODE=negative
FORMULA=C25H32N2O4
72.07032 183.0 
77.042328 4859.152344 
121.028908 188860.5 
121.073196 7926.613281 
121.136124 184.0 
122.031143 304.0 
142.362015 125.0 
174.088074 95.0 
194.992538 110.0 
200.098312 73.0 
224.050507 74.0 
252.375275 76.0 
253.845673 66.0 
287.175934 629.327637 
287.248962 126.0 
291.825073 76.0 
318.252197 153.0 
325.118469 61.0 
409.151794 357.501709 
409.211823 161062.875 
409.293182 5645.269531 
409.415039 173.404907 
410.213989 605.686523 
511.785553 32.0 
532.757446 25.0 
539.471497 25.0 
566.107361 38.0 
583.386475 22.0 
587.31665 53.0 
606.091492 39.0 
613.719788 19.0 
660.831299 31.0 
661.696533 18.0 
664.409851 31.0 
665.748718 81.0 
670.930359 69.0 
729.548584 20.0 
730.125183 138.0 
743.524963 18.0 
763.072571 43.0 
785.388306 31.0 
796.374146 29.0 
END IONS

BEGIN IONS
RTINSECONDS=145.132004
CHARGE=1-
MSLEVEL=2
SMILES=O=C(O)c1c(C)cc(OC)c(C)c1O
INCHI=InChI=1S/C10H12O4/c1-5-4-7(14-3)6(2)9(11)8(5)10(12)13/h4,11H,1-3H3,(H,12,13)
INCHIKEY=BMRVNZZVDSVOQG-UHFFFAOYSA-N
CLASS=Cleavage Products of Depsides and Depsidones
ADDUCT=[2M-2H+Na]-
INSTRUMENT=Waters Q-ToF Xevo G2-XS
PRECURSOR_MZ=413.1212
COMPOUND_NAME=Rhizonic acid
ION_MODE=negative
FORMULA=C10H12O4
76.754677 152.0 
83.145058 209.0 
136.054092 607173.0 
136.101151 30531.8125 
136.170135 16708.109375 
151.075256 425257.0 
195.065689 973492.0 
195.126923 87965.75 
195.208405 38737.3125 
254.485489 269.884033 
255.164032 197.0 
282.088196 199.0 
313.09433 330.552246 
328.116699 512.955566 
343.138855 431.830566 
345.133148 310.060547 
354.050903 271.146973 
478.25769 239.0 
495.870819 97.0 
513.403442 102.0 
517.218384 219.0 
571.919495 100.0 
580.132935 83.0 
599.689087 131.0 
601.156067 163.0 
626.333923 102.0 
643.447693 110.0 
665.881409 58.0 
686.761902 143.0 
704.001282 67.0 
716.877869 65.0 
717.434631 137.0 
754.065674 67.0 
758.297241 60.0 
784.879211 55.0 
END IONS

BEGIN IONS
RTINSECONDS=119.949997
CHARGE=1-
MSLEVEL=2
SMILES=O=C1c2c(C)cc(O)c(C=O)c2Oc2c(O1)c(c(c1c2C(O)OC1=O)O)CO
INCHI=InChI=1S/C18H12O10/c1-5-2-8(21)6(3-19)13-9(5)16(23)27-14-7(4-20)12(22)10-11(15(14)26-13)18(25)28-17(10)24/h2-3,18,20-22,25H,4H2,1H3
INCHIKEY=QQTKVXCQLZIJPP-UHFFFAOYSA-N
CLASS=Depsidones
ADDUCT=[M-H]-
INSTRUMENT=Waters Q-ToF Xevo G2-XS
PRECURSOR_MZ=387.0352
COMPOUND_NAME=Salazinic acid
ION_MODE=negative
FORMULA=C18H12O10
69.002319 4110.519531 
93.035973 7948.390625 
121.031456 154760.5 
122.034851 25065.765625 
151.04158 111253.5625 
165.021423 43632.71875 
225.05719 130812.1875 
227.034286 442026.0 
241.051834 156998.875 
243.028564 384140.5 
269.044495 595062.0 
270.050323 190206.75 
299.058075 194062.0 
325.03418 209976.125 
326.039093 76347.5625 
343.044464 557710.0 
344.050018 346051.5 
433.077881 62862.625 
486.961517 3267.277344 
487.96402 867.015625 
501.061646 2650.695312 
515.995789 1761.032227 
531.957336 2434.990234 
532.999512 3566.136719 
577.996033 668.111328 
599.970093 502.753662 
600.989929 434.6604 
623.992126 796.993652 
624.022461 324.687744 
675.134521 326.0 
695.922302 160.545166 
698.717224 208.0 
703.428711 176.0 
775.080627 20372.21875 
776.084778 8721.25 
797.061646 50279.375 
797.188293 2646.570312 
798.063782 18528.40625 
799.058899 7442.929688 
END IONS

BEGIN IONS
RTINSECONDS=220.968994
CHARGE=1-
MSLEVEL=2
SMILES=CCCCCCCCCCCCC[C@@H]1[C@@H](C(=O)O)[C@H](C)C(=O)O1
INCHI=InChI=1S/C19H34O4/c1-3-4-5-6-7-8-9-10-11-12-13-14-16-17(18(20)21)15(2)19(22)23-16/h15-17H,3-14H2,1-2H3,(H,20,21)/t15-,16+,17-/m0/s1
INCHIKEY=WLGALFYTFVOQPY-BBWFWOEESA-N
CLASS=Paraconic acids
ADDUCT=[M-H]-
INSTRUMENT=Waters Q-ToF Xevo G2-XS
PRECURSOR_MZ=325.2379
COMPOUND_NAME=Roccellaric acid
ION_MODE=negative
FORMULA=C19H34O4
69.037804 9077.953125 
85.034241 1048.998047 
98.004311 3271.992188 
113.027237 299184.0 
113.22438 868.0 
114.031013 15245.8125 
167.858307 250.905151 
170.005585 933.19043 
183.01416 19345.390625 
184.017609 747.412598 
197.027679 550.592773 
225.065643 584.699707 
281.247925 493978.25 
282.256195 776329.0 
393.228119 4073.001953 
423.161652 5227.65625 
425.167023 49796.9375 
425.249603 2498.304688 
426.168243 16932.328125 
427.168732 2704.845703 
491.140778 1626.0 
493.153748 2906.0 
494.153534 1012.756836 
541.154907 341.706299 
581.453064 758.410156 
593.075562 474.243408 
649.472595 40034.1875 
651.49231 245231.875 
652.49408 143195.375 
653.496277 38344.1875 
673.474304 192170.25 
674.47467 91680.125 
734.410706 9652.65625 
753.41217 5583.476562 
773.399292 33755.5625 
774.399658 16634.421875 
775.403381 5768.621094 
END IONS

BEGIN IONS
RTINSECONDS=181.210007
CHARGE=1-
MSLEVEL=2
SMILES=Cc1cc(OC)cc2c1c(=O)c1c(cc(O)c(Cl)c1O)o2
INCHI=InChI=1S/C15H11ClO5/c1-6-3-7(20-2)4-9-11(6)14(18)12-10(21-9)5-8(17)13(16)15(12)19/h3-5,17,19H,1-2H3
INCHIKEY=VZYXHXRKFKLWJI-UHFFFAOYSA-N
CLASS=Xanthones and bis-Xanthones
ADDUCT=[M-H+HCOOH]-
INSTRUMENT=Waters Q-ToF Xevo G2-XS
PRECURSOR_MZ=351.0272
COMPOUND_NAME=2-Chloro-6-O-methylnorlichexanthone
ION_MODE=negative
FORMULA=C15H11ClO5
80.919243 2093.746094 
142.040924 1028.594727 
169.025665 628.0 
170.035019 7595.472656 
170.089508 306.679688 
198.030045 6372.710938 
213.054352 841.077148 
226.026459 5334.96875 
227.033112 623.018555 
254.021942 1049.982422 
269.04541 429.117432 
446.187897 20.0 
483.612 42.0 
523.716309 20.0 
524.866516 18.0 
528.859924 19.0 
794.692688 18.0 
END IONS

BEGIN IONS
RTINSECONDS=188.539001
CHARGE=1-
MSLEVEL=2
SMILES=O=C1C(=C(O)/C(=C(/c2ccccc2)\C(=O)OC)/O1)c1ccccc1
INCHI=InChI=1S/C19H14O5/c1-23-18(21)15(13-10-6-3-7-11-13)17-16(20)14(19(22)24-17)12-8-4-2-5-9-12/h2-11,20H,1H3/b17-15+
INCHIKEY=OMZRMXULWNMRAE-BMRADRMJSA-N
CLASS=Pulvinic Acid Derivatives
ADDUCT=[M-H]-
INSTRUMENT=Waters Q-ToF Xevo G2-XS
PRECURSOR_MZ=321.0763
COMPOUND_NAME=Vulpinic acid
ION_MODE=negative
FORMULA=C19H14O5
59.136543 331.0 
101.042259 7580.320312 
117.037132 792166.5 
117.17733 25588.328125 
117.288773 7344.890625 
118.038002 232552.375 
125.041779 7970.117188 
189.070038 778560.5 
190.077469 893883.0 
191.083389 921913.0 
191.164673 84291.5625 
249.091415 796724.0 
250.096298 1022009.0 
262.063171 336217.75 
263.070404 534310.0 
420.999481 1583.908203 
422.002502 479.53125 
423.000519 250.447144 
425.100372 489.463623 
460.997253 551.90625 
488.991119 2027.873047 
489.989014 477.31958 
490.998383 198.0 
504.961975 167.0 
579.018127 135.0 
579.435181 105.0 
587.033264 116.0 
587.951477 129.0 
641.146179 5008.730469 
665.146362 131857.25 
665.262695 6965.433594 
666.149902 59769.9375 
667.151794 14672.632812 
681.119873 4001.330078 
745.0802 802.977539 
765.067261 1036.826172 
795.088013 281.0 
END IONS

BEGIN IONS
RTINSECONDS=174.257004
CHARGE=1-
MSLEVEL=2
SMILES=CCCCCC(=O)Cc1cc(cc(c1C(=O)Oc1cc(c(c(c1)CC(=O)CCCCC)C(=O)O)OC)O)O
INCHI=InChI=1S/C29H36O9/c1-4-6-8-10-20(30)12-18-14-22(32)16-24(33)26(18)29(36)38-23-15-19(13-21(31)11-9-7-5-2)27(28(34)35)25(17-23)37-3/h14-17,32-33H,4-13H2,1-3H3,(H,34,35)
INCHIKEY=DGXLEDCXMIJNPJ-UHFFFAOYSA-N
CLASS=Depsides (Didepsides)
ADDUCT=[M-H]-
INSTRUMENT=Waters Q-ToF Xevo G2-XS
PRECURSOR_MZ=527.2281
COMPOUND_NAME=Arthoniaic acid
ION_MODE=negative
FORMULA=C29H36O9
50.130779 76.0 
81.035149 882.0 
81.076134 180.0 
105.037033 5970.597656 
122.038048 948.791992 
123.049065 7838.175781 
137.06395 2932.802734 
146.038193 6238.886719 
149.023804 29219.796875 
221.117081 8935.726562 
235.133362 9907.445312 
247.097122 87027.6875 
247.16629 3188.613281 
265.107361 81934.25 
279.124786 8521.09375 
326.142151 277.0 
341.176666 1241.397461 
351.716614 95.0 
359.294159 108.0 
390.842712 118.0 
414.012604 87.0 
436.289856 194.0 
439.246246 1689.035156 
439.329437 254.0 
455.022522 104.0 
483.237366 276.146484 
584.832153 31.0 
588.121399 78.0 
632.734924 43.0 
636.83374 51.0 
644.875916 39.0 
646.231567 37.0 
651.344666 26.0 
659.844482 34.0 
691.567627 34.0 
767.509399 19.0 
END IONS

BEGIN IONS
RTINSECONDS=119.000999
CHARGE=1-
MSLEVEL=2
SMILES=CC(=O)c1c(c2c(o1)cc1c(c2O)C(=O)C(=O)C(=C1O)OC)O
INCHI=InChI=1S/C15H10O8/c1-4(16)14-12(20)8-6(23-14)3-5-7(10(8)18)11(19)13(21)15(22-2)9(5)17/h3,17-18,20H,1-2H3
INCHIKEY=XKWWCTISHMFHJB-UHFFFAOYSA-N
CLASS=Quinones
ADDUCT=[M-H]-
INSTRUMENT=Waters Q-ToF Xevo G2-XS
PRECURSOR_MZ=317.0297
COMPOUND_NAME=Rhodocladonic acid
ION_MODE=negative
FORMULA=C15H10O8
56.940964 176.0 
78.008461 211.199951 
89.001495 450.972656 
106.006439 1196.370117 
132.019714 837.0 
134.001343 6369.789062 
147.006851 1625.379883 
160.986221 992.424805 
189.018692 1280.685547 
190.021561 1127.952148 
218.022354 1558.145508 
230.992249 3507.791016 
245.008316 1916.027344 
246.01413 635.898438 
274.0112 8908.664062 
395.018372 58.763702 
412.00589 113.0 
415.943481 124.0 
418.932037 71.0 
473.847198 83.0 
483.939423 54.0 
509.851074 97.0 
529.811218 89.0 
533.935425 61.0 
538.314636 66.0 
576.012329 213.0 
581.252014 92.0 
637.030212 125.557373 
637.058655 79.253357 
645.895203 77.0 
654.038391 96.0 
662.12323 63.0 
688.886963 57.0 
718.791504 95.0 
739.015259 78.0 
774.822327 57.0 
784.887024 54.0 
785.823181 62.0 
789.949951 55.0 
793.962219 66.894165 
END IONS

BEGIN IONS
RTINSECONDS=154.362
CHARGE=1-
MSLEVEL=2
SMILES=c1ccc(cc1)C1=C(C(=O)C(=C(C1=O)O)c1ccccc1)O
INCHI=InChI=1S/C18H12O4/c19-15-13(11-7-3-1-4-8-11)16(20)18(22)14(17(15)21)12-9-5-2-6-10-12/h1-10,19,22H
INCHIKEY=HZKFHDXTSAYOSN-UHFFFAOYSA-N
CLASS=Quinones
ADDUCT=[M-H]-
INSTRUMENT=Waters Q-ToF Xevo G2-XS
PRECURSOR_MZ=291.0657
COMPOUND_NAME=Polyporic acid
ION_MODE=negative
FORMULA=C18H12O4
50.050007 178.0 
58.840118 164.0 
89.042679 663.661621 
101.042458 13944.78125 
117.038864 448381.5 
118.0364 1677.605469 
125.040794 1942.469727 
173.027481 5383.339844 
189.073242 2975.246094 
190.081329 10790.882812 
191.089111 57494.875 
219.084427 14621.023438 
234.071945 43209.75 
263.070892 480139.25 
263.15744 27324.40625 
359.046722 288.836426 
369.09848 5712.054688 
369.17392 329.055176 
370.100861 1170.302734 
373.990387 378.717041 
430.97876 327.406982 
435.99054 1738.806641 
436.992432 462.938721 
458.977753 344.22876 
481.997589 633.49707 
503.977142 255.333496 
509.142853 238.115601 
509.212646 190.0 
543.037537 168.0 
581.122864 1409.124023 
582.132507 443.223633 
605.123474 8888.96875 
606.126404 3150.210938 
607.126587 963.938477 
682.054993 1752.283203 
683.055176 745.755859 
683.154541 596.441895 
685.064514 705.918945 
704.040955 813.682129 
761.196777 261.420898 
762.187805 342.0 
793.124756 247.0 
798.986206 146.0 
END IONS

BEGIN IONS
RTINSECONDS=113.316002
CHARGE=1-
MSLEVEL=2
SMILES=O=C(O)c1c(C)c(Cl)c(O)c(Cl)c1O
INCHI=InChI=1S/C8H6Cl2O4/c1-2-3(8(13)14)6(11)5(10)7(12)4(2)9/h11-12H,1H3,(H,13,14)
INCHIKEY=QZKUNAATQJYHIC-UHFFFAOYSA-N
CLASS=Cleavage Products of Depsides and Depsidones
ADDUCT=[M-H]-
INSTRUMENT=Waters Q-ToF Xevo G2-XS
PRECURSOR_MZ=234.9565
COMPOUND_NAME="N 3,5-Dichlororsellinic acid"
ION_MODE=negative
FORMULA=C8H6Cl2O4
63.025894 637.80127 
65.008705 2186.050781 
91.023445 23605.703125 
101.945389 2351.654297 
119.01561 9955.054688 
126.998947 160052.0 
145.935028 4446.511719 
154.993423 39317.1875 
190.967331 262666.75 
191.021744 10658.148438 
317.879852 184.0 
319.879456 192.500977 
321.219086 136.0 
345.005798 213.0 
379.886505 376.94873 
381.883575 255.0 
389.389374 210.0 
424.917389 469.280518 
426.900818 261.298828 
431.800659 205.0 
434.681793 189.0 
492.895538 566.585938 
494.896912 1499.818359 
495.903717 243.0 
496.891083 585.299805 
523.828918 442.628174 
525.82605 717.0 
561.810913 216.440918 
583.001343 175.0 
595.818787 151.0 
613.229736 135.0 
646.751404 129.0 
648.83429 136.0 
666.825867 126.0 
682.840698 175.0 
689.967285 206.0 
706.795166 152.0 
717.782227 153.0 
742.856506 155.0 
756.646729 169.0 
766.794434 221.0 
783.767883 155.0 
788.689941 142.0 
END IONS

BEGIN IONS
RTINSECONDS=113.581001
CHARGE=1-
MSLEVEL=2
SMILES=Cc1cc(c(c2c1C(=O)Oc1c(O2)c2c(c(c1CO)O)C(=O)OC2O)C=O)OC
INCHI=InChI=1S/C19H14O10/c1-6-3-9(26-2)7(4-20)14-10(6)17(23)28-15-8(5-21)13(22)11-12(16(15)27-14)19(25)29-18(11)24/h3-4,19,21-22,25H,5H2,1-2H3
INCHIKEY=FYPCEUKJORJHDL-UHFFFAOYSA-N
CLASS=Depsidones
ADDUCT=[M-H+HCOOH]-
INSTRUMENT=Waters Q-ToF Xevo G2-XS
PRECURSOR_MZ=447.0564
COMPOUND_NAME=Constictic acid
ION_MODE=negative
FORMULA=C19H14O10
93.038902 5086.546875 
94.040497 2468.017578 
121.032745 109021.25 
122.034225 46275.46875 
135.015076 6541.808594 
212.049271 30533.265625 
240.044846 67539.9375 
241.05304 55798.75 
242.053955 40473.1875 
269.050995 45161.9375 
270.052917 53733.9375 
287.089233 57710.0625 
315.086731 71993.3125 
329.105988 91323.0625 
330.109772 362890.75 
360.116882 126271.9375 
374.09671 163791.75 
403.108215 132928.125 
404.111237 897569.0 
515.08551 985.990723 
516.080383 483.0 
530.024292 1246.192383 
531.041748 581.208008 
547.017456 4325.175781 
548.015503 843.27002 
587.009705 625.176758 
588.018982 584.682617 
592.015381 2094.826172 
615.002014 460.204834 
641.99469 215.370117 
663.985229 217.0 
674.019836 153.0 
681.98175 140.052124 
682.088806 200.0 
730.935242 133.0 
732.882568 185.0 
744.086548 141.0 
771.075623 148.0 
786.608948 143.0 
787.171997 156.0 
794.288025 145.0 
END IONS

BEGIN IONS
RTINSECONDS=190.0
CHARGE=1-
MSLEVEL=2
SMILES=CC(=O)CCCCCCCCCCCCC[C@@H]1C(C(C)C(=O)O1)C(=O)O
INCHI=InChI=1S/C21H36O5/c1-16(22)14-12-10-8-6-4-3-5-7-9-11-13-15-18-19(20(23)24)17(2)21(25)26-18/h17-19H,3-15H2,1-2H3,(H,23,24)/t17?,18-,19?/m1/s1
INCHIKEY=SPGPUDJMXMJNCU-JLAWEPINSA-N
CLASS=Paraconic acids
ADDUCT=[M-H]-
INSTRUMENT=Waters Q-ToF Xevo G2-XS
PRECURSOR_MZ=367.2484
COMPOUND_NAME=Dihydromuronic acid
ION_MODE=negative
FORMULA=C21H36O5
50.445217 1716.93457 
57.037537 1790.542969 
69.039894 17100.90625 
71.052452 3750.427734 
98.002258 2207.900391 
113.027985 94761.25 
114.028412 2488.138672 
169.161942 19609.625 
170.161667 21797.234375 
183.1745 7423.84375 
184.185165 11364.265625 
208.214218 13798.65625 
278.268524 1282760.0 
279.272064 1597732.0 
280.281342 1135032.0 
323.265564 1160672.0 
465.1651 48890.90625 
466.16452 15684.015625 
467.177246 91028.6875 
467.270508 9439.96875 
468.178589 36702.0 
469.180847 10878.25 
533.147644 3173.310547 
556.169983 2037.226562 
558.176819 1826.014648 
606.137329 281.0 
608.166077 332.0 
635.08075 228.621826 
731.478821 159046.375 
732.480896 82924.9375 
735.510864 265281.25 
736.511963 177575.625 
753.459595 123583.5625 
757.491333 105951.75 
END IONS

BEGIN IONS
RTINSECONDS=161.246994
CHARGE=1-
MSLEVEL=2
SMILES=Cc1c(c(O)cc(O)c1)C(=O)Oc1cc(OC)c(C(=O)Oc2cc(O)c(C(=O)O)c(C)c2)c(C)c1
INCHI=InChI=1S/C25H22O10/c1-11-5-14(26)8-17(27)21(11)24(31)35-16-7-13(3)22(19(10-16)33-4)25(32)34-15-6-12(2)20(23(29)30)18(28)9-15/h5-10,26-28H,1-4H3,(H,29,30)
INCHIKEY=BXLGBRLDRRZQKR-UHFFFAOYSA-N
CLASS=Depsides (Tridepsides)
ADDUCT=[M-H]-
INSTRUMENT=Waters Q-ToF Xevo G2-XS
PRECURSOR_MZ=481.1135
COMPOUND_NAME=Ovoic acid
ION_MODE=negative
FORMULA=C25H22O10
79.059052 11779.15625 
81.03833 13632.257812 
105.038887 277528.0 
123.048218 205111.5 
149.035461 1152700.0 
149.121506 86434.25 
167.034805 731123.5 
167.092316 55672.65625 
229.088745 1627.349609 
255.06665 706.0 
259.999329 303.0 
273.07724 6931.167969 
317.070251 92999.75 
331.085938 1066073.0 
331.163361 77685.1875 
331.266693 44250.0 
331.361908 27282.546875 
331.415802 26366.96875 
416.987457 602.162109 
431.009094 1338.072266 
567.028381 4727.769531 
568.021729 1211.9375 
580.036865 2087.416016 
581.039978 7454.636719 
582.0448 2982.833984 
583.038208 775.360352 
621.036316 590.424316 
635.019226 555.327637 
637.024475 442.051514 
649.024475 359.752686 
650.02887 342.0 
709.05127 165.0 
728.789795 149.0 
744.076294 172.0 
769.264648 147.34436 
775.079285 152.0 
794.29364 145.165039 
794.314941 105.0 
END IONS

BEGIN IONS
RTINSECONDS=19.51
CHARGE=1-
MSLEVEL=2
SMILES=COC1=C(NC(CO)CCC(=N)O)CC(CO)(O)CC1=O
INCHI=InChI=1S/C13H22N2O6/c1-21-12-9(4-13(20,7-17)5-10(12)18)15-8(6-16)2-3-11(14)19/h8,15-17,20H,2-7H2,1H3,(H2,14,19)
INCHIKEY=BVWBDCIYHWDCRQ-UHFFFAOYSA-N
CLASS=Mycosporines
ADDUCT=[M-H+HCOOH]-
INSTRUMENT=Waters Q-ToF Xevo G2-XS
PRECURSOR_MZ=347.1454
COMPOUND_NAME=Mycosporine glutaminol
ION_MODE=negative
FORMULA=C13H22N2O6
73.031532 1702.227539 
75.0112 2412.511719 
98.060333 3818.435547 
99.01313 4931.722656 
136.040359 12690.453125 
153.046112 12950.484375 
154.049454 11753.539062 
162.057343 15759.59375 
166.054184 10351.765625 
180.066193 153351.625 
237.086731 18318.171875 
238.097229 183634.5 
268.105316 43208.375 
283.128754 624003.0 
283.202667 32722.21875 
301.139771 275876.75 
417.31131 55.0 
417.528961 75.0 
440.166779 66.0 
453.258118 53.0 
506.781647 80.0 
519.324463 46.0 
531.296997 40.0 
532.991333 55.0 
546.622925 62.0 
597.523499 52.0 
599.643127 58.0 
600.482361 42.0 
617.554016 91.0 
634.221802 44.0 
642.239807 47.0 
664.58905 52.0 
669.43335 42.0 
670.692322 83.0 
711.791199 46.0 
728.37677 47.0 
750.80658 66.0 
766.284363 67.0 
784.009521 36.0 
798.068115 49.0 
END IONS

BEGIN IONS
RTINSECONDS=196.932007
CHARGE=1-
MSLEVEL=2
SMILES=Oc1c(C(=O)O)c(CCC)cc(OC(=O)c2c(O)c(Cl)c(OC)cc2CCC)c1
INCHI=InChI=1S/C21H23ClO7/c1-4-6-11-8-13(10-14(23)16(11)20(25)26)29-21(27)17-12(7-5-2)9-15(28-3)18(22)19(17)24/h8-10,23-24H,4-7H2,1-3H3,(H,25,26)
INCHIKEY=WVJIULQLWBXJKO-UHFFFAOYSA-N
CLASS=Depsides (Didepsides)
ADDUCT=[M-H]-
INSTRUMENT=Waters Q-ToF Xevo G2-XS
PRECURSOR_MZ=421.1054
COMPOUND_NAME=3-Chlorodivaricatic acid
ION_MODE=negative
FORMULA=C21H23ClO7
80.965034 280.0 
81.033699 277.690674 
91.023605 1071.0 
107.081451 599.88623 
109.071976 1434.885742 
133.066284 2275.621094 
151.078903 5198.238281 
177.055389 16162.679688 
177.106705 867.0 
184.028748 356.318115 
195.065063 21555.890625 
195.118484 1318.986328 
234.857559 181.327026 
243.047195 491.94458 
262.856842 114.0 
262.936646 122.0 
300.875977 138.0 
333.127136 410.0 
352.858582 293.967529 
353.206818 279.0 
353.852997 152.024902 
481.595734 27.0 
504.712402 25.0 
511.63739 24.0 
567.381042 53.0 
568.270264 21.0 
598.682007 28.0 
611.134949 18.0 
626.588623 24.0 
664.41626 60.0 
END IONS

BEGIN IONS
RTINSECONDS=147.348999
CHARGE=1-
MSLEVEL=2
SMILES=CCCc1cc(cc(c1)O)O
INCHI=InChI=1S/C9H12O2/c1-2-3-7-4-8(10)6-9(11)5-7/h4-6,10-11H,2-3H2,1H3
INCHIKEY=FRNQLQRBNSSJBK-UHFFFAOYSA-N
CLASS=Cleavage Products of Depsides and Depsidones
ADDUCT=[M-H]-
INSTRUMENT=Waters Q-ToF Xevo G2-XS
PRECURSOR_MZ=151.0759
COMPOUND_NAME=Divarinol
ION_MODE=negative
FORMULA=C9H12O2
79.06028 807.910156 
81.03688 7485.347656 
107.087639 48897.15625 
109.06749 47129.625 
210.748947 100.0 
236.463333 133.0 
251.183929 152.0 
299.163544 414.861816 
299.225433 391.974365 
311.223022 523.689941 
312.225708 128.0 
315.130188 161.755981 
343.161499 161.86084 
371.303558 139.0 
388.17984 430.939941 
395.248322 154.0 
425.170685 194.114258 
451.209137 234.951172 
453.214142 469.307617 
463.23056 257.72876 
463.251892 404.211426 
475.219452 873.960449 
483.246674 277.0 
519.206238 308.368652 
521.246643 306.071289 
585.214783 1175.246094 
585.251099 662.493652 
619.252563 959.921387 
627.260925 10551.445312 
627.36731 670.033203 
628.264099 3842.6875 
673.259888 759.694336 
695.248779 563.827637 
737.329224 3735.222656 
738.32312 1898.451172 
739.31842 558.458984 
741.265442 622.652832 
753.303955 487.866455 
773.189575 562.666016 
791.340698 417.057129 
END IONS

BEGIN IONS
RTINSECONDS=173.630005
CHARGE=1-
MSLEVEL=2
SMILES=O=c1oc(CCCCC)cc2c1c(cc(c2)O)O
INCHI=InChI=1S/C14H16O4/c1-2-3-4-5-11-7-9-6-10(15)8-12(16)13(9)14(17)18-11/h6-8,15-16H,2-5H2,1H3
INCHIKEY=FIMFRMRZGBUYMV-UHFFFAOYSA-N
CLASS=Cleavage Products of Depsides and Depsidones
ADDUCT=[M-H]-
INSTRUMENT=Waters Q-ToF Xevo G2-XS
PRECURSOR_MZ=247.097
COMPOUND_NAME=Olivetonide
ION_MODE=negative
FORMULA=C14H16O4
65.00705 39681.90625 
118.048134 954771.5 
137.099274 691573.5 
146.05188 1225545.0 
190.028839 1419188.0 
190.080612 1577065.0 
191.039597 711039.0 
309.175201 1330.866211 
311.168945 598.270996 
315.084961 564.530762 
347.022766 7791.152344 
348.022034 1883.228516 
349.033539 497.503174 
438.026672 527.078613 
439.033661 248.511475 
488.007233 208.416748 
493.169159 171.808472 
495.207764 925.712402 
496.203888 271.476562 
578.125427 8195.515625 
579.130432 3463.869141 
580.125732 1223.552734 
595.125 736.480957 
636.127319 717.317383 
640.124756 4379.21875 
641.135376 861.404785 
666.058777 499.515625 
690.106873 1257.976562 
691.096741 261.0 
704.117249 178.0 
733.807617 147.0 
785.27533 565.571289 
787.274231 2695.005859 
788.267578 1032.59082 
788.299805 745.988281 
796.222351 1211.030273 
797.222229 447.116699 
END IONS

BEGIN IONS
RTINSECONDS=170.442993
CHARGE=1-
MSLEVEL=2
SMILES=CCCCCC1=CC(=O)C=C(OC)C21C(=O)Oc1c2c(c(c(c1)O)C(=O)O)CCCCC
INCHI=InChI=1S/C25H30O7/c1-4-6-8-10-15-12-16(26)13-20(31-3)25(15)22-17(11-9-7-5-2)21(23(28)29)18(27)14-19(22)32-24(25)30/h12-14,27H,4-11H2,1-3H3,(H,28,29)
INCHIKEY=LOGCRVAWKCZXQM-UHFFFAOYSA-N
CLASS=Depsones
ADDUCT=[M-H+CH3OH]-
INSTRUMENT=Waters Q-ToF Xevo G2-XS
PRECURSOR_MZ=473.2175
COMPOUND_NAME=Picrolichenic acid
ION_MODE=negative
FORMULA=C25H30O7
65.005508 8551.054688 
75.012421 33893.28125 
97.031593 39820.15625 
99.010292 2882.841797 
122.036491 3007.027344 
182.035812 26209.96875 
210.030548 40752.25 
239.101242 47571.75 
253.124512 48173.875 
267.103302 518870.0 
281.117676 88714.625 
282.125946 376889.5 
287.200623 64453.78125 
338.187286 164621.375 
339.195312 75459.75 
353.212799 56481.875 
397.203979 130811.9375 
429.229156 1307643.0 
429.322296 108110.5 
429.437164 75081.5 
541.205017 4832.296875 
556.145752 2467.507812 
557.14386 882.860352 
573.14325 9829.179688 
574.148499 3565.275391 
575.147583 2571.677734 
613.13678 1426.835938 
618.138855 6451.105469 
619.142273 1515.879883 
668.119202 854.579102 
686.116699 410.322754 
686.145874 393.78125 
735.074585 327.94873 
736.109863 192.819824 
749.148865 201.0 
END IONS

BEGIN IONS
RTINSECONDS=156.690002
CHARGE=1-
MSLEVEL=2
SMILES=O=C(O)c1c(CCC)c(Cl)c(OC)cc1O
INCHI=InChI=1S/C11H13ClO4/c1-3-4-6-9(11(14)15)7(13)5-8(16-2)10(6)12/h5,13H,3-4H2,1-2H3,(H,14,15)
INCHIKEY=JRBWSDAHJPBRDM-UHFFFAOYSA-N
CLASS=Cleavage Products of Depsides and Depsidones
ADDUCT=[2M-2H+Na]-
INSTRUMENT=Waters Q-ToF Xevo G2-XS
PRECURSOR_MZ=509.0746
COMPOUND_NAME=5-Chlorodivaricatinic acid
ION_MODE=negative
FORMULA=C11H13ClO4
50.662434 101.0 
50.855125 111.0 
51.724033 76.0 
78.531776 184.0 
103.967773 125.0 
148.055267 253.0 
156.004227 5343.269531 
184.027893 121143.125 
184.08078 5122.425781 
199.051514 437157.25 
199.111267 20238.140625 
243.041504 674558.0 
243.11055 38872.3125 
243.198364 18567.0 
243.324066 10127.546875 
321.442566 118.0 
330.536621 215.0 
332.937653 155.232178 
352.254639 254.0 
382.06955 94.0 
383.965057 99.0 
402.743286 148.0 
439.095795 174.140625 
450.001587 151.0 
603.389648 66.0 
655.867432 42.0 
658.029602 45.0 
670.625122 85.0 
672.14563 47.0 
679.608154 41.0 
693.332336 40.0 
744.795166 48.0 
752.108337 37.0 
753.533508 45.0 
757.1073 27.0 
791.037292 40.0 
END IONS

BEGIN IONS
RTINSECONDS=19.250999
CHARGE=1-
MSLEVEL=2
SMILES=COC1=C(NC(CO)CCC(=N)O)CC(CO)(O)CC1=O
INCHI=InChI=1S/C13H22N2O6/c1-21-12-9(4-13(20,7-17)5-10(12)18)15-8(6-16)2-3-11(14)19/h8,15-17,20H,2-7H2,1H3,(H2,14,19)
INCHIKEY=BVWBDCIYHWDCRQ-UHFFFAOYSA-N
CLASS=Mycosporines
ADDUCT=[M-H-H2O]-
INSTRUMENT=Waters Q-ToF Xevo G2-XS
PRECURSOR_MZ=283.1294
COMPOUND_NAME=Mycosporine glutaminol
ION_MODE=negative
FORMULA=C13H22N2O6
108.04644 3847.507812 
134.062073 6070.285156 
136.039856 7668.320312 
153.04277 6098.90625 
154.052856 5397.9375 
162.056274 13327.9375 
180.067337 86513.4375 
209.086838 4579.3125 
237.086349 10996.679688 
238.096954 45317.84375 
301.141663 2568.535156 
347.146332 4664.191406 
347.212616 194.445923 
348.151428 595.908203 
400.055176 201.0 
401.064362 554.936035 
401.085907 201.064209 
415.12851 833.69043 
415.154297 172.0 
455.225922 132.0 
456.578094 151.0 
459.218475 188.0 
515.781372 67.0 
535.229126 178.0 
546.992188 85.0 
549.171875 83.0 
575.860657 94.0 
656.198975 2088.0 
656.314148 181.0 
657.187744 301.174072 
657.209778 475.490234 
658.188477 113.39209 
723.224548 91.0 
724.173645 136.77356 
725.225952 98.0 
725.286011 100.0 
753.360718 167.0 
753.899231 98.0 
792.137756 76.0 
793.318787 118.0 
END IONS

BEGIN IONS
RTINSECONDS=147.054001
CHARGE=1-
MSLEVEL=2
SMILES=Cc1c(c(O)cc(O)c1)C(=O)Oc1cc(O)c(C(=O)Oc2c(C)c(C(=O)O)c(O)cc2O)c(C)c1
INCHI=InChI=1S/C24H20O11/c1-9-4-12(25)6-14(26)18(9)23(32)34-13-5-10(2)19(15(27)7-13)24(33)35-21-11(3)20(22(30)31)16(28)8-17(21)29/h4-8,25-29H,1-3H3,(H,30,31)
INCHIKEY=PXEWPVIKVBSHLU-UHFFFAOYSA-N
CLASS=Depsides (Tridepsides)
ADDUCT=[M-H]-
INSTRUMENT=Waters Q-ToF Xevo G2-XS
PRECURSOR_MZ=483.0927
COMPOUND_NAME=Crustinic acid
ION_MODE=negative
FORMULA=C24H20O11
109.033134 179832.375 
121.033783 319592.25 
165.026443 1434133.0 
166.014389 601751.0 
167.036285 910449.5 
167.065552 782397.5 
183.030411 1029609.0 
184.037628 446777.5 
255.069305 24833.296875 
256.068634 8422.132812 
271.065216 24280.9375 
315.055756 64933.65625 
317.068207 907671.5 
317.173645 64943.625 
333.062073 479980.25 
333.151611 24872.921875 
334.069366 107390.5 
432.987488 5874.0 
581.011536 4331.34375 
582.013672 2517.404297 
583.022461 28132.875 
583.126099 1955.085938 
584.02417 9967.375 
585.026001 2813.345703 
633.127136 1061.302734 
651.003113 648.297852 
673.101318 1394.004883 
674.098938 608.174316 
687.105652 1017.597168 
720.043335 632.0 
783.160339 962.337402 
784.17157 468.384033 
797.126526 135.420288 
799.144409 174.134644 
END IONS

BEGIN IONS
RTINSECONDS=199.860992
CHARGE=1-
MSLEVEL=2
SMILES=O=C1c2c(CCCCC)cc(OC)c(OC)c2Oc2c(O1)cc(c(c2CCCCC)C(=O)O)O
INCHI=InChI=1S/C26H32O8/c1-5-7-9-11-15-13-18(31-3)23(32-4)24-20(15)26(30)33-19-14-17(27)21(25(28)29)16(22(19)34-24)12-10-8-6-2/h13-14,27H,5-12H2,1-4H3,(H,28,29)
INCHIKEY=GHBZVNHEVHMKOB-UHFFFAOYSA-N
CLASS=Depsidones
ADDUCT=[M-H+CH3OH]-
INSTRUMENT=Waters Q-ToF Xevo G2-XS
PRECURSOR_MZ=503.2281
COMPOUND_NAME=3-Methoxycolensoic acid
ION_MODE=negative
FORMULA=C26H32O8
79.988388 155.0 
108.023109 174.0 
109.02813 258.0 
133.105286 1501.908203 
133.151382 273.0 
137.027222 356.13916 
138.03363 235.645264 
165.090912 602.506836 
193.085083 687.830078 
194.09288 1868.975586 
238.084305 1973.919922 
251.090515 518.210449 
296.098602 686.901855 
309.112183 803.300781 
310.121643 1761.625977 
325.152954 1754.908203 
329.175476 1394.211914 
353.177582 5528.28125 
368.20401 2474.005859 
383.220551 6237.890625 
385.200623 4655.226562 
397.163513 1033.666016 
427.2117 13665.203125 
453.192261 1018.816406 
471.205383 9104.0625 
597.357117 46.0 
616.608643 45.0 
END IONS

BEGIN IONS
RTINSECONDS=120.122002
CHARGE=1-
MSLEVEL=2
SMILES=O=C1c2c(C)cc(O)c(C)c2Oc2c(O1)cc(c(c2C)C(=O)O)O
INCHI=InChI=1S/C17H14O7/c1-6-4-9(18)7(2)15-12(6)17(22)23-11-5-10(19)13(16(20)21)8(3)14(11)24-15/h4-5,18-19H,1-3H3,(H,20,21)
INCHIKEY=HETZRHDDRHBPKX-UHFFFAOYSA-N
CLASS=Depsidones
ADDUCT=[M-H+CH3OH]-
INSTRUMENT=Waters Q-ToF Xevo G2-XS
PRECURSOR_MZ=361.0923
COMPOUND_NAME=Nornotatic acid
ION_MODE=negative
FORMULA=C17H14O7
52.809204 118.0 
53.149193 134.0 
56.260319 234.0 
109.029358 827.348145 
119.057724 1658.469727 
137.025238 1847.583008 
138.032639 2748.0 
201.054626 6772.148438 
217.087906 8152.761719 
241.086899 25276.75 
243.068787 10699.929688 
267.067535 13096.664062 
285.079803 19950.8125 
311.056396 1667.113281 
329.065277 24584.515625 
343.081848 3493.146484 
421.061707 93.0 
429.163666 101.0 
453.308441 110.0 
455.169403 98.0 
461.023041 95.0 
495.984772 146.0 
506.024719 188.888916 
511.064178 129.0 
527.042664 89.0 
555.984985 82.0 
561.744568 148.0 
563.945251 126.0 
606.002808 142.0 
611.745911 99.0 
614.57428 83.0 
628.905212 195.0 
631.046265 77.0 
649.382874 128.0 
682.193298 69.0 
709.263306 127.0 
710.387695 78.0 
722.074951 81.0 
754.584656 126.0 
759.173706 82.0 
776.095154 88.0 
777.052979 93.0 
794.901489 80.0 
796.466919 107.0 
END IONS

BEGIN IONS
RTINSECONDS=162.917007
CHARGE=1-
MSLEVEL=2
SMILES=Oc1c(C(=O)Oc2c(OC)cc(c(C(=O)O)c2O)CCC)c(CCC)cc(OC)c1
INCHI=InChI=1S/C22H26O8/c1-5-7-12-9-14(28-3)11-15(23)17(12)22(27)30-20-16(29-4)10-13(8-6-2)18(19(20)24)21(25)26/h9-11,23-24H,5-8H2,1-4H3,(H,25,26)
INCHIKEY=CPHXGYQLOSNELY-UHFFFAOYSA-N
CLASS=Depsides (Didepsides)
ADDUCT=[M-H]-
INSTRUMENT=Waters Q-ToF Xevo G2-XS
PRECURSOR_MZ=417.1549
COMPOUND_NAME=Sekikaic acid
ION_MODE=negative
FORMULA=C22H26O8
52.888519 277.0 
56.516953 250.0 
58.050999 297.0 
122.040489 179035.75 
150.071747 389865.75 
151.074448 246967.375 
165.093002 448043.25 
166.075851 482535.0 
167.069839 323183.75 
209.081741 1016720.0 
210.093277 815384.0 
225.076508 577884.0 
226.083511 274449.0 
314.1521 336.0 
315.158203 1470.0 
337.206116 469.0 
341.142334 477.0 
353.202026 1542.0 
500.081146 1662.459961 
504.071899 884.0 
517.080933 30533.234375 
517.17627 1336.029297 
518.083984 10459.726562 
519.083679 3002.390625 
557.070923 1194.074219 
585.066162 2090.753906 
586.065857 769.778809 
587.072021 365.874023 
633.013611 207.0 
639.08606 174.0 
650.245789 389.656738 
655.943481 200.0 
696.151306 359.0 
697.146423 353.0 
708.966492 178.069702 
726.000488 158.629639 
741.10968 136.0 
777.341797 112.0 
794.079773 131.842896 
795.018677 91.0 
END IONS

BEGIN IONS
RTINSECONDS=162.938995
CHARGE=1-
MSLEVEL=2
SMILES=Cc1cc(c(c2c1c(=O)c1c(o2)c(c(c(c1O)Cl)O)Cl)Cl)O
INCHI=InChI=1S/C14H7Cl3O5/c1-3-2-4(18)7(15)13-5(3)10(19)6-11(20)8(16)12(21)9(17)14(6)22-13/h2,18,20-21H,1H3
INCHIKEY=NTAXLEHKEDVPRK-UHFFFAOYSA-N
CLASS=Xanthones and bis-Xanthones
ADDUCT=[M-H]-
INSTRUMENT=Waters Q-ToF Xevo G2-XS
PRECURSOR_MZ=358.9281
COMPOUND_NAME=Arthothelin
ION_MODE=negative
FORMULA=C14H7Cl3O5
82.972916 3098.847656 
111.012672 6929.632812 
123.023872 8006.261719 
139.009018 20859.984375 
167.016891 68680.875 
174.998077 64079.6875 
182.987961 91368.0 
195.011948 49897.6875 
202.99144 95013.1875 
230.985031 365975.0 
258.980621 686604.0 
266.962097 816236.0 
267.045593 53858.59375 
286.979187 85129.5 
294.957153 814456.0 
322.952515 114680.3125 
323.960144 137512.25 
458.860992 5102.601562 
459.856659 894.53125 
460.853668 5848.09375 
461.851624 932.0 
462.850861 1681.509766 
463.848785 642.59375 
522.890625 156.0 
528.845886 181.0 
551.840515 124.0 
602.448547 103.0 
620.90155 80.0 
637.152588 222.0 
654.880798 97.0 
668.803528 107.0 
694.072449 269.047852 
740.845825 1793.640625 
742.850952 5060.972656 
743.850098 1055.181641 
744.842529 4322.414062 
745.848633 898.79541 
746.836609 1426.772461 
END IONS

BEGIN IONS
RTINSECONDS=98.195
CHARGE=1-
MSLEVEL=2
SMILES=CC(=O)c1c(O)cc(O)cc1O
INCHI=InChI=1S/C8H8O4/c1-4(9)8-6(11)2-5(10)3-7(8)12/h2-3,10-12H,1H3
INCHIKEY=XLEYFDVVXLMULC-UHFFFAOYSA-N
CLASS=Cleavage Products of Depsides and Depsidones
ADDUCT=[M-H]-
INSTRUMENT=Waters Q-ToF Xevo G2-XS
PRECURSOR_MZ=167.0344
COMPOUND_NAME="N 2,4,6-Trihydroxyacetophenone"
ION_MODE=negative
FORMULA=C8H8O4
65.007629 50635.09375 
81.04895 978584.0 
83.021507 643119.0 
95.052452 198175.375 
123.058548 1294655.0 
125.039299 199580.125 
227.755463 186.0 
258.117981 171.0 
265.148376 1286.765625 
266.146942 203.0 
266.960052 284.759766 
327.675781 207.0 
331.04953 226.0 
333.059296 375.897705 
357.057159 315.594238 
357.973267 241.0 
387.992859 658.0 
388.995117 1048.639648 
418.00119 4674.0 
419.001099 995.383301 
433.993561 419.0 
451.999725 331.0 
479.111633 271.0 
480.00116 611.191895 
481.001099 317.250244 
525.085327 372.171143 
547.077942 1008.677734 
556.03186 609.973633 
557.036133 1434.073242 
592.005981 810.763672 
602.037048 2975.255859 
603.034607 1260.958008 
652.021118 440.525391 
653.009583 508.998535 
659.859009 111.0 
722.088562 1185.09668 
724.076172 110521.875 
724.196411 5192.171875 
725.072815 5566.769531 
725.127808 321.786621 
726.077515 1289.37793 
780.101868 119.0 
786.95343 243.0 
END IONS

BEGIN IONS
RTINSECONDS=121.021004
CHARGE=1-
MSLEVEL=2
SMILES=OC1=C(OC)C(=O)c2c(O)c3oc(C(=O)C)c(O)c3c(O)c2C1=O
INCHI=InChI=1S/C15H10O9/c1-3(16)13-11(21)6-7(17)4-5(9(19)14(6)24-13)10(20)15(23-2)12(22)8(4)18/h17,19,21-22H,1-2H3
INCHIKEY=ILUWXELFYCLFHQ-UHFFFAOYSA-N
CLASS=Quinones
ADDUCT=[M-H+CH3OH]-
INSTRUMENT=Waters Q-ToF Xevo G2-XS
PRECURSOR_MZ=365.0509
COMPOUND_NAME=Chiodectonic acid
ION_MODE=negative
FORMULA=C15H10O9
79.016953 546.0 
108.025246 889.535156 
133.036591 1484.384766 
149.02356 1737.0 
161.028854 1606.03125 
177.018631 4444.4375 
204.008667 2526.564453 
205.015945 5236.183594 
206.021652 5509.414062 
233.008011 6201.335938 
259.995239 4295.929688 
261.003357 7788.375 
287.990997 4016.865234 
288.997742 7413.5625 
293.029114 8399.085938 
347.003082 524.402832 
445.625793 20.0 
472.223022 22.0 
474.295807 24.0 
486.198669 23.0 
509.459229 78.0 
512.395386 42.0 
522.644958 25.0 
579.838074 23.0 
623.667969 20.0 
624.724854 42.0 
632.335571 20.0 
640.214355 28.0 
652.76355 23.0 
655.924866 45.0 
733.123657 87.0 
736.970093 25.0 
739.59436 42.0 
745.980713 62.0 
END IONS

BEGIN IONS
RTINSECONDS=14.583
CHARGE=1-
MSLEVEL=2
SMILES=C([C@H](C([C@@H](CO)O)O)O)O
INCHI=InChI=1S/C5H12O5/c6-1-3(8)5(10)4(9)2-7/h3-10H,1-2H2/t3-,4-/m1/s1
INCHIKEY=HEBKCHPVOIAQTA-QWWZWVQMSA-N
CLASS="Polyols, Monosaccharides, Carbohydrates"
ADDUCT=[M-H]-
INSTRUMENT=Waters Q-ToF Xevo G2-XS
PRECURSOR_MZ=151.0606
COMPOUND_NAME=Arabitol
ION_MODE=negative
FORMULA=C5H12O5
59.01754 2436.556641 
71.018188 16894.734375 
85.031715 3395.78125 
89.027794 38883.71875 
101.026711 33820.8125 
119.035919 8921.109375 
131.036453 4434.378906 
181.070129 188.0 
205.443634 90.0 
217.041473 97.671265 
240.201477 79.0 
249.980911 92.0 
254.677353 80.0 
255.540695 74.0 
278.491058 64.0 
281.062592 64.0 
311.111481 89.0 
327.083496 62.0 
356.040802 535.799805 
357.035675 147.0 
383.550323 76.0 
386.053467 69.0 
387.112488 70.0 
423.672028 129.0 
443.096863 62.0 
470.986389 64.0 
479.205505 75.0 
496.090088 56.0 
523.984619 74.0 
550.862854 63.0 
576.720886 58.0 
583.038635 55.0 
596.018372 78.0 
631.861267 67.0 
651.852539 68.0 
660.921692 100.0 
668.682373 62.0 
668.911316 69.0 
675.290955 75.0 
684.108948 59.0 
732.813477 53.0 
745.041382 171.0 
745.774841 134.0 
771.826477 104.0 
776.859741 56.0 
792.205627 94.0 
797.929382 93.0 
END IONS

BEGIN IONS
RTINSECONDS=155.953003
CHARGE=1-
MSLEVEL=2
SMILES=O=C1O/C(=C(/C(=O)N[C@H](C(=O)O)Cc2ccccc2)\c2ccccc2)/C(=C1c1ccccc1)O
INCHI=InChI=1S/C27H21NO6/c29-23-21(18-12-6-2-7-13-18)27(33)34-24(23)22(19-14-8-3-9-15-19)25(30)28-20(26(31)32)16-17-10-4-1-5-11-17/h1-15,20,29H,16H2,(H,28,30)(H,31,32)/b24-22+/t20-/m0/s1
INCHIKEY=XTLHEUFWRQKNNG-YVURAWIMSA-N
CLASS=Pulvinic Acid Derivatives
ADDUCT=[M-2H+Na]-
INSTRUMENT=Waters Q-ToF Xevo G2-XS
PRECURSOR_MZ=476.111
COMPOUND_NAME=Norrhizocarpic acid
ION_MODE=negative
FORMULA=C27H21NO6
65.995438 70.0 
91.054092 142.733032 
101.037735 956.872559 
101.499306 168.0 
116.938683 152.0 
117.036781 5187.351562 
118.064697 345.708984 
150.030777 189.439209 
168.043335 106.0 
191.08519 1221.224609 
203.084015 1169.068359 
234.065094 2036.005859 
247.072144 1526.945312 
262.064606 1073.780273 
263.070007 27737.15625 
285.056427 1837.898438 
296.068512 1491.62207 
338.127472 303.73999 
340.055908 1036.097656 
349.124634 224.230957 
361.124847 199.0 
388.12973 629.235352 
405.107086 156.0 
458.09787 715.662598 
532.928955 28.0 
551.190735 40.0 
583.55481 22.0 
615.162109 48.0 
653.396912 20.0 
661.704285 44.0 
703.536011 29.0 
757.511108 26.0 
767.986694 30.0 
END IONS

BEGIN IONS
RTINSECONDS=98.195999
CHARGE=1-
MSLEVEL=2
SMILES=CC(=O)c1c(c2c(o1)cc1c(c2O)C(=O)C(=O)C(=C1O)OC)O
INCHI=InChI=1S/C15H10O8/c1-4(16)14-12(20)8-6(23-14)3-5-7(10(8)18)11(19)13(21)15(22-2)9(5)17/h3,17-18,20H,1-2H3
INCHIKEY=XKWWCTISHMFHJB-UHFFFAOYSA-N
CLASS=Quinones
ADDUCT=[M-2H+K]-
INSTRUMENT=Waters Q-ToF Xevo G2-XS
PRECURSOR_MZ=354.9856
COMPOUND_NAME=Rhodocladonic acid
ION_MODE=negative
FORMULA=C15H10O8
65.001328 96.668518 
89.004456 319.0 
91.01683 441.734619 
119.011589 345.840088 
132.992966 432.0 
135.010498 336.070068 
160.987183 368.718018 
188.982681 1051.152344 
190.99852 931.09375 
216.976257 1073.225586 
218.991653 4392.84375 
244.974976 1381.925781 
276.999481 9578.054688 
277.07132 897.602539 
279.014771 1294.859375 
304.99231 631.841309 
323.005951 685.654297 
337.018433 5511.824219 
337.091492 445.711426 
505.170685 20.0 
506.418915 38.0 
522.409119 20.0 
524.799377 32.0 
593.707275 33.0 
END IONS

BEGIN IONS
RTINSECONDS=202.841003
CHARGE=1-
MSLEVEL=2
SMILES=O=C1Oc2c(c(CCCCC)c(C(=O)O)c(O)c2)Oc2c1c(cc(c2)OC)CCCCC
INCHI=InChI=1S/C25H30O7/c1-4-6-8-10-15-12-16(30-3)13-19-21(15)25(29)32-20-14-18(26)22(24(27)28)17(23(20)31-19)11-9-7-5-2/h12-14,26H,4-11H2,1-3H3,(H,27,28)
INCHIKEY=RWVJYKHAFMWADK-UHFFFAOYSA-N
CLASS=Depsidones
ADDUCT=[M-H+CH3OH]-
INSTRUMENT=Waters Q-ToF Xevo G2-XS
PRECURSOR_MZ=473.2175
COMPOUND_NAME=Colensoic acid
ION_MODE=negative
FORMULA=C25H30O7
55.557682 148.0 
122.035904 1578.654297 
133.101624 32058.71875 
137.023514 3134.193359 
138.030609 2040.007812 
165.092896 5393.300781 
179.107605 4405.257812 
194.095856 9128.429688 
205.085464 2647.626953 
218.093811 2831.033203 
267.101685 12084.609375 
281.116974 12720.984375 
282.125061 11714.007812 
294.125031 11925.171875 
295.13385 59872.03125 
338.187927 35064.78125 
353.211792 63694.59375 
355.192505 6753.121094 
397.202332 63525.34375 
441.189728 3492.574219 
455.175385 1901.890625 
499.198151 1514.172852 
541.204956 837.146484 
542.211304 537.15625 
573.132202 721.35498 
573.161926 529.45166 
575.13269 907.324707 
614.145081 515.0 
616.163269 307.0 
723.076111 373.977051 
723.113037 1500.847656 
723.149597 367.175537 
724.109985 363.916504 
724.130676 220.530273 
754.089661 230.0 
779.296326 142.755127 
781.465881 217.0 
END IONS

BEGIN IONS
RTINSECONDS=162.781006
CHARGE=1-
MSLEVEL=2
SMILES=CCCCCc1cc(cc(c1C(=O)Oc1c(cc(c(c1O)C(=O)O)CCCCC)O)OC)O
INCHI=InChI=1S/C25H32O8/c1-4-6-8-10-15-12-17(26)14-19(32-3)20(15)25(31)33-23-18(27)13-16(11-9-7-5-2)21(22(23)28)24(29)30/h12-14,26-28H,4-11H2,1-3H3,(H,29,30)
INCHIKEY=LPYVRTMCNJPGMF-UHFFFAOYSA-N
CLASS=Depsides (Didepsides)
ADDUCT=[M-H]-
INSTRUMENT=Waters Q-ToF Xevo G2-XS
PRECURSOR_MZ=459.2019
COMPOUND_NAME=Cryptochlorophaeic acid
ION_MODE=negative
FORMULA=C25H32O8
93.0383 20777.890625 
121.044022 21507.28125 
137.032471 22473.84375 
138.035583 297760.0 
149.094772 28359.609375 
177.092667 166768.0 
193.09111 388813.0 
195.10437 463505.25 
221.085297 1059582.0 
239.092087 1089424.0 
239.202927 101924.75 
295.13443 2473.3125 
301.110657 2117.332031 
337.17807 2784.865234 
365.174957 4610.863281 
397.2034 1929.104492 
409.164825 1130.914062 
527.185486 2291.810547 
542.119202 937.240723 
558.120789 2285.591797 
559.125854 8258.554688 
560.129028 3336.513672 
599.123657 2119.140625 
604.119934 1565.174805 
627.113037 591.615234 
672.104309 340.658936 
694.091187 297.046631 
706.043396 203.442993 
720.270874 229.851318 
751.189636 224.0 
788.215088 296.0 
797.001343 99.0 
799.057739 165.0 
END IONS

BEGIN IONS
RTINSECONDS=180.412994
CHARGE=1-
MSLEVEL=2
SMILES=CC(=O)CCCCCCCCCCCCC[C@@H]1C(C(C)C(=O)O1)C(=O)O
INCHI=InChI=1S/C21H36O5/c1-16(22)14-12-10-8-6-4-3-5-7-9-11-13-15-18-19(20(23)24)17(2)21(25)26-18/h17-19H,3-15H2,1-2H3,(H,23,24)/t17?,18-,19?/m1/s1
INCHIKEY=SPGPUDJMXMJNCU-JLAWEPINSA-N
CLASS=Paraconic acids
ADDUCT=[M-H+CH3OH]-
INSTRUMENT=Waters Q-ToF Xevo G2-XS
PRECURSOR_MZ=399.2747
COMPOUND_NAME=Dihydromuronic acid
ION_MODE=negative
FORMULA=C21H36O5
69.03373 1734.166016 
69.06749 197.0 
85.032249 912.124023 
98.000481 864.246582 
113.027351 29297.734375 
113.070877 835.0 
145.05481 1361.918945 
148.920319 226.0 
166.284546 153.0 
194.984055 123.0 
206.894852 102.0 
219.991486 105.0 
234.835693 161.0 
263.240173 991.428223 
279.269684 48830.3125 
279.33725 2206.167969 
280.272247 330.414307 
323.258026 17923.859375 
367.249542 121735.1875 
367.292572 1318.363281 
367.328613 4436.121094 
460.670227 89.0 
470.810913 28.0 
485.60495 45.0 
527.03595 38.0 
539.414246 79.0 
541.558838 41.0 
561.304138 39.0 
577.894348 67.0 
587.744568 36.0 
595.052063 26.0 
624.432922 20.0 
663.799683 34.0 
697.523926 37.0 
701.138184 24.0 
733.954041 25.0 
761.3797 24.0 
790.619629 49.0 
797.244812 36.0 
END IONS

BEGIN IONS
RTINSECONDS=176.835007
CHARGE=1-
MSLEVEL=2
SMILES=CC(CC)C(C(=O)NC(C(C)C)COC(=O)c1ccccc1)NC(=O)c1ccccc1
INCHI=InChI=1S/C25H32N2O4/c1-5-18(4)22(27-23(28)19-12-8-6-9-13-19)24(29)26-21(17(2)3)16-31-25(30)20-14-10-7-11-15-20/h6-15,17-18,21-22H,5,16H2,1-4H3,(H,26,29)(H,27,28)
INCHIKEY=CYKHBJCXJDXSPW-UHFFFAOYSA-N
CLASS=N-Containing Compounds
ADDUCT=[M-H]-
INSTRUMENT=Waters Q-ToF Xevo G2-XS
PRECURSOR_MZ=423.2284
COMPOUND_NAME=Isoarthonin
ION_MODE=negative
FORMULA=C25H32N2O4
53.830345 140.0 
55.65255 131.0 
77.042091 40044.28125 
121.035362 986157.0 
121.16243 11293.140625 
121.21814 29264.4375 
121.286568 16009.125 
121.828751 9542.421875 
185.071091 341.0979 
188.107132 313.822021 
199.851578 192.755371 
214.109604 1017.083984 
214.169525 164.0 
216.105057 275.002686 
271.181213 214.050049 
287.779419 198.0 
301.195862 6000.378906 
311.162781 188.0 
325.177612 198.920044 
337.202301 135.720215 
340.980621 219.35144 
459.205902 5025.269531 
469.234985 62560.21875 
470.241425 18315.796875 
523.154602 830.647949 
536.309692 808.0 
541.256958 339.798096 
568.167175 230.0 
586.149414 188.034912 
614.157043 586.32959 
615.165344 140.0 
648.724976 130.0 
676.373474 98.0 
679.120911 127.0 
687.020691 89.0 
715.077881 115.0 
735.433838 57.0 
752.113098 61.0 
753.07019 49.0 
763.417603 90.0 
763.695068 62.0 
771.357849 48.0 
796.430908 45.0 
END IONS

BEGIN IONS
RTINSECONDS=163.134003
CHARGE=1-
MSLEVEL=2
SMILES=Cc1c2c(Oc3c(OC2=O)c(c(c(c3C)C(=O)O)O)COCC)c(C=O)c(O)c1
INCHI=InChI=1S/C20H18O9/c1-4-27-7-11-15(23)14(19(24)25)9(3)16-18(11)29-20(26)13-8(2)5-12(22)10(6-21)17(13)28-16/h5-6,22-23H,4,7H2,1-3H3,(H,24,25)
INCHIKEY=SPLUKWYWJOQKMJ-UHFFFAOYSA-N
CLASS=Depsidones
ADDUCT=[M-H]-
INSTRUMENT=Waters Q-ToF Xevo G2-XS
PRECURSOR_MZ=401.0873
COMPOUND_NAME=Cetraric acid
ION_MODE=negative
FORMULA=C20H18O9
69.001862 36536.5 
105.03875 14935.375 
133.032211 25582.09375 
151.043396 48375.59375 
213.055206 535921.5 
229.050415 752681.0 
239.07048 839172.0 
240.07637 310184.25 
267.066345 1116457.0 
268.072266 718223.0 
311.060883 587043.0 
312.062775 717163.5 
314.114777 494686.75 
447.131348 99866.4375 
501.015167 84191.0 
502.017548 29038.25 
503.017609 7213.945312 
517.374146 15599.335938 
547.053101 33067.75 
548.059204 10149.4375 
623.142517 20912.484375 
624.147034 7207.746094 
625.148865 963.984863 
669.182678 3413.541016 
670.17804 1195.458984 
681.976501 532.0 
743.129395 2763.914062 
744.124695 1020.625488 
755.120056 744.955566 
781.13269 2180.109375 
781.16449 795.108887 
782.14447 1139.0 
END IONS

BEGIN IONS
RTINSECONDS=179.317993
CHARGE=1-
MSLEVEL=2
SMILES=O=C1c2c(CC(=O)CCCCC)cc(O)cc2Oc2c(O1)cc(c(c2CCCCC)C(=O)O)O
INCHI=InChI=1S/C26H30O8/c1-3-5-7-9-16(27)11-15-12-17(28)13-20-22(15)26(32)34-21-14-19(29)23(25(30)31)18(24(21)33-20)10-8-6-4-2/h12-14,28-29H,3-11H2,1-2H3,(H,30,31)
INCHIKEY=KVTYWHGIZSCFLG-UHFFFAOYSA-N
CLASS=Depsidones
ADDUCT=[M-H]-
INSTRUMENT=Waters Q-ToF Xevo G2-XS
PRECURSOR_MZ=469.1862
COMPOUND_NAME=Physodic acid
ION_MODE=negative
FORMULA=C26H30O8
81.037109 2065.753906 
105.036667 10655.226562 
123.046906 16213.117188 
133.102921 44581.0 
134.102692 26500.09375 
149.028397 51570.125 
161.034225 30342.109375 
225.060059 47468.09375 
226.065598 127302.8125 
227.07103 86408.75 
247.097824 105036.5 
283.132843 318248.25 
284.13858 369325.5 
285.113312 147159.25 
286.117523 115017.1875 
324.13913 128905.0 
325.142395 325567.5 
381.207275 1039462.0 
382.2388 1020915.0 
383.185822 995448.5 
384.194061 953976.0 
425.197357 1473137.0 
426.208496 1471800.0 
451.179352 580283.0 
537.173279 7759.90625 
569.113525 32766.984375 
570.115845 9462.21875 
571.11554 4412.175781 
601.141846 3514.541016 
614.109863 3058.681641 
637.098022 1536.518555 
682.104065 518.806641 
753.108398 225.0 
769.069641 290.202148 
END IONS

BEGIN IONS
RTINSECONDS=129.0
CHARGE=1-
MSLEVEL=2
SMILES=O=C(C)O[C@@H]1[C@@H](O)[C@H](O)[C@@H](COC(=O)C)O[C@H]1Oc1cc2oc(C)cc(=O)c2c(O)c1C
INCHI=InChI=1S/C21H24O11/c1-8-5-12(24)16-14(29-8)6-13(9(2)17(16)25)31-21-20(30-11(4)23)19(27)18(26)15(32-21)7-28-10(3)22/h5-6,15,18-21,25-27H,7H2,1-4H3/t15-,18-,19+,20-,21-/m1/s1
INCHIKEY=AFCAWRFTSGVRQA-CMWLGVBASA-N
CLASS=Chromanes and Chromones
ADDUCT=[M-H]-
INSTRUMENT=Waters Q-ToF Xevo G2-XS
PRECURSOR_MZ=451.124
COMPOUND_NAME=Roccellin
ION_MODE=negative
FORMULA=C21H24O11
59.013973 1424.0 
79.025215 7677.0625 
83.01857 2731.558594 
119.046623 16414.046875 
135.018646 32421.34375 
163.009933 124274.875 
175.0439 93179.875 
203.034531 105850.375 
204.043625 1067374.0 
204.106171 105913.0 
205.050598 944708.0 
259.06073 9572.71875 
263.056702 7026.207031 
289.072449 6265.523438 
313.075439 1163.068359 
331.084991 4900.917969 
349.092316 1936.798828 
391.103058 19708.546875 
391.142487 771.458984 
391.196136 518.41748 
392.109253 1264.013672 
512.497009 219.0 
534.100464 148.0 
549.036377 161.0 
557.089539 157.0 
582.472168 72.0 
595.292175 67.0 
608.791626 237.0 
612.461304 83.0 
618.57251 67.0 
634.476746 83.0 
645.644287 61.0 
654.394897 74.0 
680.979065 60.0 
719.765076 65.0 
730.441711 73.0 
755.338379 210.0 
764.620728 75.0 
END IONS

BEGIN IONS
RTINSECONDS=123.750999
CHARGE=1-
MSLEVEL=2
SMILES=O=C1C=C(OC)C(=O)c2c1c(c1c(c2O)C[C@H](C)OC1=O)O
INCHI=InChI=1S/C15H12O7/c1-5-3-6-9(15(20)22-5)14(19)10-7(16)4-8(21-2)13(18)11(10)12(6)17/h4-5,17,19H,3H2,1-2H3/t5-/m0/s1
INCHIKEY=VZSFONBSZGFZNH-YFKPBYRVSA-N
CLASS=Quinones
ADDUCT=[M-H]-
INSTRUMENT=Waters Q-ToF Xevo G2-XS
PRECURSOR_MZ=303.0505
COMPOUND_NAME=Haemoventosine
ION_MODE=negative
FORMULA=C15H12O7
54.187851 126.0 
67.022797 177.0 
101.046051 813.035645 
117.03611 2788.476562 
145.028732 6937.097656 
157.031143 5489.613281 
173.026428 17612.984375 
188.048645 12113.601562 
201.021301 11131.039062 
216.043915 54343.3125 
231.066971 49371.8125 
244.036896 36601.28125 
259.059326 211874.875 
259.125488 10211.570312 
362.975616 53.0 
399.078461 33.0 
424.512207 62.0 
425.372162 37.0 
427.879822 35.0 
444.638763 52.0 
452.987396 34.0 
473.90921 47.0 
498.73819 29.0 
529.369385 21.0 
552.176636 24.0 
586.147522 45.0 
588.335938 27.0 
589.102783 34.0 
620.62561 26.0 
624.827332 19.0 
634.224121 35.0 
684.364563 30.0 
687.44635 23.0 
687.904175 19.0 
709.804016 101.0 
733.102539 21.0 
END IONS

BEGIN IONS
RTINSECONDS=198.908997
CHARGE=1-
MSLEVEL=2
SMILES=Oc1c(C(=O)O)c(CCC)cc(OC(=O)c2c(O)cc(OC)c(Cl)c2CCC)c1
INCHI=InChI=1S/C21H23ClO7/c1-4-6-11-8-12(9-14(23)17(11)20(25)26)29-21(27)18-13(7-5-2)19(22)16(28-3)10-15(18)24/h8-10,23-24H,4-7H2,1-3H3,(H,25,26)
INCHIKEY=OPCWRYYYOJWUDI-UHFFFAOYSA-N
CLASS=Depsides (Didepsides)
ADDUCT=[M-H]-
INSTRUMENT=Waters Q-ToF Xevo G2-XS
PRECURSOR_MZ=421.1054
COMPOUND_NAME=5-chlorodivaricatic acid
ION_MODE=negative
FORMULA=C21H23ClO7
91.023323 179504.375 
92.027489 63547.375 
109.069412 104881.8125 
133.069916 294235.25 
151.079712 542334.5 
152.082047 363414.5 
177.055725 912641.0 
178.063126 825157.0 
195.066132 711344.0 
196.071915 398149.25 
254.099365 20599.328125 
255.103775 16689.578125 
289.065979 27383.546875 
317.096619 33379.65625 
318.103516 145825.875 
319.108307 50139.40625 
333.130585 55848.0 
334.131439 94533.75 
519.038391 4539.632812 
521.036133 97478.625 
521.129883 4650.417969 
522.04248 32959.46875 
523.034119 40601.78125 
524.035706 12551.265625 
589.02179 649.260742 
639.164795 1506.0 
640.174377 737.537109 
641.167297 640.0 
670.099426 309.278076 
672.094421 322.736816 
724.026978 341.0 
732.740723 248.0 
740.603638 375.0 
741.668823 214.0 
761.243469 339.0 
793.683472 207.0 
795.800781 229.0 
END IONS

BEGIN IONS
RTINSECONDS=139.132004
CHARGE=1-
MSLEVEL=2
SMILES=O=C1c2c(C)cc(O)c(C=O)c2Oc2c(O1)c(c(cc2C(=O)O)OC)C
INCHI=InChI=1S/C18H14O8/c1-7-4-11(20)10(6-19)15-13(7)18(23)26-14-8(2)12(24-3)5-9(17(21)22)16(14)25-15/h4-6,20H,1-3H3,(H,21,22)
INCHIKEY=FUCWJKJZOHOLEO-UHFFFAOYSA-N
CLASS=Depsidones
ADDUCT=[M-H+CH3OH]-
INSTRUMENT=Waters Q-ToF Xevo G2-XS
PRECURSOR_MZ=389.0873
COMPOUND_NAME=Psoromic acid
ION_MODE=negative
FORMULA=C18H14O8
68.999573 465.034912 
105.033966 5460.773438 
107.013275 1386.0 
133.028915 1566.317383 
149.02597 10468.554688 
181.054962 7538.164062 
197.059509 7897.429688 
209.045441 47003.4375 
225.053543 9181.484375 
226.061203 11820.34375 
237.052948 4284.28125 
253.04985 4249.753906 
254.057388 8944.765625 
285.074768 4094.441406 
313.070007 9923.507812 
329.063507 2847.646484 
331.080658 20019.140625 
357.060211 138285.25 
357.139801 2926.333984 
456.971375 144.192627 
457.055115 273.0 
461.214478 166.727661 
489.006165 414.685059 
489.044006 184.90979 
518.014832 256.0 
519.027588 177.0 
528.983643 166.407959 
580.008789 382.184814 
589.01178 168.0 
601.992859 157.55835 
622.481689 133.0 
623.090454 111.0 
638.95166 163.0 
654.956848 95.0 
694.993713 134.0 
700.86676 91.0 
712.996704 92.0 
756.207703 372.0 
779.181519 1248.556641 
779.291016 152.0 
780.167419 410.306885 
780.198425 349.281494 
781.183167 223.33313 
END IONS

BEGIN IONS
RTINSECONDS=173.350998
CHARGE=1-
MSLEVEL=2
SMILES=Oc1cc(OC)cc(CCCCC)c1C(=O)O
INCHI=InChI=1S/C13H18O4/c1-3-4-5-6-9-7-10(17-2)8-11(14)12(9)13(15)16/h7-8,14H,3-6H2,1-2H3,(H,15,16)
INCHIKEY=JWSADSZPLGCVPA-UHFFFAOYSA-N
CLASS=Cleavage Products of Depsides and Depsidones
ADDUCT=[2M-2H+Na]-
INSTRUMENT=Waters Q-ToF Xevo G2-XS
PRECURSOR_MZ=497.2151
COMPOUND_NAME=4-O-methylolivetolcarboxylic acid
ION_MODE=negative
FORMULA=C13H18O4
122.035416 172113.75 
122.080147 13341.835938 
135.046036 14763.367188 
136.051712 11632.148438 
178.097946 273684.75 
178.153488 15428.992188 
193.121536 664360.0 
193.182098 49739.59375 
237.112274 1062682.0 
237.180267 91322.4375 
237.205856 52204.71875 
237.26709 47061.21875 
313.857361 333.0 
327.710724 184.0 
338.187225 570.200684 
356.789368 261.0 
375.441803 400.0 
385.241608 321.690918 
389.757721 247.0 
427.234406 523.75 
429.226715 744.476562 
585.724426 142.0 
593.588989 358.0 
599.692383 210.0 
625.400208 105.0 
643.931091 76.0 
682.574646 69.0 
695.887512 89.0 
710.697937 86.0 
714.127258 96.0 
720.311218 79.0 
744.340088 78.0 
767.568787 74.0 
774.442932 154.0 
795.296326 62.0 
END IONS

BEGIN IONS
RTINSECONDS=172.220993
CHARGE=1-
MSLEVEL=2
SMILES=Oc1cc(OC)cc(CCCCC)c1C(=O)O
INCHI=InChI=1S/C13H18O4/c1-3-4-5-6-9-7-10(17-2)8-11(14)12(9)13(15)16/h7-8,14H,3-6H2,1-2H3,(H,15,16)
INCHIKEY=JWSADSZPLGCVPA-UHFFFAOYSA-N
CLASS=Cleavage Products of Depsides and Depsidones
ADDUCT=[M-H]-
INSTRUMENT=Waters Q-ToF Xevo G2-XS
PRECURSOR_MZ=237.1127
COMPOUND_NAME=4-O-methylolivetolcarboxylic acid
ION_MODE=negative
FORMULA=C13H18O4
93.037529 191061.625 
122.049583 1452498.0 
123.041428 129980.6875 
135.050308 727705.0 
136.054367 381647.0 
149.063843 489194.5 
178.099091 338338.5 
193.12558 527195.0 
309.173004 832.748535 
311.169769 570.357422 
337.040955 643.124512 
338.041992 898.092773 
401.22821 1894.103516 
402.232513 495.0 
403.164673 263.0 
429.216675 497.773438 
497.212158 4389.574219 
498.215027 1101.950195 
500.201813 731.160156 
513.188721 1703.727539 
528.145447 2107.097656 
530.150085 1762.959961 
577.147461 399.062256 
592.169495 259.057861 
597.120056 183.0 
631.143494 163.0 
642.075684 243.0 
653.069336 146.0 
676.100708 164.0 
687.277527 135.0 
719.806396 183.0 
750.299561 232.349609 
757.326294 327.0 
771.266907 329.448486 
772.270935 313.0 
773.26355 229.0 
779.24707 375.458984 
END IONS

BEGIN IONS
RTINSECONDS=100.499001
CHARGE=1-
MSLEVEL=2
SMILES=Cc1cc(=O)c2c(o1)cc1c(c2O)C(=CC(=O)C1=O)O
INCHI=InChI=1S/C14H8O6/c1-5-2-7(15)12-10(20-5)3-6-11(14(12)19)8(16)4-9(17)13(6)18/h2-4,16,19H,1H3
INCHIKEY=NPUXQAACUNUHIX-UHFFFAOYSA-N
CLASS=Quinones
ADDUCT=[2M-2H+Na]-
INSTRUMENT=Waters Q-ToF Xevo G2-XS
PRECURSOR_MZ=565.0383
COMPOUND_NAME=Canarione
ION_MODE=negative
FORMULA=C14H8O6
99.883278 189.0 
114.912987 161.0 
115.017143 653.771973 
115.060593 221.0 
143.05159 473.091309 
171.042892 398.210449 
175.038895 729.469238 
199.03891 18697.5 
203.003174 1661.18457 
227.036224 6714.457031 
243.029877 107291.625 
271.024078 537434.5 
271.093811 33157.0625 
271.189941 11921.09375 
271.309052 4202.597656 
348.187653 140.0 
352.300873 192.0 
360.996674 186.0 
405.13385 95.0 
426.907867 151.0 
427.955444 87.0 
440.333984 100.0 
479.52536 129.0 
496.980896 109.0 
509.145935 152.670166 
634.324097 92.0 
660.227844 71.0 
679.255676 45.0 
682.930969 53.0 
734.414307 44.0 
750.53772 42.0 
762.203552 54.0 
772.836609 41.0 
779.661682 109.0 
786.344543 37.0 
798.140747 76.0 
END IONS

BEGIN IONS
RTINSECONDS=116.816002
CHARGE=1-
MSLEVEL=2
SMILES=O[C@H]1[C@H](O)[C@@H](O)[C@H](Oc2c(C)c3oc(C)cc(=O)c3c(O)c2C)O[C@@H]1COC(=O)C
INCHI=InChI=1S/C20H24O10/c1-7-5-11(22)13-14(23)8(2)18(9(3)19(13)28-7)30-20-17(26)16(25)15(24)12(29-20)6-27-10(4)21/h5,12,15-17,20,23-26H,6H2,1-4H3/t12-,15-,16+,17-,20+/m1/s1
INCHIKEY=NJRLDXGREKHXGV-IVABAYMNSA-N
CLASS=Chromanes and Chromones
ADDUCT=[M-H]-
INSTRUMENT=Waters Q-ToF Xevo G2-XS
PRECURSOR_MZ=423.1291
COMPOUND_NAME=Galapagin
ION_MODE=negative
FORMULA=C20H24O10
79.024498 5505.933594 
135.050308 11442.835938 
149.032349 40630.09375 
177.027115 109376.6875 
189.058243 57910.34375 
217.052475 87036.25 
218.059494 437516.5 
219.067825 381968.5 
261.079681 55818.125 
273.075256 1904.672852 
291.087769 5539.347656 
303.08783 945.403809 
345.101593 613.407227 
357.118011 299.0 
363.108215 2052.814453 
483.881714 134.0 
521.900269 104.0 
529.234375 204.0 
558.657654 100.0 
577.093811 91.0 
611.546021 112.0 
612.000793 93.0 
626.580444 114.0 
631.711731 115.0 
668.10675 71.0 
683.328369 62.0 
693.152588 87.0 
702.126526 56.0 
712.855774 56.0 
750.487183 57.0 
END IONS

BEGIN IONS
RTINSECONDS=189.764999
CHARGE=1-
MSLEVEL=2
SMILES=Oc1c2c(oc3c(c(C)cc(OC)c3)c2=O)c(Cl)c(O)c1Cl
INCHI=InChI=1S/C15H10Cl2O5/c1-5-3-6(21-2)4-7-8(5)12(18)9-13(19)10(16)14(20)11(17)15(9)22-7/h3-4,19-20H,1-2H3
INCHIKEY=PCGGYLLGIFFWCT-UHFFFAOYSA-N
CLASS=Xanthones and bis-Xanthones
ADDUCT=[M-H]-
INSTRUMENT=Waters Q-ToF Xevo G2-XS
PRECURSOR_MZ=338.9827
COMPOUND_NAME=Thiophaninic acid
ION_MODE=negative
FORMULA=C15H10Cl2O5
50.22617 196.0 
75.997124 1259.415039 
82.971939 3019.511719 
103.994286 10130.390625 
106.045586 15447.625 
112.032463 4919.558594 
140.028534 58558.375 
162.937866 75548.125 
168.024124 76702.125 
175.99295 37452.5 
196.019241 38870.4375 
204.001495 328232.0 
231.994568 297242.0 
259.988831 171449.5 
266.964233 69917.625 
280.94223 127740.0625 
294.95697 355794.0 
295.964905 438743.0 
406.972626 260.927246 
438.909851 10405.0 
439.91095 2765.908203 
440.907227 6905.328125 
442.906586 728.36377 
506.898895 876.639648 
508.897705 369.575195 
510.887146 220.0 
560.831848 89.0 
600.79071 72.0 
620.691895 61.0 
637.158813 103.0 
644.082764 78.0 
700.95697 13588.421875 
701.965881 2576.330078 
702.958679 18180.359375 
703.959229 4885.996094 
704.954956 9785.8125 
706.950073 1878.890625 
763.896545 1838.917969 
789.899902 191.0 
790.887817 227.11499 
END IONS

BEGIN IONS
RTINSECONDS=186.455002
CHARGE=1-
MSLEVEL=2
SMILES=O=C(Oc1c(O)cc(CCCCC)c(C(=O)O)c1O)c1c(CCC)cc(OC)cc1OC
INCHI=InChI=1S/C24H30O8/c1-5-7-8-10-15-12-17(25)22(21(26)20(15)23(27)28)32-24(29)19-14(9-6-2)11-16(30-3)13-18(19)31-4/h11-13,25-26H,5-10H2,1-4H3,(H,27,28)
INCHIKEY=AAKHGLJWUOZNTQ-UHFFFAOYSA-N
CLASS=Depsides (Didepsides)
ADDUCT=[M-H]-
INSTRUMENT=Waters Q-ToF Xevo G2-XS
PRECURSOR_MZ=445.1862
COMPOUND_NAME=Merochlorophaeic acid
ION_MODE=negative
FORMULA=C24H30O8
93.040421 256626.0 
137.038666 885887.0 
138.035431 227043.625 
138.062897 1365492.0 
139.014847 218671.625 
194.11116 1074660.0 
195.10289 1180060.0 
195.152771 1592348.0 
196.107162 1033183.0 
221.084229 265311.25 
263.095642 222093.125 
300.105072 60084.125 
311.122589 77994.5 
315.126678 95044.8125 
351.161987 155958.75 
369.174164 73874.3125 
383.189972 168572.625 
428.179077 774047.0 
513.17572 5393.53125 
543.118591 3462.777344 
545.117798 73655.1875 
546.122986 27494.5 
547.115479 7279.039062 
590.11084 3766.248047 
613.101685 1881.438477 
621.267578 6181.800781 
622.269104 1643.490234 
680.066711 310.953369 
699.046875 473.948975 
722.076721 366.777344 
755.088196 237.514526 
771.070923 241.0 
773.095886 210.0 
787.993591 226.0 
793.030945 220.0 
END IONS

BEGIN IONS
RTINSECONDS=215.442993
CHARGE=1-
MSLEVEL=2
SMILES=O=C1c2c(CCCCC)cc(OC)c(OC)c2Oc2c(O1)cc(c(c2CCCCC)C(=O)O)O
INCHI=InChI=1S/C26H32O8/c1-5-7-9-11-15-13-18(31-3)23(32-4)24-20(15)26(30)33-19-14-17(27)21(25(28)29)16(22(19)34-24)12-10-8-6-2/h13-14,27H,5-12H2,1-4H3,(H,28,29)
INCHIKEY=GHBZVNHEVHMKOB-UHFFFAOYSA-N
CLASS=Depsidones
ADDUCT=[M-H]-
INSTRUMENT=Waters Q-ToF Xevo G2-XS
PRECURSOR_MZ=471.2019
COMPOUND_NAME=3-Methoxycolensoic acid
ION_MODE=negative
FORMULA=C26H32O8
83.019028 16342.828125 
133.111984 1010603.0 
133.313782 29634.78125 
134.053925 118380.5625 
134.105469 30627.09375 
177.041473 87340.3125 
193.088196 75457.625 
209.122559 117172.5 
220.079269 145561.375 
235.10466 189069.25 
297.127747 303813.25 
309.113861 585751.0 
310.127594 929849.0 
325.154022 1213495.0 
353.179596 1540531.0 
368.202271 1186949.0 
383.226624 1572487.0 
385.207062 1243562.0 
427.217163 1496990.0 
428.222717 964823.0 
453.198395 318375.0 
539.193481 6533.921875 
569.139038 4725.785156 
571.135254 104430.0 
571.236938 4792.882812 
572.136963 43552.15625 
573.137024 12690.945312 
639.119263 4769.738281 
640.119202 1556.410156 
641.121521 1182.958008 
722.125366 960.274902 
723.12085 3138.800781 
723.167114 304.005615 
724.126648 1412.545898 
725.137268 470.0 
789.050049 266.0 
793.17627 212.0 
795.759094 212.0 
END IONS

BEGIN IONS
RTINSECONDS=191.927994
CHARGE=1-
MSLEVEL=2
SMILES=CC1=C(C(=O)O)[C@@H](CCCCCCCCCCCCC(C)CO)OC1=O
INCHI=InChI=1S/C21H36O5/c1-16(15-22)13-11-9-7-5-3-4-6-8-10-12-14-18-19(20(23)24)17(2)21(25)26-18/h16,18,22H,3-15H2,1-2H3,(H,23,24)/t16?,18-/m1/s1
INCHIKEY=FEGXSCTZZUZMJG-UHUGOGIASA-N
CLASS=Paraconic acids
ADDUCT=[2M-H]-
INSTRUMENT=Waters Q-ToF Xevo G2-XS
PRECURSOR_MZ=735.5047
COMPOUND_NAME=Isomurolic acid
ION_MODE=negative
FORMULA=C21H36O5
59.735943 27.0 
86.717819 40.0 
93.04422 59.0 
103.937561 44.0 
113.027306 81.676514 
130.976776 95.0 
148.943436 62.0 
188.426636 69.0 
222.331009 153.0 
227.372681 85.0 
235.244507 152.0 
263.24115 145.0 
279.268036 22508.796875 
279.302826 152.469604 
279.334717 580.749023 
323.258087 9534.140625 
367.24826 200370.0 
367.289154 983.591797 
367.330139 6076.738281 
419.799622 73.0 
426.161102 59.0 
434.314575 56.0 
475.17688 56.0 
481.425262 59.0 
496.121948 64.0 
509.161194 61.0 
515.174988 352.0 
550.3974 91.0 
565.123535 65.0 
585.096619 69.0 
622.221741 57.0 
643.046997 63.0 
651.121216 81.192383 
651.148071 98.0 
667.142212 108.0 
757.486938 4506.9375 
757.554016 359.0 
END IONS

BEGIN IONS
RTINSECONDS=107.632004
CHARGE=1-
MSLEVEL=2
SMILES=COc1cc(c2c(c1)C(=O)c1cc(cc(c1C2=O)O)CO)O
INCHI=InChI=1S/C16H12O6/c1-22-8-4-10-14(12(19)5-8)16(21)13-9(15(10)20)2-7(6-17)3-11(13)18/h2-5,17-19H,6H2,1H3
INCHIKEY=WJXSYUJKJSOJOG-UHFFFAOYSA-N
CLASS=Quinones
ADDUCT=[M-H]-
INSTRUMENT=Waters Q-ToF Xevo G2-XS
PRECURSOR_MZ=299.0556
COMPOUND_NAME=Fallacinol (Teloschistin)
ION_MODE=negative
FORMULA=C16H12O6
53.558628 157.0 
91.021515 764.987793 
183.047424 32244.25 
199.042923 35320.75 
211.04248 122031.0 
226.030121 72296.8125 
227.038727 85889.0625 
239.035538 100271.1875 
255.033417 157832.875 
256.041992 785016.0 
367.040649 505.421143 
380.966644 996.195312 
398.983887 2232.957031 
399.974152 513.0 
400.983856 285.352295 
435.033386 648.250977 
461.035858 541.0 
489.980957 358.045654 
490.987885 157.923828 
511.964478 226.0 
597.102539 233.180786 
598.114807 242.849609 
604.983276 130.0 
605.134521 193.884033 
621.115723 646.558105 
667.0979 1169.417969 
668.104675 624.0 
683.058167 923.07666 
701.06311 958.729004 
720.024048 1498.929688 
721.034912 541.090332 
744.043762 638.0 
774.013184 249.273315 
788.02179 175.807251 
797.979858 181.415894 
END IONS

BEGIN IONS
RTINSECONDS=208.798996
CHARGE=1-
MSLEVEL=2
SMILES=CCCCCCCCCCCCCC[C@H](C(=O)O)[C@H](C(=O)O)CC(=O)O
INCHI=InChI=1S/C20H36O6/c1-2-3-4-5-6-7-8-9-10-11-12-13-14-16(19(23)24)17(20(25)26)15-18(21)22/h16-17H,2-15H2,1H3,(H,21,22)(H,23,24)(H,25,26)/t16-,17+/m0/s1
INCHIKEY=YBZIIVKQVVKTTD-DLBZAZTESA-N
CLASS=Acids
ADDUCT=[M-H]-
INSTRUMENT=Waters Q-ToF Xevo G2-XS
PRECURSOR_MZ=371.2434
COMPOUND_NAME=Norrangiformic acid
ION_MODE=negative
FORMULA=C20H36O6
71.024704 24846.296875 
72.030228 2878.466797 
83.053223 10963.890625 
115.006989 56627.78125 
116.00856 3432.375 
124.019882 15656.96875 
125.023582 6102.496094 
265.254578 1466107.0 
266.26181 1006972.0 
266.29541 1179825.0 
283.270203 700211.0 
293.213867 1067439.0 
309.245636 1166133.0 
353.245575 1228928.0 
353.278473 1517231.0 
453.163544 2090.771484 
471.174133 42872.9375 
471.263519 2117.275391 
472.175598 13595.625 
473.173035 3300.679688 
497.08017 2987.078125 
565.132202 291.0 
571.106384 317.364746 
593.08313 289.0 
603.219482 271.751709 
631.120789 220.22937 
670.526184 223.193115 
683.180481 261.474365 
685.425598 213.0 
697.453491 204.0 
713.442993 802.737305 
765.481262 66501.0 
766.484741 28213.265625 
767.479736 10204.15625 
781.453735 5465.746094 
787.462158 8451.34375 
788.468872 3827.837891 
END IONS

BEGIN IONS
RTINSECONDS=165.423004
CHARGE=1-
MSLEVEL=2
SMILES=Cc1cc(c2c(c1)C(=O)C13C4C5C(C1C(=O)C1=C(c6c(cc(cc6C(=O)C51C(C4O)C(=O)C3=C2O)C)O)O)O)O
INCHI=InChI=1S/C30H22O10/c1-7-3-9-13(11(31)5-7)21(33)17-25(37)20-23(35)15-16-24(36)19(29(15,17)27(9)39)26(38)18-22(34)14-10(28(40)30(16,18)20)4-8(2)6-12(14)32/h3-6,15-16,19-20,23-24,31-36H,1-2H3
INCHIKEY=QFDPVUTXKUGISP-UHFFFAOYSA-N
CLASS=Quinones
ADDUCT=[M-2H+Na]-
INSTRUMENT=Waters Q-ToF Xevo G2-XS
PRECURSOR_MZ=563.0954
COMPOUND_NAME=Rugulosin
ION_MODE=negative
FORMULA=C30H22O10
60.51667 49.0 
69.051468 57.0 
83.00795 65.0 
99.489632 86.0 
109.970215 74.0 
201.054214 6349.398438 
225.054825 24165.640625 
253.050293 36049.9375 
269.045197 233368.875 
270.053101 58693.875 
271.060944 101576.9375 
291.027405 52094.0 
457.069 6727.820312 
459.08786 896.168457 
475.084503 1836.584961 
483.083008 2218.525391 
493.089447 5086.230469 
519.107239 5539.621094 
630.646362 88.0 
631.095703 88.0 
641.042969 130.0 
649.343994 77.0 
658.186523 201.0 
662.170349 107.0 
697.749084 65.0 
724.000305 87.0 
737.939087 51.0 
738.679749 50.0 
742.049866 53.0 
779.226868 43.0 
798.885071 49.0 
END IONS

BEGIN IONS
RTINSECONDS=184.162994
CHARGE=1-
MSLEVEL=2
SMILES=O=C1c2c(CC(=O)CCCCC)cc(OC)c(O)c2Oc2c(O1)cc(c(c2CCCCC)C(=O)O)O
INCHI=InChI=1S/C27H32O9/c1-4-6-8-10-16(28)12-15-13-19(34-3)23(30)25-21(15)27(33)35-20-14-18(29)22(26(31)32)17(24(20)36-25)11-9-7-5-2/h13-14,29-30H,4-12H2,1-3H3,(H,31,32)
INCHIKEY=YFNNJORBJZUGCV-UHFFFAOYSA-N
CLASS=Depsidones
ADDUCT=[M-H]-
INSTRUMENT=Waters Q-ToF Xevo G2-XS
PRECURSOR_MZ=499.1968
COMPOUND_NAME=Lividic acid
ION_MODE=negative
FORMULA=C27H32O9
81.042397 3749.240234 
122.039078 15205.453125 
135.10733 20400.171875 
136.021729 30031.953125 
137.082779 33610.875 
150.094376 19521.1875 
179.109833 308546.25 
180.111008 63959.90625 
241.064896 69540.0 
249.114929 339965.75 
250.116379 151749.125 
275.09491 120262.625 
276.100769 132991.125 
297.114441 461074.5 
327.089844 179752.25 
341.109009 132817.5 
342.113831 164888.5 
343.118195 174238.125 
353.144257 148640.75 
396.194611 685871.5 
397.19809 306976.25 
412.221741 736581.0 
414.20108 291765.75 
456.212341 805035.5 
560.180664 4676.679688 
597.130737 3616.181641 
599.126282 83449.4375 
600.128418 33155.40625 
601.127991 9464.0 
644.122437 4865.21875 
667.107727 888.556152 
669.110107 589.543945 
705.091797 322.987061 
713.134338 280.0 
759.301575 247.066772 
765.3526 242.900513 
765.375793 218.099487 
781.093872 171.0 
791.422913 167.0 
END IONS

BEGIN IONS
RTINSECONDS=166.255005
CHARGE=1-
MSLEVEL=2
SMILES=Cc1c(c(O)cc(O)c1)C(=O)Oc1cc(O)c(C(=O)Oc2cc(O)c(C(=O)O)c(C)c2)c(C)c1
INCHI=InChI=1S/C24H20O10/c1-10-4-13(25)7-16(26)20(10)23(31)34-15-6-12(3)21(18(28)9-15)24(32)33-14-5-11(2)19(22(29)30)17(27)8-14/h4-9,25-28H,1-3H3,(H,29,30)
INCHIKEY=ATQPZSQVWCPVGV-UHFFFAOYSA-N
CLASS=Depsides (Tridepsides)
ADDUCT=[M-H]-
INSTRUMENT=Waters Q-ToF Xevo G2-XS
PRECURSOR_MZ=467.0978
COMPOUND_NAME=Gyrophoric acid
ION_MODE=negative
FORMULA=C24H20O10
79.059273 26764.09375 
81.039085 28909.125 
105.037476 93854.1875 
123.049309 450301.25 
149.026489 318964.75 
167.034943 1339932.0 
167.155609 238734.75 
168.031967 375088.5 
229.090622 3382.972656 
230.0896 1303.114258 
255.069443 27476.78125 
256.072205 4167.695312 
317.066254 705580.0 
317.161591 33009.21875 
317.185669 44415.25 
318.08075 679821.5 
318.393524 12831.882812 
416.986847 312.346436 
550.021057 672.0 
551.029663 276.0 
566.016235 1835.391602 
567.023071 2137.933594 
568.018433 605.523926 
569.028809 340.0 
607.008728 441.817627 
622.955933 196.0 
635.007874 963.567871 
636.020752 262.406982 
682.940796 157.0 
713.942993 135.0 
715.9328 128.932373 
718.059753 132.0 
719.052856 111.0 
769.015381 97.0 
786.963196 98.0 
794.943298 94.0 
798.979065 70.0 
END IONS

BEGIN IONS
RTINSECONDS=194.194
CHARGE=1-
MSLEVEL=2
SMILES=O=C(OC)/C(=C\1/OC(=O)C(=C1O)c1ccccc1)/c1c(OC)cccc1
INCHI=InChI=1S/C20H16O6/c1-24-14-11-7-6-10-13(14)16(19(22)25-2)18-17(21)15(20(23)26-18)12-8-4-3-5-9-12/h3-11,21H,1-2H3/b18-16+
INCHIKEY=IWYVMUDIEOXASM-FBMGVBCBSA-N
CLASS=Pulvinic Acid Derivatives
ADDUCT=[2M-2H+Na]-
INSTRUMENT=Waters Q-ToF Xevo G2-XS
PRECURSOR_MZ=725.1635
COMPOUND_NAME=Leprapinic acid
ION_MODE=negative
FORMULA=C20H16O6
75.00869 255.0 
80.332794 169.0 
101.041008 8843.148438 
117.036102 7561.050781 
132.019485 1387.186523 
146.036453 2215.166016 
147.051254 5621.1875 
160.015762 2161.0 
191.037231 19659.203125 
217.069519 13932.773438 
231.084641 56648.28125 
233.064972 38078.8125 
264.079376 116693.0 
279.102081 321132.0 
291.066498 56938.15625 
292.074768 147989.125 
307.097168 120754.875 
351.088593 1381705.0 
351.1716 157460.875 
351.276154 94117.1875 
351.377167 44998.4375 
352.348358 41957.1875 
406.832336 168.0 
409.129517 161.0 
469.952362 219.0 
472.071167 224.0 
485.522552 155.0 
489.931 196.0 
507.943665 182.0 
531.003113 181.0 
547.253845 204.0 
563.927917 132.0 
584.20343 158.0 
600.990845 114.0 
604.656738 201.0 
607.54187 118.0 
650.550659 110.0 
651.648682 213.0 
782.413574 181.0 
790.876221 173.0 
798.373352 95.0 
END IONS

BEGIN IONS
RTINSECONDS=141.102005
CHARGE=1-
MSLEVEL=2
SMILES=CCCCCc1cc(cc(c1C(=O)O)O)O
INCHI=InChI=1S/C12H16O4/c1-2-3-4-5-8-6-9(13)7-10(14)11(8)12(15)16/h6-7,13-14H,2-5H2,1H3,(H,15,16)
INCHIKEY=SXFKFRRXJUJGSS-UHFFFAOYSA-N
CLASS=Cleavage Products of Depsides and Depsidones
ADDUCT=[2M-2H+Na]-
INSTRUMENT=Waters Q-ToF Xevo G2-XS
PRECURSOR_MZ=469.1838
COMPOUND_NAME=Olivetolcarboxylic acid
ION_MODE=negative
FORMULA=C12H16O4
79.053955 788.645508 
81.039246 6237.71875 
122.039848 4894.351562 
135.116058 37949.78125 
137.096024 62272.5625 
179.106506 413869.5 
179.16391 24965.5625 
223.096954 764680.5 
223.162476 50577.0625 
223.247314 22508.4375 
223.366547 13524.015625 
279.038055 171.149902 
282.119812 184.0 
289.634186 173.0 
305.192017 174.0 
312.998627 159.0 
323.954285 224.0 
350.716675 148.0 
399.204742 404.892334 
401.066711 132.0 
413.066589 163.327393 
533.187927 99.0 
568.881592 70.0 
595.631226 63.0 
614.78894 45.0 
616.411377 55.0 
619.100403 51.0 
634.446228 51.0 
641.541748 51.0 
666.341125 57.0 
670.909607 99.0 
675.666199 64.0 
693.375427 38.0 
717.205505 39.0 
718.795166 35.0 
733.281433 57.0 
738.745789 64.0 
778.711731 46.0 
782.365173 42.0 
788.704468 100.0 
END IONS

BEGIN IONS
RTINSECONDS=136.830002
CHARGE=1-
MSLEVEL=2
SMILES=Cc1cc(=O)c2c(o1)c(c(c(c2O)C)O)Cl
INCHI=InChI=1S/C11H9ClO4/c1-4-3-6(13)7-9(14)5(2)10(15)8(12)11(7)16-4/h3,14-15H,1-2H3
INCHIKEY=OFIWISPGMYFUGQ-UHFFFAOYSA-N
CLASS=Chromanes and Chromones
ADDUCT=[M-H]-
INSTRUMENT=Waters Q-ToF Xevo G2-XS
PRECURSOR_MZ=239.0111
COMPOUND_NAME=Rupicolin (sordidone)
ION_MODE=negative
FORMULA=C11H9ClO4
63.029858 8295.226562 
65.007645 6922.359375 
83.018082 172260.625 
119.022263 24881.75 
135.035294 8069.320312 
147.048737 52251.75 
163.008667 7552.542969 
175.043198 132301.25 
203.038589 45925.65625 
306.999054 134.741821 
323.992065 117.970276 
368.945496 137.0 
383.970581 261.403809 
401.94101 343.547852 
419.917969 319.0 
421.908905 345.736572 
429.936951 1134.412109 
431.936554 306.244385 
480.04538 252.0 
501.013306 244.379883 
519.000244 150.0 
533.94873 317.279785 
554.103455 251.0 
578.948975 360.156738 
613.922424 886.756348 
615.917603 620.194824 
623.954712 3042.882812 
624.968872 516.709473 
625.953552 2220.0 
673.934448 514.0 
674.447876 199.0 
691.94989 110.0 
771.966003 307.0 
773.960815 207.637939 
775.970032 502.372314 
780.60675 124.0 
789.974731 141.0 
792.03949 133.0 
END IONS

BEGIN IONS
RTINSECONDS=152.695999
CHARGE=1-
MSLEVEL=2
SMILES=O=C1c2c(C)cc(OC)c(C)c2Oc2c(O1)cc(c(c2C)C(=O)O)O
INCHI=InChI=1S/C18H16O7/c1-7-5-11(23-4)8(2)16-13(7)18(22)24-12-6-10(19)14(17(20)21)9(3)15(12)25-16/h5-6,19H,1-4H3,(H,20,21)
INCHIKEY=IXEVSIMCIWOSQO-UHFFFAOYSA-N
CLASS=Depsidones
ADDUCT=[M-H+HCOOH]-
INSTRUMENT=Waters Q-ToF Xevo G2-XS
PRECURSOR_MZ=389.0873
COMPOUND_NAME=Notatic acid
ION_MODE=negative
FORMULA=C18H16O7
50.412876 99.0 
78.048134 147.0 
109.028259 692.461426 
120.057137 324.0 
136.053116 996.538574 
137.025742 1547.375977 
138.034058 4500.367188 
173.059601 3877.865234 
197.064011 22620.5625 
211.076004 10739.828125 
240.080307 51394.90625 
242.057938 5889.46875 
255.103836 20664.125 
257.080872 9165.1875 
299.092285 19849.3125 
325.069916 1059.523438 
343.081573 33357.75 
343.161194 1704.788086 
447.934174 369.0 
457.114227 287.0 
479.089508 175.0 
489.054626 184.936035 
520.115845 199.0 
534.039368 308.0 
553.46698 169.0 
558.842102 201.0 
577.249878 226.0 
584.022522 181.0 
585.11969 111.0 
627.962646 107.0 
639.75 130.0 
650.984192 145.635498 
682.133545 79.0 
685.180664 87.0 
693.017822 85.0 
725.062744 99.0 
729.772156 71.0 
738.71814 70.0 
771.30957 75.0 
780.582153 59.0 
784.403931 74.0 
789.920776 69.0 
792.506958 67.0 
END IONS

BEGIN IONS
RTINSECONDS=193.225006
CHARGE=1-
MSLEVEL=2
SMILES=CCCCCCCCCC[C@H]1C[C@H]([C@@H](C(=O)O1)C)C(=O)O
INCHI=InChI=1S/C17H30O4/c1-3-4-5-6-7-8-9-10-11-14-12-15(16(18)19)13(2)17(20)21-14/h13-15H,3-12H2,1-2H3,(H,18,19)/t13-,14-,15+/m0/s1
INCHIKEY=SRMPRRDLILJEAW-SOUVJXGZSA-N
CLASS=Acids
ADDUCT=[M-H+CH3OH]-
INSTRUMENT=Waters Q-ToF Xevo G2-XS
PRECURSOR_MZ=329.2328
COMPOUND_NAME=Acaranoic acid
ION_MODE=negative
FORMULA=C17H30O4
73.033463 935.0 
83.054474 2282.638672 
84.057755 822.886719 
85.033836 4565.832031 
86.035881 1162.535156 
113.058395 809.861328 
168.147476 1122.685547 
169.161362 2920.099609 
170.166199 4236.832031 
183.177521 11467.53125 
184.178665 22084.921875 
184.229233 1099.164062 
236.214935 2854.375 
253.21814 23555.59375 
254.220032 209348.625 
297.206879 326856.0 
298.211029 957249.0 
298.287109 68493.4375 
395.201111 942.342285 
397.221252 2420.541016 
412.160309 738.25 
429.159241 6138.285156 
430.164215 1042.349609 
469.153809 1013.973145 
497.143402 1025.099609 
498.149902 378.0 
531.1828 146.0 
535.15741 142.0 
535.717346 151.0 
555.130737 175.029419 
586.520508 152.0 
592.098572 120.0 
597.063599 104.046326 
659.477783 60684.625 
660.482666 22037.078125 
681.459839 109196.75 
682.461792 40780.0625 
683.445374 24357.03125 
712.389526 21007.140625 
779.39801 479.421631 
781.380798 4193.253906 
782.385559 1643.671875 
END IONS

BEGIN IONS
RTINSECONDS=194.235001
CHARGE=1-
MSLEVEL=2
SMILES=Cc1c2c(Oc3c(OC2=O)c(c(c(c3C)Cl)OC)C)c(C=O)c(O)c1Cl
INCHI=InChI=1S/C18H14Cl2O6/c1-6-10-17(9(5-21)13(22)11(6)19)25-15-7(2)12(20)14(24-4)8(3)16(15)26-18(10)23/h5,22H,1-4H3
INCHIKEY=SNNDIPJEAQAKTJ-UHFFFAOYSA-N
CLASS=Depsidones
ADDUCT=[M-H+HCOOH]-
INSTRUMENT=Waters Q-ToF Xevo G2-XS
PRECURSOR_MZ=441.0144
COMPOUND_NAME=Argopsin
ION_MODE=negative
FORMULA=C18H14Cl2O6
69.00441 2416.521484 
83.014946 583.14502 
99.011818 25849.09375 
148.052124 5871.265625 
182.989502 14415.539062 
276.024445 55665.03125 
287.017181 115879.625 
302.036346 102360.3125 
315.011932 147085.625 
322.021362 170490.625 
330.03421 412300.5 
343.004852 214892.125 
390.053589 120186.875 
405.077759 169603.5 
497.070526 592.070801 
509.040222 992.304199 
511.0336 1578.496094 
540.974243 1275.265625 
542.975464 1258.035156 
580.956299 705.733887 
590.976746 940.097168 
608.963257 1186.098633 
610.963806 1203.0 
627.975891 400.349121 
665.983459 164.410278 
710.933105 201.0 
718.312561 166.0 
729.938293 162.0 
742.915039 146.0 
782.943604 89.0 
784.026306 108.0 
792.978271 170.0 
END IONS

BEGIN IONS
RTINSECONDS=131.720993
CHARGE=1-
MSLEVEL=2
SMILES=O=C1c2c(C)cc(O)c(C=O)c2Oc2c(O1)c(c(c(c2C)C(=O)O)O)CO
INCHI=InChI=1S/C18H14O9/c1-6-3-10(21)8(4-19)15-11(6)18(25)27-16-9(5-20)13(22)12(17(23)24)7(2)14(16)26-15/h3-4,20-22H,5H2,1-2H3,(H,23,24)
INCHIKEY=VOXMONAUSQZPTP-UHFFFAOYSA-N
CLASS=Depsidones
ADDUCT=[M-H]-
INSTRUMENT=Waters Q-ToF Xevo G2-XS
PRECURSOR_MZ=373.056
COMPOUND_NAME=Protocetraric acid
ION_MODE=negative
FORMULA=C18H14O9
69.002975 8292.242188 
105.038864 11513.375 
107.049278 10214.3125 
123.045616 11691.65625 
201.059357 55045.6875 
209.063416 59563.875 
213.059113 132156.5 
227.072968 72863.5625 
229.054398 187258.25 
239.073288 143585.375 
255.068008 188890.875 
267.068817 288828.5 
285.07724 104335.9375 
311.059845 155699.875 
329.069397 84116.125 
355.048706 34272.25 
419.102722 18195.671875 
455.979675 959.749512 
472.980652 1723.294922 
487.087952 787.864258 
503.012909 510.0 
517.978516 2508.267578 
519.013611 1011.003418 
540.96936 454.416748 
564.023865 2158.558594 
585.983765 435.0 
614.010437 412.0 
635.964905 171.60791 
663.649414 138.0 
671.296631 124.0 
708.937317 143.0 
710.87854 106.0 
769.103271 7462.425781 
770.107422 2806.216797 
771.095215 721.262695 
783.111755 546.186523 
784.127808 309.734131 
785.083069 915.527832 
END IONS

BEGIN IONS
RTINSECONDS=192.602997
CHARGE=1-
MSLEVEL=2
SMILES=Oc1cc(OC(=O)c2c(O)cc(OC)cc2CCC(=O)CC)cc(CCCCC)c1C(=O)O
INCHI=InChI=1S/C25H30O8/c1-4-6-7-8-15-12-19(14-20(27)22(15)24(29)30)33-25(31)23-16(9-10-17(26)5-2)11-18(32-3)13-21(23)28/h11-14,27-28H,4-10H2,1-3H3,(H,29,30)
INCHIKEY=UCYIOAVHQGSYLP-UHFFFAOYSA-N
CLASS=Depsides (Didepsides)
ADDUCT=[M-H]-
INSTRUMENT=Waters Q-ToF Xevo G2-XS
PRECURSOR_MZ=457.1862
COMPOUND_NAME=Miriquidic acid
ION_MODE=negative
FORMULA=C25H30O8
81.039566 79579.1875 
91.026207 761290.5 
105.0392 120032.3125 
135.114426 455905.25 
137.104263 715689.0 
161.112061 1102317.0 
179.122482 1412095.0 
205.088913 1590555.0 
206.096909 1100485.0 
223.107605 1462186.0 
224.107407 501116.25 
251.096741 277729.25 
282.131287 26567.140625 
297.154144 146064.0 
298.157928 27861.671875 
353.182068 98556.8125 
354.180878 15572.25 
369.212433 57950.40625 
370.215637 135739.375 
525.176331 4865.3125 
555.118042 5394.347656 
557.116577 93966.0625 
557.215088 4911.105469 
558.118408 38678.03125 
559.118774 10580.734375 
598.115601 2590.71875 
625.102417 2056.412109 
677.260132 25824.5625 
678.263855 11313.507812 
679.269409 3625.785156 
691.277405 2361.113281 
703.274658 2058.402344 
707.271179 3064.765625 
777.182678 724.647461 
777.223694 441.175049 
778.188904 543.810059 
792.231567 310.668945 
END IONS

BEGIN IONS
RTINSECONDS=154.431
CHARGE=1-
MSLEVEL=2
SMILES=Oc1cc(C(=O)O)cc2c1C(=O)c1c(cc(cc1O)OC)C2=O
INCHI=InChI=1S/C16H10O7/c1-23-7-4-9-13(11(18)5-7)15(20)12-8(14(9)19)2-6(16(21)22)3-10(12)17/h2-5,17-18H,1H3,(H,21,22)
INCHIKEY=HEULMVKOOVHXME-UHFFFAOYSA-N
CLASS=Quinones
ADDUCT=[M-H]-
INSTRUMENT=Waters Q-ToF Xevo G2-XS
PRECURSOR_MZ=313.0348
COMPOUND_NAME=Parietinic acid
ION_MODE=negative
FORMULA=C16H10O7
100.937164 1983.59082 
112.033478 2749.607422 
113.039902 2500.492188 
141.035721 6768.398438 
142.046249 12325.390625 
169.031647 25634.328125 
170.039948 53244.15625 
197.026245 55028.40625 
198.03183 225864.375 
226.026169 291536.75 
254.021332 661104.0 
254.090225 39816.21875 
269.044525 404033.25 
287.055115 283575.75 
381.023895 750.0 
410.961212 690.666504 
412.960022 13795.125 
413.054535 485.717529 
413.961975 4024.992188 
441.962921 779.744629 
475.007111 445.757568 
475.976501 311.0 
498.993317 259.806885 
503.963348 859.408203 
524.99292 204.478638 
525.956787 219.0 
553.938049 201.19397 
554.966492 183.0 
578.051208 138.0 
649.059753 21545.90625 
649.173706 588.474121 
650.063416 5386.957031 
651.07019 1269.380859 
665.026367 1329.932617 
709.998413 6359.683594 
711.010986 3725.496094 
712.010925 1041.0 
715.049988 540.0 
717.043945 1430.688477 
718.046021 587.25293 
767.029541 1436.730469 
772.000671 1180.231445 
772.992065 509.458008 
793.017761 545.912598 
794.017883 293.0 
END IONS

BEGIN IONS
RTINSECONDS=105.338997
CHARGE=1-
MSLEVEL=2
SMILES=O=C1c2c(C)cc(O)c(C=O)c2Oc2c(O1)c(c(c1c2C(O)OC1=O)O)C
INCHI=InChI=1S/C18H12O9/c1-5-3-8(20)7(4-19)14-9(5)16(22)26-13-6(2)12(21)10-11(15(13)25-14)18(24)27-17(10)23/h3-4,18,20-21,24H,1-2H3
INCHIKEY=IEVVSJFLBYOUCJ-UHFFFAOYSA-N
CLASS=Depsidones
ADDUCT=[M-H+CH3OH]-
INSTRUMENT=Waters Q-ToF Xevo G2-XS
PRECURSOR_MZ=403.0665
COMPOUND_NAME=Norstictic acid
ION_MODE=negative
FORMULA=C18H12O9
93.036858 7005.191406 
105.03759 7180.792969 
121.031395 29002.859375 
123.045853 7654.535156 
149.026428 21805.78125 
151.042114 29396.390625 
209.055099 49998.1875 
227.048874 24293.953125 
237.056747 41352.0 
255.067535 48346.21875 
283.060303 73558.875 
297.075897 55987.71875 
307.024994 41685.90625 
309.042358 160561.125 
327.053497 106631.5 
329.101318 68455.25 
359.088745 38366.46875 
471.053925 639.0 
485.986572 242.0 
502.989868 855.76416 
504.993988 236.0 
542.981445 419.0 
565.393433 127.0 
570.978333 217.0 
593.984375 158.973999 
594.00769 238.762329 
599.700928 91.0 
637.072754 84.0 
643.988708 162.851807 
665.943909 83.0 
677.020691 115.0 
683.965576 91.0 
695.955688 77.0 
713.391663 79.0 
720.703979 118.0 
737.455566 76.0 
747.421204 118.0 
755.092529 72.0 
781.540344 79.0 
789.012939 97.0 
790.932678 79.0 
793.855835 63.0 
END IONS

BEGIN IONS
RTINSECONDS=171.227997
CHARGE=1-
MSLEVEL=2
SMILES=CC(=O)c1c(cc2c(c1O)C(=O)c1c(cc(cc1C2=O)O)O)O
INCHI=InChI=1S/C16H10O7/c1-5(17)11-10(20)4-8-13(15(11)22)16(23)12-7(14(8)21)2-6(18)3-9(12)19/h2-4,18-20,22H,1H3
INCHIKEY=OVWIVSWXKVYPAG-UHFFFAOYSA-N
CLASS=Quinones
ADDUCT=[M-H]-
INSTRUMENT=Waters Q-ToF Xevo G2-XS
PRECURSOR_MZ=313.0348
COMPOUND_NAME=Haematommone
ION_MODE=negative
FORMULA=C16H10O7
83.017082 6187.277344 
129.037964 17525.359375 
141.0383 36534.65625 
169.033401 92461.4375 
185.02916 113787.8125 
197.028366 162110.5 
213.025879 156148.125 
214.02919 146854.625 
242.021103 259336.875 
269.02063 224273.875 
270.016785 239822.5 
285.040375 186296.0 
381.013 118.0 
396.90036 136.0 
412.960449 1275.015625 
413.966217 194.728271 
414.962006 214.359863 
441.965088 298.0 
449.00589 174.0 
469.26535 212.0 
503.955383 157.118652 
504.970337 143.941406 
545.005493 157.0 
571.30127 81.0 
593.895142 98.0 
649.059998 2315.0625 
649.152344 264.199951 
650.05249 423.203857 
651.04425 205.0 
704.982788 253.0 
709.296753 282.0 
709.999878 659.374512 
710.042114 331.207275 
710.31012 215.150391 
717.051025 509.998779 
765.273987 131.0 
772.002502 540.669922 
772.993042 147.0 
END IONS

BEGIN IONS
RTINSECONDS=192.535995
CHARGE=1-
MSLEVEL=2
SMILES=Cc1c2c(Oc3c(OC2=O)c(c(c(c3C)Cl)OC)C)c(C=O)c(O)c1Cl
INCHI=InChI=1S/C18H14Cl2O6/c1-6-10-17(9(5-21)13(22)11(6)19)25-15-7(2)12(20)14(24-4)8(3)16(15)26-18(10)23/h5,22H,1-4H3
INCHIKEY=SNNDIPJEAQAKTJ-UHFFFAOYSA-N
CLASS=Depsidones
ADDUCT=[M+Cl]-
INSTRUMENT=Waters Q-ToF Xevo G2-XS
PRECURSOR_MZ=430.9856
COMPOUND_NAME=Argopsin
ION_MODE=negative
FORMULA=C18H14Cl2O6
68.968506 114.0 
69.001335 264.0 
81.654259 145.0 
95.953011 125.0 
140.992615 394.268799 
159.007462 447.822021 
171.000824 538.550781 
184.989792 741.282227 
186.998901 806.993652 
196.051987 713.066406 
246.027145 2627.224609 
262.023254 2845.482422 
274.022644 5245.523438 
278.015686 3063.578125 
290.017578 3899.992188 
293.040497 4218.730469 
311.996399 7156.402344 
318.012726 9180.429688 
333.035614 7011.433594 
370.014984 6332.953125 
371.009521 60484.0625 
371.084473 2082.119141 
399.004364 7769.34375 
403.035492 8907.742188 
489.230927 61.0 
516.079102 56.0 
534.064575 72.0 
546.020691 41.0 
546.953369 32.0 
552.742859 70.0 
586.707581 34.0 
603.928284 27.0 
611.503418 115.0 
643.221375 49.0 
667.400818 40.0 
677.210022 40.0 
679.308167 27.0 
688.782349 41.0 
710.322815 148.0 
728.686157 30.0 
780.491089 28.0 
END IONS

BEGIN IONS
RTINSECONDS=187.727997
CHARGE=1-
MSLEVEL=2
SMILES=Oc1c(C(=O)C)c2OC3(C(C)(C(=O)C(=C(C3)O)C(=O)C)c2c(O)c1C)OC
INCHI=InChI=1S/C19H20O8/c1-7-14(23)12(9(3)21)16-13(15(7)24)18(4)17(25)11(8(2)20)10(22)6-19(18,26-5)27-16/h22-24H,6H2,1-5H3
INCHIKEY=WWSUFZCWOJULTK-UHFFFAOYSA-N
CLASS=Dibenzofuranes
ADDUCT=[M-H]-
INSTRUMENT=Waters Q-ToF Xevo G2-XS
PRECURSOR_MZ=375.108
COMPOUND_NAME=Pseudoplacodiolic acid
ION_MODE=negative
FORMULA=C19H20O8
83.017136 261742.625 
84.02018 12660.070312 
95.052383 46578.15625 
145.065048 22610.796875 
180.045044 71290.375 
189.058319 82718.25 
213.063492 70151.3125 
231.06514 237452.0 
255.065826 164531.0 
299.091095 227763.5 
300.096161 140204.625 
301.071411 173179.875 
343.082184 368565.5 
344.088531 245422.875 
443.09671 1419.0 
460.083466 455.0 
475.034058 3497.464844 
477.03479 800.0 
515.028625 1489.924805 
516.031006 808.063477 
520.031616 1263.844727 
543.025391 2975.820312 
544.025146 635.605957 
545.025269 570.696289 
596.101807 294.0 
606.13208 225.0 
622.973572 218.0 
636.039429 212.0 
637.990662 181.040283 
662.046021 223.0 
698.937317 175.0 
715.240906 256.0 
773.207947 164631.0 
773.329224 9845.234375 
773.489868 4638.0 
774.210754 77110.5625 
775.212952 23052.09375 
789.178833 6424.96875 
END IONS

BEGIN IONS
RTINSECONDS=206.839005
CHARGE=1-
MSLEVEL=2
SMILES=Oc1cc(OC(=O)c2c(O)cc(OC)cc2CCC(=O)CC)cc(CCCCC)c1C(=O)O
INCHI=InChI=1S/C25H30O8/c1-4-6-7-8-15-12-19(14-20(27)22(15)24(29)30)33-25(31)23-16(9-10-17(26)5-2)11-18(32-3)13-21(23)28/h11-14,27-28H,4-10H2,1-3H3,(H,29,30)
INCHIKEY=UCYIOAVHQGSYLP-UHFFFAOYSA-N
CLASS=Depsides (Didepsides)
ADDUCT=[M-H+HCOOH]-
INSTRUMENT=Waters Q-ToF Xevo G2-XS
PRECURSOR_MZ=503.1917
COMPOUND_NAME=Miriquidic acid
ION_MODE=negative
FORMULA=C25H30O8
51.657967 137.0 
54.166969 136.0 
63.834755 184.0 
81.03968 447.0 
91.021461 5376.664062 
105.034157 835.0 
135.117493 3172.099609 
137.096451 4475.683594 
161.095459 17724.96875 
179.106323 54863.6875 
205.08577 293700.75 
205.144043 11491.0 
223.096634 332662.25 
223.158249 18625.46875 
223.244232 4286.371094 
297.137482 623.703125 
311.161133 622.823242 
353.19632 368.344727 
355.189911 472.0 
383.217743 2039.083008 
399.217072 778.279785 
401.15918 1070.0 
415.246674 7532.203125 
485.217224 5790.015625 
571.221436 1159.97168 
572.219849 436.11084 
585.129272 450.166504 
587.160278 385.222168 
603.161804 1058.676758 
604.161682 722.0 
644.141418 280.495361 
649.264221 2580.177734 
650.273499 549.256348 
671.137817 271.0 
707.261475 225.436279 
719.162964 208.0 
733.744385 185.0 
749.289124 161.0 
753.084595 198.729004 
765.228088 253.0 
791.318787 147.0 
793.222717 125.0 
END IONS

BEGIN IONS
RTINSECONDS=123.853996
CHARGE=1-
MSLEVEL=2
SMILES=O=C1c2c(C)cc(OC)c(C=O)c2Oc2c(O1)c(c(c1c2C(O)OC1=O)O)C
INCHI=InChI=1S/C19H14O9/c1-6-4-9(25-3)8(5-20)15-10(6)17(22)27-14-7(2)13(21)11-12(16(14)26-15)19(24)28-18(11)23/h4-5,19,21,24H,1-3H3
INCHIKEY=SKCUFZLDTAYNBZ-UHFFFAOYSA-N
CLASS=Depsidones
ADDUCT=[M-H]-
INSTRUMENT=Waters Q-ToF Xevo G2-XS
PRECURSOR_MZ=385.056
COMPOUND_NAME=Stictic acid
ION_MODE=negative
FORMULA=C19H14O9
69.001625 970.309082 
93.037758 7758.523438 
121.033157 30752.03125 
148.020477 33882.125 
149.027817 66182.875 
197.062119 239824.125 
209.061951 205211.125 
225.059006 287612.5 
226.064697 334678.0 
238.063278 315083.5 
254.058914 690485.5 
267.035339 834431.0 
282.054718 706020.0 
297.07785 926866.0 
341.069458 773713.5 
342.071716 306352.5 
467.981262 1896.142578 
484.990234 5626.453125 
485.983643 1731.018555 
500.007477 1339.064453 
517.007263 1993.228516 
529.979675 3329.271484 
579.964905 565.845703 
584.982971 226.657471 
597.97522 299.0 
646.903137 295.317871 
652.876465 142.0 
665.947205 123.0 
666.942139 148.214111 
680.730896 156.0 
706.775879 103.0 
732.614685 158.0 
781.101074 1624.261719 
782.106323 913.286621 
793.104004 15205.859375 
793.243225 988.624023 
794.109192 6381.589844 
795.109619 2729.298828 
END IONS

BEGIN IONS
RTINSECONDS=183.218994
CHARGE=1-
MSLEVEL=2
SMILES=O=C1Oc2c(c(CC(=O)CCCCC)c(C(=O)O)c(O)c2)Oc2c1c(cc(c2)O)CC(=O)CCCCC
INCHI=InChI=1S/C28H32O9/c1-3-5-7-9-17(29)11-16-12-19(31)14-22-24(16)28(35)37-23-15-21(32)25(27(33)34)20(26(23)36-22)13-18(30)10-8-6-4-2/h12,14-15,31-32H,3-11,13H2,1-2H3,(H,33,34)
INCHIKEY=ZDIOCINAHISORH-UHFFFAOYSA-N
CLASS=Depsidones
ADDUCT=[M-H]-
INSTRUMENT=Waters Q-ToF Xevo G2-XS
PRECURSOR_MZ=511.1968
COMPOUND_NAME=Alpha-Alectoronic acid
ION_MODE=negative
FORMULA=C28H32O9
81.038635 3984.984375 
123.042633 24001.953125 
149.032318 25087.109375 
161.041 18186.859375 
203.070557 95262.0 
226.066971 85952.75 
227.070648 148634.875 
247.098068 108897.8125 
248.104401 87783.6875 
271.060516 97240.8125 
301.144501 135412.5 
302.14856 123229.125 
325.144104 123628.4375 
326.144287 146920.625 
368.127167 162351.875 
369.134155 398934.75 
370.142609 471592.5 
423.218689 193528.75 
424.218262 279322.75 
425.199219 214657.75 
426.202209 300067.5 
467.208435 676774.5 
468.213715 383853.0 
579.184509 3935.082031 
609.130249 2966.830078 
611.126038 56953.71875 
612.132874 22296.5 
613.133728 6679.023438 
656.128113 2870.59375 
657.131714 7420.605469 
741.860962 322.0 
777.345398 513.907715 
778.359619 478.658203 
780.21875 235.0 
797.309265 446.0 
END IONS

BEGIN IONS
RTINSECONDS=144.166
CHARGE=1-
MSLEVEL=2
SMILES=Oc1c(C)c(O)cc(C)c1C(=O)OC
INCHI=InChI=1S/C10H12O4/c1-5-4-7(11)6(2)9(12)8(5)10(13)14-3/h4,11-12H,1-3H3
INCHIKEY=UUQHKWMIDYRWHH-UHFFFAOYSA-N
CLASS=Cleavage Products of Depsides and Depsidones
ADDUCT=[M-H]-
INSTRUMENT=Waters Q-ToF Xevo G2-XS
PRECURSOR_MZ=195.0657
COMPOUND_NAME=Methyl beta-orcinolcarboxylate
ION_MODE=negative
FORMULA=C10H12O4
76.971115 183.254761 
104.928558 389.0 
119.052719 13332.953125 
163.038101 38073.40625 
163.088623 1540.24707 
176.893768 351.0 
328.862274 18.0 
338.10437 22.0 
384.862762 33.0 
489.360168 22.0 
562.035278 34.0 
741.762207 35.0 
END IONS

BEGIN IONS
RTINSECONDS=224.712006
CHARGE=1-
MSLEVEL=2
SMILES=CC(C)(C)CCCCCCCCCC1C(C(=O)O)C(C(=O)O1)C
INCHI=InChI=1S/C19H34O4/c1-14-16(17(20)21)15(23-18(14)22)12-10-8-6-5-7-9-11-13-19(2,3)4/h14-16H,5-13H2,1-4H3,(H,20,21)
INCHIKEY=NRFWTRPHJATQOB-UHFFFAOYSA-N
CLASS=Paraconic acids
ADDUCT=[M-H]-
INSTRUMENT=Waters Q-ToF Xevo G2-XS
PRECURSOR_MZ=325.2379
COMPOUND_NAME=Neodihydroprotolichesterinic acid
ION_MODE=negative
FORMULA=C19H34O4
63.019424 280.0 
69.03875 3289.478516 
79.958481 657.796875 
113.026054 97837.5 
113.064621 758.466797 
114.033844 2706.832031 
119.052643 3392.300781 
170.004807 1115.0 
183.014008 19819.515625 
184.016235 898.185059 
197.026733 603.0 
225.061096 370.251465 
281.248138 498056.0 
281.334839 27837.453125 
282.254578 736136.0 
393.223114 5422.089844 
423.166412 2077.78125 
425.165985 48310.1875 
425.25708 2648.025391 
426.169617 14550.21875 
427.165161 3254.482422 
493.149261 4125.21875 
494.158142 655.291016 
512.180725 422.0 
541.159424 369.306641 
585.484558 318.531982 
593.072754 727.0 
651.486816 220843.5 
652.489197 120160.125 
653.492188 32082.203125 
673.468506 212112.75 
674.470886 110324.375 
675.47345 28146.96875 
734.406921 7051.769531 
753.409851 4203.109375 
773.39325 32545.03125 
774.397034 15246.148438 
775.397827 5202.503906 
END IONS

BEGIN IONS
RTINSECONDS=189.242996
CHARGE=1-
MSLEVEL=2
SMILES=nan
INCHI=nan
CLASS=Quinones
ADDUCT=[M-H]-
INSTRUMENT=Waters Q-ToF Xevo G2-XS
PRECURSOR_MZ=537.0822
COMPOUND_NAME=Isoskyrin
ION_MODE=negative
62.303253 191.0 
80.147278 175.0 
105.031548 764.790527 
107.053162 2254.175781 
131.052399 5186.457031 
175.039307 464844.0 
175.106552 33155.8125 
176.044434 25088.96875 
187.042145 23482.625 
201.058395 54217.03125 
225.05838 76677.6875 
241.054764 33844.5 
281.045959 447960.0 
291.069611 123954.1875 
293.045898 173816.75 
294.056946 70602.3125 
309.044128 76775.5625 
321.044403 58924.5625 
397.107971 82528.9375 
425.104156 267920.5 
447.08847 301412.0 
451.082794 943282.0 
468.085388 425615.0 
469.093475 862108.0 
493.093384 696719.0 
520.080505 291258.0 
593.108521 6277.679688 
637.009521 5189.96875 
638.015869 1697.371094 
651.126038 918.157227 
683.144958 1439.25293 
709.155579 4216.761719 
710.157532 2029.765625 
711.166016 563.008789 
749.190918 255.0 
765.261353 229.723755 
773.279175 277.627441 
779.202148 226.0 
799.178162 311.0 
END IONS

BEGIN IONS
RTINSECONDS=188.001007
CHARGE=1-
MSLEVEL=2
SMILES=Oc1c(C(=O)C)c2OC3(C(C)(C(=O)C(=C(C3)O)C(=O)C)c2c(O)c1C)OC
INCHI=InChI=1S/C19H20O8/c1-7-14(23)12(9(3)21)16-13(15(7)24)18(4)17(25)11(8(2)20)10(22)6-19(18,26-5)27-16/h22-24H,6H2,1-5H3
INCHIKEY=WWSUFZCWOJULTK-UHFFFAOYSA-N
CLASS=Dibenzofuranes
ADDUCT=[2M-2H+Na]-
INSTRUMENT=Waters Q-ToF Xevo G2-XS
PRECURSOR_MZ=773.2058
COMPOUND_NAME=Pseudoplacodiolic acid
ION_MODE=negative
FORMULA=C19H20O8
73.748245 159.0 
75.023262 200.0 
83.016106 1854.238281 
93.494308 190.0 
95.049644 646.0 
139.043716 1515.523438 
179.036118 1393.592773 
180.041336 19711.671875 
180.090942 1312.759766 
231.067627 8017.242188 
235.059143 7617.558594 
259.063019 33894.75 
291.089752 16164.960938 
299.091492 135942.25 
301.070984 108147.1875 
315.090057 14894.523438 
343.081726 321039.75 
375.109161 1318174.0 
375.195831 126327.0 
375.303772 87003.125 
375.406555 42419.84375 
397.090027 109705.0 
446.819733 313.0 
452.90802 241.0 
470.013397 263.0 
473.082275 393.0 
488.967316 231.0 
502.532013 221.356689 
534.2453 220.0 
561.949707 211.0 
574.008972 244.0 
591.131165 263.0 
591.218689 244.0 
592.139526 264.395996 
593.1474 251.370605 
633.147644 312.559082 
658.942078 168.13208 
660.819336 168.0 
680.910583 145.0 
712.825256 178.0 
END IONS

BEGIN IONS
RTINSECONDS=153.666
CHARGE=1-
MSLEVEL=2
SMILES=O=C(O)c1c(CCC)c(Cl)c(OC)cc1O
INCHI=InChI=1S/C11H13ClO4/c1-3-4-6-9(11(14)15)7(13)5-8(16-2)10(6)12/h5,13H,3-4H2,1-2H3,(H,14,15)
INCHIKEY=JRBWSDAHJPBRDM-UHFFFAOYSA-N
CLASS=Cleavage Products of Depsides and Depsidones
ADDUCT=[M-H]-
INSTRUMENT=Waters Q-ToF Xevo G2-XS
PRECURSOR_MZ=243.0424
COMPOUND_NAME=5-Chlorodivaricatinic acid
ION_MODE=negative
FORMULA=C11H13ClO4
93.038254 7526.644531 
155.998123 718401.0 
184.0289 901517.0 
184.130493 71514.9375 
199.052353 1204407.0 
199.133194 152201.25 
311.167847 812.397461 
325.182068 714.0 
325.964905 455.931641 
342.969086 1536.538086 
361.118469 553.0 
387.963318 498.927002 
405.113251 1959.68457 
441.087524 3937.595703 
443.085083 1490.123047 
449.100006 5369.324219 
450.104034 928.0 
451.100922 1914.03125 
509.074341 46384.90625 
510.079468 10504.328125 
511.072021 33424.8125 
512.074951 8064.808594 
540.004395 16579.125 
542.001709 10357.382812 
639.996094 239.455811 
647.140808 233.515869 
648.977417 331.45166 
649.14093 216.0 
707.122681 2436.888672 
709.094604 799.766602 
709.122742 2742.826172 
710.112976 902.631348 
775.105713 4614.992188 
777.10437 4566.15625 
787.061768 6284.605469 
789.059143 8600.640625 
790.065918 3771.390625 
791.060425 5981.496094 
END IONS

BEGIN IONS
RTINSECONDS=185.291
CHARGE=1-
MSLEVEL=2
SMILES=Cc1cc(c(c(c1C(=O)O)O)C)OC(=O)c1c(c(c(cc1C)OC)C)OC
INCHI=InChI=1S/C20H22O7/c1-9-8-14(11(3)17(21)15(9)19(22)23)27-20(24)16-10(2)7-13(25-5)12(4)18(16)26-6/h7-8,21H,1-6H3,(H,22,23)
INCHIKEY=MIJKZXWOOXIEEU-UHFFFAOYSA-N
CLASS=Depsides (Didepsides)
ADDUCT=[M-H]-
INSTRUMENT=Waters Q-ToF Xevo G2-XS
PRECURSOR_MZ=373.1287
COMPOUND_NAME=Diffractaic acid
ION_MODE=negative
FORMULA=C20H22O7
120.074265 1023214.0 
135.086716 976889.0 
136.068604 272809.25 
137.076279 825292.5 
165.109283 892755.0 
209.101486 1389852.0 
210.094696 393648.5 
238.104752 284358.75 
282.092102 980623.0 
285.164215 1053561.0 
297.117188 1562087.0 
298.1362 796117.5 
329.14389 1451891.0 
456.056274 2456.892578 
471.059387 3204.552734 
473.059143 69441.3125 
473.157318 2996.716797 
474.061249 23345.171875 
475.061554 6560.257812 
514.058472 1962.970703 
541.045959 798.683105 
626.970642 247.0 
640.97168 148.0 
701.262268 1020.83252 
702.272339 443.0 
745.255493 16271.976562 
769.254272 220526.125 
769.375793 13762.601562 
770.256958 117694.3125 
771.257141 38398.4375 
785.22876 13581.304688 
END IONS

BEGIN IONS
RTINSECONDS=189.389008
CHARGE=1-
MSLEVEL=2
SMILES=O=C1C(=C(O)/C(=C(/c2ccccc2)\C(=O)OC)/O1)c1ccccc1
INCHI=InChI=1S/C19H14O5/c1-23-18(21)15(13-10-6-3-7-11-13)17-16(20)14(19(22)24-17)12-8-4-2-5-9-12/h2-11,20H,1H3/b17-15+
INCHIKEY=OMZRMXULWNMRAE-BMRADRMJSA-N
CLASS=Pulvinic Acid Derivatives
ADDUCT=[2M-2H+Na]-
INSTRUMENT=Waters Q-ToF Xevo G2-XS
PRECURSOR_MZ=665.1424
COMPOUND_NAME=Vulpinic acid
ION_MODE=negative
FORMULA=C19H14O5
51.891521 155.0 
61.52668 101.0 
101.041557 1705.820312 
117.037506 11378.273438 
133.318771 203.0 
190.077896 79154.9375 
190.131454 3287.578125 
234.067474 96929.1875 
249.091507 730873.0 
249.159775 47599.5625 
262.062927 342259.5 
321.077179 1269298.0 
321.156708 125591.25 
321.256897 70824.9375 
321.351318 43606.375 
321.405365 34078.90625 
396.653137 305.0 
403.639343 247.0 
409.564758 121.0 
454.17691 239.0 
466.745483 91.0 
475.406891 144.0 
483.442719 96.0 
531.31012 108.0 
536.004333 114.0 
542.859558 139.0 
546.856628 84.0 
555.354492 97.0 
584.828186 117.0 
602.88446 134.0 
744.124573 78.0 
750.754761 122.0 
763.341003 76.0 
778.884949 85.0 
785.564209 56.0 
END IONS

BEGIN IONS
RTINSECONDS=200.255997
CHARGE=1-
MSLEVEL=2
SMILES=CC(C)C[C@@H](C(=O)OC)NC(=O)/C(=C\1/C(=C(C(=O)O1)c1ccccc1)O)/c1ccccc1
INCHI=InChI=1S/C25H25NO6/c1-15(2)14-18(24(29)31-3)26-23(28)20(17-12-8-5-9-13-17)22-21(27)19(25(30)32-22)16-10-6-4-7-11-16/h4-13,15,18,27H,14H2,1-3H3,(H,26,28)/b22-20-/t18-/m0/s1
INCHIKEY=IBSRGCBHIASQMQ-BKBKCADHSA-N
CLASS=Pulvinic Acid Derivatives
ADDUCT=[M-H]-
INSTRUMENT=Waters Q-ToF Xevo G2-XS
PRECURSOR_MZ=434.1604
COMPOUND_NAME=Epanorin
ION_MODE=negative
FORMULA=C25H25NO6
51.719555 214.0 
101.04274 22245.375 
102.047623 8086.570312 
116.051086 24884.5625 
117.042786 1031307.0 
117.09697 29358.03125 
118.032761 681371.0 
191.086121 373329.75 
192.09314 437276.25 
262.090118 847401.0 
263.083496 1595846.0 
264.077637 1289627.0 
264.111023 1222286.0 
300.091705 461616.0 
301.078491 238684.75 
357.159515 149603.875 
358.146301 90048.25 
359.152313 46911.3125 
362.179962 15561.023438 
534.087402 765.199219 
535.089294 371.15918 
536.0896 375.307861 
538.085999 278.0 
574.081421 796.636719 
575.085022 559.476074 
602.073303 1030.666016 
603.08075 344.237061 
604.073975 272.0 
629.432373 141.0 
697.064209 139.0 
703.029358 173.0 
706.03064 119.0 
708.320068 143.765137 
740.049255 128.0 
754.153015 149.0 
757.668701 113.0 
END IONS

BEGIN IONS
RTINSECONDS=11.872
CHARGE=1-
MSLEVEL=2
SMILES=OC[C@@H](O)[C@@H](O)[C@H](O)[C@H](O)CO
INCHI=InChI=1S/C6H14O6/c7-1-3(9)5(11)6(12)4(10)2-8/h3-12H,1-2H2/t3-,4-,5-,6-/m1/s1
INCHIKEY=FBPFZTCFMRRESA-KVTDHHQDSA-N
CLASS="Polyols, Monosaccharides, Carbohydrates"
ADDUCT=[M-H]-
INSTRUMENT=Waters Q-ToF Xevo G2-XS
PRECURSOR_MZ=181.0712
COMPOUND_NAME=D-Mannitol
ION_MODE=negative
FORMULA=C6H14O6
71.017006 64772.3125 
89.027206 146132.625 
101.027206 225198.375 
119.037224 92741.6875 
131.036316 31904.46875 
163.063095 152379.625 
241.20105 150.0 
243.111481 95.0 
243.764008 134.0 
257.419037 180.0 
265.477631 116.0 
309.712616 185.0 
311.882111 179.0 
347.977997 110.0 
379.918976 98.0 
390.806641 99.0 
416.059814 1519.05957 
417.059601 272.0 
423.602814 161.0 
446.080475 134.0 
484.134644 99.0 
509.496948 99.0 
526.813049 78.0 
527.83905 158.0 
548.040283 199.0 
548.112671 101.0 
579.948792 90.0 
598.785095 82.0 
603.874146 97.0 
609.057861 99.0 
630.456604 76.0 
645.049744 91.0 
673.028198 245.0 
695.0672 195.0 
695.280762 69.0 
700.872925 81.0 
730.950073 106.0 
755.200256 77.0 
770.756958 85.0 
779.760254 87.0 
779.867737 83.0 
788.588135 128.0 
END IONS

BEGIN IONS
RTINSECONDS=222.065002
CHARGE=1-
MSLEVEL=2
SMILES=CCCCCCCCCCCCC[C@@H]1[C@@H](C(=O)O)[C@H](C)C(=O)O1
INCHI=InChI=1S/C19H34O4/c1-3-4-5-6-7-8-9-10-11-12-13-14-16-17(18(20)21)15(2)19(22)23-16/h15-17H,3-14H2,1-2H3,(H,20,21)/t15-,16+,17-/m0/s1
INCHIKEY=WLGALFYTFVOQPY-BBWFWOEESA-N
CLASS=Paraconic acids
ADDUCT=[2M-H]-
INSTRUMENT=Waters Q-ToF Xevo G2-XS
PRECURSOR_MZ=651.4836
COMPOUND_NAME=Roccellaric acid
ION_MODE=negative
FORMULA=C19H34O4
69.040619 2338.910156 
73.029243 258.0 
79.301132 264.0 
85.028564 598.207031 
97.999733 701.513184 
113.027191 141984.75 
135.549011 242.819824 
170.097214 200.0 
173.32872 185.0 
185.216232 264.0 
199.674927 284.0 
210.546509 345.0 
281.248352 620712.0 
325.241455 1613894.0 
325.320709 302802.0 
325.421234 118021.0625 
325.542877 93996.0625 
326.451202 93472.3125 
404.759277 192.0 
408.786011 180.0 
445.666992 258.0 
460.424103 146.0 
460.905334 156.0 
462.094391 176.0 
503.177917 154.0 
513.708374 213.0 
534.868591 214.0 
539.071106 199.0 
563.791199 134.0 
578.528442 240.0 
730.546631 117.0 
766.801453 359.0 
768.574036 106.0 
782.577148 127.0 
795.547668 153.0 
END IONS

BEGIN IONS
RTINSECONDS=193.397995
CHARGE=1-
MSLEVEL=2
SMILES=O=c1c2c(oc3c1c(C)cc(OC)c3Cl)c(Cl)c(O)c(Cl)c2O
INCHI=InChI=1S/C15H9Cl3O5/c1-4-3-5(22-2)8(16)14-6(4)11(19)7-12(20)9(17)13(21)10(18)15(7)23-14/h3,20-21H,1-2H3
INCHIKEY=SMLUHOHPDVBXKH-UHFFFAOYSA-N
CLASS=Xanthones and bis-Xanthones
ADDUCT=[M-H+HCOOH]-
INSTRUMENT=Waters Q-ToF Xevo G2-XS
PRECURSOR_MZ=418.9492
COMPOUND_NAME=6-O-Methylarthothelin
ION_MODE=negative
FORMULA=C15H9Cl3O5
78.920242 492.397461 
78.954353 68.0 
80.921341 885.687012 
100.936043 105.0 
137.543701 96.0 
146.041321 89.0 
173.985901 501.446533 
201.981445 1618.193359 
208.880783 587.414551 
237.957352 2580.111328 
239.957687 1640.083008 
265.952698 4282.1875 
267.951263 2089.041016 
293.946899 2030.322266 
295.947357 1423.041992 
311.902313 1186.169922 
360.84726 790.523438 
374.86438 1571.707031 
375.881073 2821.087891 
485.537994 24.0 
499.935608 18.0 
560.444031 20.0 
567.142822 18.0 
617.416199 38.0 
622.60498 34.0 
680.604675 20.0 
752.183533 25.0 
767.405334 20.0 
END IONS

BEGIN IONS
RTINSECONDS=221.658997
CHARGE=1-
MSLEVEL=2
SMILES=CCCCCCCCCCCCC[C@H]1[C@H]([C@H](C(=O)O1)C)C(=O)O
INCHI=InChI=1S/C19H34O4/c1-3-4-5-6-7-8-9-10-11-12-13-14-16-17(18(20)21)15(2)19(22)23-16/h15-17H,3-14H2,1-2H3,(H,20,21)/t15-,16+,17+/m1/s1
INCHIKEY=WLGALFYTFVOQPY-IKGGRYGDSA-N
CLASS=Paraconic acids
ADDUCT=[M-H]-
INSTRUMENT=Waters Q-ToF Xevo G2-XS
PRECURSOR_MZ=325.2379
COMPOUND_NAME=Nephromopsic acid
ION_MODE=negative
FORMULA=C19H34O4
69.038269 4969.804688 
70.039543 1243.952148 
98.004364 2082.382812 
113.026237 107880.875 
114.029694 36100.25 
119.051453 3523.896484 
170.003693 737.690918 
183.013229 21696.453125 
184.01796 1216.604492 
197.028748 667.260742 
213.867706 460.0 
281.247162 223580.25 
282.255249 596803.0 
393.223694 4788.828125 
423.17099 2109.412109 
425.168579 52995.28125 
426.168213 17786.921875 
427.170288 3910.847656 
453.158813 2145.484375 
493.157684 2222.890625 
494.155823 791.716797 
529.202698 451.734375 
533.141602 265.382568 
541.158569 419.610107 
593.090088 295.132568 
651.488647 267946.75 
651.602295 22620.5625 
652.490723 156106.125 
653.493225 43630.875 
673.472229 138788.125 
674.472351 58828.34375 
705.492249 6390.683594 
734.411011 10099.132812 
735.412598 5326.710938 
753.418274 4010.208984 
773.398071 20241.671875 
774.398743 9035.804688 
775.399963 2398.035156 
793.416321 1042.391602 
END IONS

BEGIN IONS
RTINSECONDS=163.641998
CHARGE=1-
MSLEVEL=2
SMILES=O=C1c2c(CC(=O)CCCCC)cc(O)c(O)c2Oc2c(O1)cc(c(c2CCCCC)C(=O)O)O
INCHI=InChI=1S/C26H30O9/c1-3-5-7-9-15(27)11-14-12-18(29)22(30)24-20(14)26(33)34-19-13-17(28)21(25(31)32)16(23(19)35-24)10-8-6-4-2/h12-13,28-30H,3-11H2,1-2H3,(H,31,32)
INCHIKEY=BQHHNAPTXQOPBW-UHFFFAOYSA-N
CLASS=Depsidones
ADDUCT=[M-H+CH3OH]-
INSTRUMENT=Waters Q-ToF Xevo G2-XS
PRECURSOR_MZ=517.2074
COMPOUND_NAME=3-Hydroxyphysodic acid
ION_MODE=negative
FORMULA=C26H30O9
55.693718 118.0 
65.004662 482.869385 
80.052711 173.0 
81.034248 188.486572 
121.026871 364.0 
122.036057 666.46582 
135.120941 2226.349609 
137.097977 7285.113281 
179.109741 34487.84375 
205.08844 9721.867188 
223.097031 38492.84375 
233.081406 20159.03125 
261.076477 36793.46875 
261.140381 2591.544922 
293.102112 86274.25 
293.168854 3990.101562 
354.21228 159.0 
379.200623 119.0 
395.183411 142.025024 
413.139526 188.710693 
423.181152 243.665527 
423.238953 171.0 
467.167664 474.674072 
483.169464 1400.225586 
485.182007 1432.124023 
499.195618 746.893555 
617.128052 362.853516 
617.157166 235.668335 
618.136597 204.09021 
630.096313 214.0 
631.108887 232.327515 
662.126526 222.497437 
707.234131 146.0 
708.388367 157.0 
723.125977 132.0 
765.986511 171.0 
784.959717 116.0 
788.090515 91.0 
790.916443 147.0 
END IONS

BEGIN IONS
RTINSECONDS=175.822998
CHARGE=1-
MSLEVEL=2
SMILES=Oc1c2c(oc3c(c(C)cc(O)c3Cl)c2=O)cc(OC)c1
INCHI=InChI=1S/C15H11ClO5/c1-6-3-9(18)13(16)15-11(6)14(19)12-8(17)4-7(20-2)5-10(12)21-15/h3-5,17-18H,1-2H3
INCHIKEY=CCCPQTCGPQONAG-UHFFFAOYSA-N
CLASS=Xanthones and bis-Xanthones
ADDUCT=[M-H]-
INSTRUMENT=Waters Q-ToF Xevo G2-XS
PRECURSOR_MZ=305.0217
COMPOUND_NAME=Vinetorin
ION_MODE=negative
FORMULA=C15H11ClO5
68.999092 1731.061523 
91.020981 7599.917969 
95.016396 60184.5 
140.005737 42054.625 
142.045242 17593.015625 
178.992523 46259.71875 
198.031067 212795.25 
218.984848 97322.875 
226.026993 140131.125 
246.981598 164566.25 
260.995483 362675.0 
262.00412 601750.0 
392.888794 2489.208984 
394.887939 3504.744141 
396.882233 801.873535 
404.947296 3196.931641 
405.953217 679.177734 
406.943024 769.395508 
474.94281 152.0 
477.034912 167.0 
499.29718 146.0 
521.317932 98.0 
555.103577 78.0 
562.794861 112.0 
577.13324 133.0 
577.329895 77.0 
633.031128 1957.256836 
634.037048 681.0 
635.033386 1589.490234 
636.041687 363.0 
637.157104 3395.960938 
638.148621 909.296875 
693.971252 293.428223 
694.103149 240.125488 
694.979553 247.603027 
695.982361 558.650879 
703.011353 241.207764 
712.985962 295.293213 
755.977844 438.484375 
756.981567 279.0 
757.976318 441.161133 
782.959473 209.717041 
END IONS

BEGIN IONS
RTINSECONDS=183.740005
CHARGE=1-
MSLEVEL=2
SMILES=CCCCCC1=CC(=O)C=C(OC)C21C(=O)Oc1c2c(c(c(c1)O)C(=O)O)CCCCC
INCHI=InChI=1S/C25H30O7/c1-4-6-8-10-15-12-16(26)13-20(31-3)25(15)22-17(11-9-7-5-2)21(23(28)29)18(27)14-19(22)32-24(25)30/h12-14,27H,4-11H2,1-3H3,(H,28,29)
INCHIKEY=LOGCRVAWKCZXQM-UHFFFAOYSA-N
CLASS=Depsones
ADDUCT=[M-H]-
INSTRUMENT=Waters Q-ToF Xevo G2-XS
PRECURSOR_MZ=441.1913
COMPOUND_NAME=Picrolichenic acid
ION_MODE=negative
FORMULA=C25H30O7
91.023781 20136.421875 
96.024406 12430.828125 
109.033661 43425.5625 
122.040657 76517.6875 
161.079926 55427.6875 
164.086258 102148.5 
179.111053 66433.875 
191.111832 218457.0 
205.091873 479359.75 
218.098907 343709.25 
232.11496 319302.25 
267.109436 1002878.0 
268.111389 390261.5 
281.120026 846693.0 
282.127197 933430.0 
283.100311 668163.0 
338.18869 716278.0 
338.339813 526084.0 
339.194977 810072.0 
382.180786 783441.0 
397.205414 1600472.0 
509.181641 3622.033203 
524.11853 2446.431641 
525.122742 905.492188 
541.124451 24435.78125 
542.12439 8889.382812 
543.121521 2207.517578 
582.120911 1410.27832 
586.118286 3814.615234 
609.10791 2329.738281 
610.11615 986.308594 
654.102966 518.0 
679.091248 295.0 
691.037903 253.0 
706.104858 337.0 
723.425964 243.0 
748.078369 281.0 
769.533447 237.0 
787.685974 241.0 
793.397888 400.925049 
END IONS

BEGIN IONS
RTINSECONDS=187.764008
CHARGE=1-
MSLEVEL=2
SMILES=CC12C(=O)C(=C(C=C1Oc1c2c(O)c(C)c(O)c1C(=O)C)O)C(=O)C
INCHI=InChI=1S/C18H16O7/c1-6-14(22)12(8(3)20)16-13(15(6)23)18(4)10(25-16)5-9(21)11(7(2)19)17(18)24/h5,21-23H,1-4H3
INCHIKEY=WEYVVCKOOFYHRW-UHFFFAOYSA-N
CLASS=Dibenzofuranes
ADDUCT=[M-H+CH3OH]-
INSTRUMENT=Waters Q-ToF Xevo G2-XS
PRECURSOR_MZ=375.108
COMPOUND_NAME=Usnic acid
ION_MODE=negative
FORMULA=C18H16O7
79.017326 213.0 
83.016708 10165.132812 
95.053406 1795.025391 
139.03949 1472.0 
159.050461 932.0 
180.044128 3588.132812 
189.058273 3115.691406 
231.068481 11216.765625 
232.076096 2715.195312 
255.070465 8452.59375 
259.062744 8225.710938 
286.049805 4917.183594 
299.091949 22061.578125 
301.074982 18260.328125 
315.091064 4474.6875 
343.081787 37164.125 
441.18454 101.0 
443.095398 189.338501 
460.086914 115.0 
485.287506 102.0 
487.110443 125.0 
515.028137 138.0 
520.266296 106.0 
543.021912 380.005127 
544.028809 126.0 
587.312317 75.0 
603.068298 82.0 
610.404724 77.0 
625.762268 91.0 
652.915222 97.0 
653.294617 146.0 
674.304993 81.0 
681.711182 120.0 
705.30072 67.0 
753.645813 102.0 
773.173645 94.165771 
773.204529 966.96582 
773.284729 172.0 
774.218384 214.0 
781.931641 92.0 
END IONS

BEGIN IONS
RTINSECONDS=120.252998
CHARGE=1-
MSLEVEL=2
SMILES=O=C1c2c(C)cc(OC)c(C=O)c2Oc2c(O1)c(c(c1c2C(O)OC1=O)O)C
INCHI=InChI=1S/C19H14O9/c1-6-4-9(25-3)8(5-20)15-10(6)17(22)27-14-7(2)13(21)11-12(16(14)26-15)19(24)28-18(11)23/h4-5,19,21,24H,1-3H3
INCHIKEY=SKCUFZLDTAYNBZ-UHFFFAOYSA-N
CLASS=Depsidones
ADDUCT=[M-H+CH3OH]-
INSTRUMENT=Waters Q-ToF Xevo G2-XS
PRECURSOR_MZ=417.0822
COMPOUND_NAME=Stictic acid
ION_MODE=negative
FORMULA=C19H14O9
93.037735 2239.140625 
107.053513 10782.726562 
149.028519 9633.421875 
197.064911 71489.875 
225.058197 119637.5 
226.065765 95559.375 
239.039246 97883.5 
254.059174 211713.25 
267.032043 132491.0 
269.082916 235464.25 
297.077606 219889.125 
329.103943 103333.75 
341.067078 278923.0 
373.092987 94291.4375 
385.056824 468213.25 
485.07135 1280.129883 
516.030762 943.0 
519.006287 245.908325 
532.028442 4624.214844 
547.060303 271.0 
557.008118 295.346191 
560.013977 232.378052 
627.004761 105.0 
629.996887 156.759766 
646.919861 362.527588 
668.121521 84.111267 
693.946106 83.0 
739.908386 209.0 
END IONS

BEGIN IONS
RTINSECONDS=167.882004
CHARGE=1-
MSLEVEL=2
SMILES=c1ccc(cc1)C1=C(C(=C2c3ccccc3OC2=O)OC1=O)O
INCHI=InChI=1S/C18H10O5/c19-15-13(10-6-2-1-3-7-10)17(20)23-16(15)14-11-8-4-5-9-12(11)22-18(14)21/h1-9,19H
INCHIKEY=CGRCGRBHNKRILW-UHFFFAOYSA-N
CLASS=Pulvinic Acid Derivatives
ADDUCT=[M-H]-
INSTRUMENT=Waters Q-ToF Xevo G2-XS
PRECURSOR_MZ=305.045
COMPOUND_NAME=Calycin
ION_MODE=negative
FORMULA=C18H10O5
99.923912 285.847412 
101.040367 722.628418 
117.037476 17896.171875 
125.04158 139436.0 
126.044228 464.407959 
177.070511 54030.96875 
205.067062 98818.1875 
233.059784 641250.0 
233.134216 21362.53125 
233.165924 42876.125 
234.067673 9077.929688 
377.162231 173.0 
400.050171 136.0 
444.962952 607.0 
445.960266 136.627197 
472.965912 3745.953125 
473.961548 788.136719 
474.968201 155.709473 
492.97818 167.381226 
517.055054 193.0 
534.988098 131.0 
549.737 112.0 
566.968689 135.0 
617.104858 3685.728516 
633.080811 101362.75 
633.187866 3694.576172 
633.335449 2475.0 
634.083984 39006.3125 
635.085938 9644.976562 
701.071533 243.559204 
704.822388 130.0 
713.038513 177.312134 
714.027466 194.0 
715.01532 157.0 
752.794861 99.0 
767.047363 74.0 
780.990295 122.0 
795.125793 49.0 
END IONS

BEGIN IONS
RTINSECONDS=188.988998
CHARGE=1-
MSLEVEL=2
SMILES=CC1=C(C(=O)O)[C@@H](CCCCCCCCCCCCC(C)CO)OC1=O
INCHI=InChI=1S/C21H36O5/c1-16(15-22)13-11-9-7-5-3-4-6-8-10-12-14-18-19(20(23)24)17(2)21(25)26-18/h16,18,22H,3-15H2,1-2H3,(H,23,24)/t16?,18-/m1/s1
INCHIKEY=FEGXSCTZZUZMJG-UHUGOGIASA-N
CLASS=Paraconic acids
ADDUCT=[M-H]-
INSTRUMENT=Waters Q-ToF Xevo G2-XS
PRECURSOR_MZ=367.2484
COMPOUND_NAME=Isomurolic acid
ION_MODE=negative
FORMULA=C21H36O5
69.0345 787.593262 
83.051476 820.319336 
85.063278 869.041992 
97.057335 906.241699 
113.02327 881.490723 
155.14595 9634.296875 
156.14743 8533.382812 
169.160675 4937.679688 
170.163879 6419.453125 
208.215805 4934.0 
235.245697 14474.054688 
236.245544 64611.84375 
264.245117 76312.5625 
278.258636 129581.125 
279.269958 71192.625 
280.274261 126713.625 
324.263672 595530.0 
435.23761 5213.878906 
450.172791 2209.707031 
465.174255 2769.751953 
467.17749 56457.21875 
468.180756 19147.453125 
469.181763 5157.277344 
535.16449 1655.527344 
558.178101 1000.404785 
571.215393 300.631592 
583.174744 425.254883 
608.154785 173.819214 
613.004089 209.0 
635.092712 173.69751 
663.108032 163.513184 
735.509521 36525.59375 
757.493774 172197.75 
758.497253 87746.5625 
759.487366 54191.6875 
788.424988 70827.6875 
789.427612 34393.84375 
END IONS

BEGIN IONS
RTINSECONDS=146.578003
CHARGE=1-
MSLEVEL=2
SMILES=O=C(O)c1c(C)cc(OC)c(C)c1O
INCHI=InChI=1S/C10H12O4/c1-5-4-7(14-3)6(2)9(11)8(5)10(12)13/h4,11H,1-3H3,(H,12,13)
INCHIKEY=BMRVNZZVDSVOQG-UHFFFAOYSA-N
CLASS=Cleavage Products of Depsides and Depsidones
ADDUCT=[M-H]-
INSTRUMENT=Waters Q-ToF Xevo G2-XS
PRECURSOR_MZ=195.0657
COMPOUND_NAME=Rhizonic acid
ION_MODE=negative
FORMULA=C10H12O4
93.03698 27306.171875 
135.04747 99150.125 
136.054825 756610.0 
136.143448 61734.9375 
151.075897 904689.0 
151.174179 86415.1875 
263.048981 212.0 
266.150848 138.0 
277.98819 961.384766 
294.99057 450.238525 
334.989014 200.0 
339.198517 435.119385 
339.274017 191.0 
339.989471 489.0 
389.126831 791.810059 
413.122559 39682.59375 
413.217041 1524.085938 
414.126007 8294.296875 
429.095184 2206.566406 
444.057373 16677.84375 
445.057648 4537.382812 
475.093201 665.256348 
493.059265 654.515137 
512.040588 587.0 
543.073059 199.696533 
609.181824 3193.597656 
625.160034 9112.4375 
643.133789 11763.867188 
644.13678 3806.441406 
645.1297 4705.050781 
662.111572 7919.035156 
724.079285 651.152344 
730.100586 1571.27832 
731.09375 1097.626953 
742.048035 818.0 
745.028137 818.641602 
746.057373 526.28125 
END IONS

BEGIN IONS
RTINSECONDS=147.623001
CHARGE=1-
MSLEVEL=2
SMILES=O=C1Oc2c(c(C)c(C(=O)O)c(O)c2COC)Oc2c(C=O)c(O)cc(C)c12
INCHI=InChI=1S/C19H16O9/c1-7-4-11(21)9(5-20)16-12(7)19(25)28-17-10(6-26-3)14(22)13(18(23)24)8(2)15(17)27-16/h4-5,21-22H,6H2,1-3H3,(H,23,24)
INCHIKEY=IJJZZLYYFYYEHT-UHFFFAOYSA-N
CLASS=Depsidones
ADDUCT=[M-H]-
INSTRUMENT=Waters Q-ToF Xevo G2-XS
PRECURSOR_MZ=387.0716
COMPOUND_NAME=9'-methylprotocetraric acid
ION_MODE=negative
FORMULA=C19H16O9
69.002327 24009.125 
105.037323 20894.4375 
201.057205 123553.0 
209.062683 146656.5 
213.05748 197314.625 
215.038025 129612.25 
229.051514 247232.625 
239.072266 183824.75 
267.06665 770470.5 
268.073883 392645.0 
299.095642 482125.75 
300.095123 242258.0 
311.055634 672561.0 
312.062592 343019.75 
475.360077 3889.628906 
486.998749 24651.03125 
488.000488 7402.222656 
489.000031 2480.705078 
489.342896 2172.0 
507.35379 3006.302734 
531.997131 1955.137695 
595.110291 2434.685547 
596.103943 592.0 
648.919678 157.588623 
651.436584 175.490723 
677.249329 140.0 
689.120117 192.217651 
697.428101 307.0 
729.157654 218.557739 
775.162842 859.44873 
797.136108 89308.4375 
797.258972 5070.945312 
797.421448 1433.168945 
798.139648 33661.1875 
799.133545 14824.945312 
END IONS

BEGIN IONS
RTINSECONDS=194.604996
CHARGE=1-
MSLEVEL=2
SMILES=CCCc1cc(cc(c1C(=O)Oc1cc(c(c(c1)CCC)C(=O)O)O)O)OC
INCHI=InChI=1S/C21H24O7/c1-4-6-12-9-15(11-16(22)18(12)20(24)25)28-21(26)19-13(7-5-2)8-14(27-3)10-17(19)23/h8-11,22-23H,4-7H2,1-3H3,(H,24,25)
INCHIKEY=FSRDIJIAQPSMMR-UHFFFAOYSA-N
CLASS=Depsides (Didepsides)
ADDUCT=[M-H]-
INSTRUMENT=Waters Q-ToF Xevo G2-XS
PRECURSOR_MZ=387.1444
COMPOUND_NAME=Divaricatic acid
ION_MODE=negative
FORMULA=C21H24O7
81.039795 119952.125 
91.03112 853673.5 
107.091095 493155.0 
109.074501 719242.0 
133.075272 1025000.5 
151.077591 1250498.0 
151.122681 1462371.0 
177.089478 1589206.0 
195.067703 1419632.0 
195.1008 1584266.0 
254.099548 101994.125 
256.118378 36118.09375 
283.136383 477563.75 
284.146545 148901.25 
299.171661 269439.5 
300.173462 37240.0625 
485.076538 4535.792969 
487.076935 86638.8125 
487.173553 5249.550781 
487.297974 2570.886719 
488.075928 33836.875 
489.079895 9176.171875 
555.05835 2308.224609 
577.209595 1596.888672 
586.996948 872.345215 
605.201721 1966.533203 
605.241638 717.279297 
636.126648 1121.723633 
687.666748 358.0 
709.15979 8232.796875 
710.164612 2892.972656 
711.163818 654.152832 
773.287415 42933.75 
774.289673 19363.140625 
783.288025 9322.234375 
797.284363 166975.375 
798.287903 82547.0 
799.287842 26907.390625 
END IONS

BEGIN IONS
RTINSECONDS=14.474
CHARGE=1-
MSLEVEL=2
SMILES=OC[C@@H](O)[C@@H](O)C(O)[C@H](O)[C@H](O)CO
INCHI=InChI=1S/C7H16O7/c8-1-3(10)5(12)7(14)6(13)4(11)2-9/h3-14H,1-2H2/t3-,4-,5-,6-/m1/s1
INCHIKEY=OXQKEKGBFMQTML-KVTDHHQDSA-N
CLASS="Polyols, Monosaccharides, Carbohydrates"
ADDUCT=[M-H]-
INSTRUMENT=Waters Q-ToF Xevo G2-XS
PRECURSOR_MZ=211.0818
COMPOUND_NAME=Volemitol
ION_MODE=negative
FORMULA=C7H16O7
71.018555 20159.90625 
89.027176 28988.28125 
101.02729 70518.6875 
119.038315 50365.03125 
131.037292 17770.84375 
149.044083 21339.21875 
193.074478 114770.25 
279.486908 215.0 
296.898468 132.0 
310.070648 294.0 
311.008575 125.0 
330.198029 123.0 
332.506927 134.0 
346.792236 114.0 
370.563812 100.0 
410.971527 60.0 
411.507141 83.0 
422.920441 101.0 
476.091949 120.0 
476.879028 99.0 
477.886353 97.0 
514.065674 95.0 
527.93634 90.0 
542.124756 100.0 
565.970642 127.0 
595.895569 122.0 
620.000122 87.0 
622.730469 110.0 
631.592712 85.0 
637.221863 129.0 
669.025879 69.0 
693.314148 130.0 
711.105408 63.0 
711.832214 53.0 
723.898315 86.0 
735.225281 127.0 
767.594849 76.0 
774.011658 131.0 
776.707947 54.0 
778.764954 50.0 
END IONS

BEGIN IONS
RTINSECONDS=188.240997
CHARGE=1-
MSLEVEL=2
SMILES=Cc1c2c(Oc3c(OC2=O)c(c(c(c3C)Cl)OC)C)c(C=O)c(O)c1Cl
INCHI=InChI=1S/C18H14Cl2O6/c1-6-10-17(9(5-21)13(22)11(6)19)25-15-7(2)12(20)14(24-4)8(3)16(15)26-18(10)23/h5,22H,1-4H3
INCHIKEY=SNNDIPJEAQAKTJ-UHFFFAOYSA-N
CLASS=Depsidones
ADDUCT=[M-H+CH3OH]-
INSTRUMENT=Waters Q-ToF Xevo G2-XS
PRECURSOR_MZ=427.0351
COMPOUND_NAME=Argopsin
ION_MODE=negative
FORMULA=C18H14Cl2O6
52.596138 299.0 
57.702457 327.0 
69.000145 2666.433594 
91.01889 482.613037 
99.008667 598.470703 
139.001068 5417.582031 
157.005157 3784.089844 
182.98941 8924.539062 
185.008942 5558.402344 
244.034012 22412.328125 
259.020508 25405.8125 
272.023804 43236.875 
276.021851 37521.34375 
288.020233 48255.71875 
291.045471 43142.625 
308.002533 82124.5625 
316.015564 82067.375 
331.04126 66459.875 
359.036804 114100.75 
367.018372 617214.5 
395.009064 83582.5625 
399.040863 73845.375 
495.019928 741.0 
497.021515 420.80542 
528.963684 459.391113 
530.954224 385.617432 
566.958252 445.850098 
567.961609 364.690674 
571.957947 367.41748 
594.947815 334.0 
596.949341 503.0 
648.886536 167.63916 
664.013367 215.733276 
664.136719 300.0 
667.944336 171.091431 
730.94342 163.913086 
733.838013 286.0 
734.565674 231.0 
738.960999 168.0 
746.948547 229.0 
770.858887 191.0 
END IONS

BEGIN IONS
RTINSECONDS=144.625
CHARGE=1-
MSLEVEL=2
SMILES=O=C1c2c(C)cc(O)c(C=O)c2Oc2c(O1)c(c(c(c2C)C(=O)O)O)COC(=O)/C=C/C(=O)O
INCHI=InChI=1S/C22H16O12/c1-8-5-12(24)10(6-23)19-15(8)22(31)34-20-11(7-32-14(27)4-3-13(25)26)17(28)16(21(29)30)9(2)18(20)33-19/h3-6,24,28H,7H2,1-2H3,(H,25,26)(H,29,30)/b4-3+
INCHIKEY=VEGGRTFDFMUBPD-ONEGZZNKSA-N
CLASS=Depsidones
ADDUCT=[M-H+HCOOH]-
INSTRUMENT=Waters Q-ToF Xevo G2-XS
PRECURSOR_MZ=517.0618
COMPOUND_NAME=Fumarprotocetraric acid
ION_MODE=negative
FORMULA=C22H16O12
68.999619 477.0 
71.018005 1666.992188 
107.011848 981.0 
115.007278 21311.78125 
123.010147 1499.910156 
135.048111 4889.269531 
210.067871 11533.78125 
237.056351 21968.3125 
238.064453 33694.3125 
249.055405 24900.6875 
265.050049 23092.234375 
282.053314 50560.34375 
293.045013 73948.6875 
310.048218 61118.875 
325.071716 270886.5 
337.035217 58180.0 
357.097595 88877.1875 
369.061493 166442.5 
383.076477 22839.40625 
401.087585 666975.0 
401.175995 34599.875 
401.289825 16802.484375 
485.07605 1348.427734 
539.074646 542.733398 
616.011658 698.0 
617.024353 406.71582 
618.03302 168.0 
640.882874 186.0 
682.135986 161.0 
683.990845 116.0 
709.207947 166.0 
716.305054 132.0 
725.973083 117.0 
756.736816 111.0 
774.008118 103.0 
775.998047 92.0 
END IONS

BEGIN IONS
RTINSECONDS=138.931
CHARGE=1-
MSLEVEL=2
SMILES=O=C1c2c(C)cc(OC)c(C=O)c2Oc2c(O1)c(c(c1c2C(O)OC1=O)O)C
INCHI=InChI=1S/C19H14O9/c1-6-4-9(25-3)8(5-20)15-10(6)17(22)27-14-7(2)13(21)11-12(16(14)26-15)19(24)28-18(11)23/h4-5,19,21,24H,1-3H3
INCHIKEY=SKCUFZLDTAYNBZ-UHFFFAOYSA-N
CLASS=Depsidones
ADDUCT=[M-H+HCOOH]-
INSTRUMENT=Waters Q-ToF Xevo G2-XS
PRECURSOR_MZ=431.0614
COMPOUND_NAME=Stictic acid
ION_MODE=negative
FORMULA=C19H14O9
93.038101 3854.509766 
121.032715 6173.371094 
225.06163 101745.1875 
226.063553 129904.5625 
253.056046 173932.375 
254.060013 331420.0 
281.048157 295920.25 
282.053711 725677.5 
301.104584 228246.75 
329.100891 194982.875 
343.123749 768267.0 
344.123047 1010939.0 
387.108917 577572.5 
388.112732 878210.0 
499.089569 757.740723 
514.022583 3083.494141 
515.026733 671.804199 
531.025513 4023.878906 
533.031555 5041.574219 
571.016418 698.0 
576.016296 1757.999023 
577.025269 589.266113 
626.004333 315.688477 
640.99707 285.0 
644.003113 589.0 
686.946289 197.0 
692.96228 444.953125 
693.97052 196.247803 
697.066467 189.0 
704.922546 125.0 
757.652893 116.0 
771.13324 814.466309 
772.135071 185.0 
783.038025 132.0 
END IONS

BEGIN IONS
RTINSECONDS=179.319
CHARGE=1-
MSLEVEL=2
SMILES=Oc1c(C(=O)Oc2c(O)cc(c(C(=O)OC)c2O)CCC)c(CCC)cc(OC)c1
INCHI=InChI=1S/C22H26O8/c1-5-7-12-9-14(28-3)11-15(23)17(12)22(27)30-20-16(24)10-13(8-6-2)18(19(20)25)21(26)29-4/h9-11,23-25H,5-8H2,1-4H3
INCHIKEY=CFXORXZRGPTGFD-UHFFFAOYSA-N
CLASS=Depsides (Didepsides)
ADDUCT=[M-H]-
INSTRUMENT=Waters Q-ToF Xevo G2-XS
PRECURSOR_MZ=417.1549
COMPOUND_NAME=Scrobiculin
ION_MODE=negative
FORMULA=C22H26O8
93.040878 147359.75 
107.019081 112862.25 
149.068939 770006.0 
150.062378 150380.0 
165.055832 1022097.5 
166.056412 294680.5 
193.051071 1072084.0 
194.058029 797898.0 
225.077011 1045656.0 
226.085052 698315.0 
282.125946 1617.670898 
297.08313 2969.03125 
297.149445 3650.931641 
298.082733 1881.657227 
298.140594 5929.191406 
341.145081 35269.5625 
342.146118 32313.703125 
353.200378 2185.853516 
385.129395 263788.75 
386.137115 229944.625 
484.085297 949.458984 
485.139648 2469.0 
507.119781 728.226562 
517.080994 3634.451172 
518.082397 895.700195 
519.084656 1092.396484 
557.071777 723.488281 
562.076904 652.136719 
579.0625 356.0 
585.070618 394.542725 
587.063049 369.62793 
665.211426 324.719727 
696.14032 456.708984 
699.161621 364.503418 
702.164612 302.0 
721.12146 409.0 
722.22937 482.716797 
765.033081 212.0 
793.347168 224.0 
794.383728 201.0 
END IONS

BEGIN IONS
RTINSECONDS=122.321999
CHARGE=1-
MSLEVEL=2
SMILES=O=C1c2c(C)cc(O)cc2Oc2c(O1)cc1c(c2O)C(=O)OC1
INCHI=InChI=1S/C16H10O7/c1-6-2-8(17)4-9-11(6)16(20)23-10-3-7-5-21-15(19)12(7)13(18)14(10)22-9/h2-4,17-18H,5H2,1H3
INCHIKEY=LPUOVEFMUOQBFV-UHFFFAOYSA-N
CLASS=Depsidones
ADDUCT=[2M-H]-
INSTRUMENT=Waters Q-ToF Xevo G2-XS
PRECURSOR_MZ=627.0775
COMPOUND_NAME=Variolaric acid
ION_MODE=negative
FORMULA=C16H10O7
50.350811 107.0 
55.662395 98.0 
58.050713 36.0 
58.341267 47.0 
111.006302 183.0 
123.045807 333.416748 
135.009369 353.548096 
163.00325 4181.144531 
175.040878 806.513184 
197.06456 6811.996094 
213.054703 1111.798828 
225.054977 35719.46875 
241.049805 8367.578125 
269.044952 174095.75 
313.034393 461504.0 
313.109314 21281.265625 
313.212555 9838.09375 
313.354706 2982.173828 
384.651062 66.0 
392.499023 70.0 
399.969666 114.0 
419.872711 72.0 
443.976379 115.0 
445.002625 115.0 
468.753937 90.0 
505.714783 104.0 
512.888611 220.0 
535.032288 173.0 
543.185486 186.0 
562.887268 208.0 
580.969238 343.0 
649.0578 218.127319 
687.074036 82.0 
690.122681 79.0 
691.163269 54.0 
712.046021 76.0 
757.271301 37.0 
785.64502 30.0 
792.680908 19.0 
795.947327 39.0 
END IONS

BEGIN IONS
RTINSECONDS=186.020996
CHARGE=1-
MSLEVEL=2
SMILES=CC(=O)CCCCCCCCCCCCC[C@@H]1OC(=O)C(=C)[C@@H]1C(=O)O
INCHI=InChI=1S/C21H34O5/c1-16(22)14-12-10-8-6-4-3-5-7-9-11-13-15-18-19(20(23)24)17(2)21(25)26-18/h18-19H,2-15H2,1H3,(H,23,24)/t18-,19-/m0/s1
INCHIKEY=SKQHRBRVCRUFSX-OALUTQOASA-N
CLASS=Paraconic acids
ADDUCT=[M-H]-
INSTRUMENT=Waters Q-ToF Xevo G2-XS
PRECURSOR_MZ=365.2328
COMPOUND_NAME=allo-Pertusaric acid
ION_MODE=negative
FORMULA=C21H34O5
69.03775 29313.96875 
71.053154 17555.734375 
83.053619 9343.382812 
85.069641 6742.6875 
123.086533 9964.1875 
155.145126 11993.765625 
169.161728 207758.375 
170.164246 20314.453125 
183.177292 93904.0625 
207.213394 96192.5 
209.193344 27027.4375 
223.208099 35741.4375 
277.25351 1187063.0 
277.310242 665025.0 
277.505585 430311.75 
278.274017 1253645.0 
321.244141 1325835.0 
433.220306 5407.84375 
463.163788 2238.882812 
465.160797 50056.875 
465.251984 2885.691406 
466.163208 15626.804688 
467.172638 3707.931641 
533.148193 1065.116211 
552.180542 629.540527 
556.164368 1062.451172 
581.151123 289.0 
606.144714 290.0 
621.719849 190.0 
649.141357 240.0 
665.105042 240.404541 
681.42334 392.538818 
731.477783 100522.8125 
732.48114 45457.84375 
733.483215 13737.054688 
753.459595 145703.75 
754.463501 72019.3125 
755.468079 19544.9375 
END IONS

BEGIN IONS
RTINSECONDS=159.778
CHARGE=1-
MSLEVEL=2
SMILES=Cc1c2c(Oc3c(OC2=O)c(c(c(c3C)C(=O)O)O)COCC)c(C=O)c(O)c1
INCHI=InChI=1S/C20H18O9/c1-4-27-7-11-15(23)14(19(24)25)9(3)16-18(11)29-20(26)13-8(2)5-12(22)10(6-21)17(13)28-16/h5-6,22-23H,4,7H2,1-3H3,(H,24,25)
INCHIKEY=SPLUKWYWJOQKMJ-UHFFFAOYSA-N
CLASS=Depsidones
ADDUCT=[M-H+HCOOH]-
INSTRUMENT=Waters Q-ToF Xevo G2-XS
PRECURSOR_MZ=447.0927
COMPOUND_NAME=Cetraric acid
ION_MODE=negative
FORMULA=C20H18O9
69.002502 4399.601562 
105.038422 10542.9375 
213.055923 635108.0 
214.058426 215245.75 
228.045242 513903.75 
239.072754 288157.25 
267.065704 597500.0 
268.072632 156913.125 
281.04538 181603.5 
326.076202 149243.25 
339.086365 781354.0 
340.090302 865629.0 
371.112 228609.125 
372.115997 288194.25 
415.102814 957644.0 
416.106506 964310.0 
515.029541 9553.234375 
545.060364 2886.449219 
547.056274 61886.03125 
548.059387 21683.09375 
549.057617 6142.988281 
592.053101 4884.769531 
615.046509 667.283203 
660.034912 604.851074 
669.183838 2639.951172 
670.18634 773.73584 
709.972351 269.731201 
728.032837 279.0 
740.915649 236.0 
773.24762 665.282227 
774.24585 377.0 
774.270081 222.0 
785.196655 212.0 
785.422729 230.0 
END IONS

BEGIN IONS
RTINSECONDS=243.662994
CHARGE=1-
MSLEVEL=2
PRECURSORINTENSITY=485430.250000
SMILES=Cc1cc(c(c2c1C(=O)Oc1c(O2)c2c(c(c1CO)O)C(=O)OC2O)C=O)OC
INCHI=InChI=1S/C19H14O10/c1-6-3-9(26-2)7(4-20)14-10(6)17(23)28-15-8(5-21)13(22)11-12(16(15)27-14)19(25)29-18(11)24/h3-4,19,21-22,25H,5H2,1-2H3
INCHIKEY=FYPCEUKJORJHDL-UHFFFAOYSA-N
CLASS=Depsidones
ADDUCT=[M-H]-
INSTRUMENT=Agilent Q-ToF 6530
PRECURSOR_MZ=401.0477
COMPOUND_NAME=Constictic acid
ION_MODE=negative
FORMULA=C19H14O10
121.017212 22214.59375 
122.033661 3212.068848 
135.008591 6053.403809 
137.041245 4867.745117 
156.411194 4846.59082 
165.039108 6366.520996 
212.046631 16053.643555 
240.042221 26296.150391 
241.046967 8475.042969 
268.037384 27172.390625 
269.04483 8661.006836 
283.054993 21017.220703 
313.059387 11219.225586 
327.059296 8062.126953 
357.071014 117475.398438 
358.074799 31487.15625 
492.265717 62.473682 
496.221069 87.157051 
506.388 68.020836 
507.589966 63.224998 
527.789368 73.160713 
568.23053 55.209999 
586.347107 66.695511 
621.929993 58.432144 
623.336792 76.490387 
623.631104 44.595589 
624.829224 53.685974 
675.489929 50.020832 
681.972473 103.041664 
754.285767 65.685974 
765.264221 113.107452 
766.866577 64.25 
767.142029 63.666668 
791.585083 71.938828 
799.120667 81.75 
845.114807 56.185608 
865.301086 50.445 
882.428589 147.580643 
898.380798 60.020832 
904.326172 54.445 
909.808167 62.5 
932.135925 62.165699 
951.314209 77.889709 
957.241516 55.041668 
977.01709 66.058823 
1002.998535 67.32692 
1014.217346 44.210526 
1023.221069 80.136108 
1032.924683 66.900002 
1065.682129 79.206635 
1082.909912 187.21312 
1090.947998 82.09375 
1119.753174 50.008335 
1134.190918 84.190475 
1164.160156 89.703705 
1164.290161 104.382355 
1173.337891 77.61364 
1201.366943 94.208336 
1216.206665 135.138702 
1232.35083 84.00219 
1255.777954 73.045212 
1256.139526 57.404999 
1272.17688 69.515244 
1310.901855 49.805 
1311.991211 65.003784 
1325.42688 60.0 
1355.882446 52.080128 
1361.836426 69.100807 
1363.110474 56.140625 
1373.863159 57.368904 
1414.330933 62.076218 
1419.944702 58.455647 
1441.628784 66.107758 
1444.277466 111.26535 
1457.053101 132.130432 
1471.48877 64.720589 
1473.30896 55.0 
1477.765381 48.612499 
1537.364624 96.734848 
1541.115356 56.185608 
1544.935181 60.892857 
1551.633057 57.148811 
1554.143311 68.662231 
1593.380005 216.432144 
1627.2052 146.225006 
1652.741211 82.695511 
1659.797852 55.440475 
1667.824341 48.923077 
1680.839844 49.08654 
1683.530884 54.785713 
END IONS

BEGIN IONS
RTINSECONDS=336.795013
CHARGE=1-
MSLEVEL=2
PRECURSORINTENSITY=5355631.500000
SMILES=O=c1c2c(oc3c1c(C)cc(O)c3Cl)cc(O)c(Cl)c2O
INCHI=InChI=1S/C14H8Cl2O5/c1-4-2-5(17)11(16)14-8(4)12(19)9-7(21-14)3-6(18)10(15)13(9)20/h2-3,17-18,20H,1H3
INCHIKEY=GKSZPGKBFDLXNF-UHFFFAOYSA-N
CLASS=Xanthones and bis-Xanthones
ADDUCT=[M-H]-
INSTRUMENT=Agilent Q-ToF 6530
PRECURSOR_MZ=324.9643
COMPOUND_NAME="N 2,5-Dichloronorlichexanthone"
ION_MODE=negative
FORMULA=C14H8Cl2O5
103.018982 6783.306152 
113.038475 11354.035156 
141.016479 27315.578125 
169.028702 118325.648438 
197.02298 44372.054688 
205.00502 38011.503906 
217.00563 53072.519531 
233.000977 264013.90625 
260.99585 628015.1875 
261.999512 111609.398438 
262.993866 79735.640625 
384.069092 84.215424 
406.248138 135.512192 
432.945801 181.07753 
445.567474 76.061272 
454.227631 89.25 
480.62738 72.038795 
484.16153 78.247643 
507.758575 99.222404 
542.234924 49.842106 
575.21936 67.779411 
583.423828 61.490383 
600.222839 66.041664 
625.395874 55.512501 
633.371216 83.532608 
636.848938 80.027435 
650.51593 54.041668 
712.267334 76.0 
713.56012 46.003571 
716.043396 45.30682 
752.453308 59.80357 
754.267395 91.043106 
761.96875 69.595589 
772.66687 56.625 
797.548096 60.375 
797.85437 56.333332 
850.790039 46.285713 
854.025696 55.013157 
859.838135 74.598404 
861.866272 62.022728 
890.575134 60.224998 
906.346008 55.555557 
920.108582 55.022728 
948.05127 166.297836 
972.979248 128.736847 
987.65271 58.125 
987.989014 81.695511 
1016.099304 59.363636 
1018.723694 70.444443 
1077.731323 57.089287 
1080.937988 54.003571 
1093.65625 88.280174 
1098.079224 65.065788 
1112.667847 122.045456 
1120.920898 55.259617 
1176.038086 133.003784 
1177.169067 47.112499 
1179.292847 56.907257 
1189.685669 52.125 
1232.199951 89.215515 
1232.461548 58.307693 
1234.021973 177.692307 
1268.990479 95.219597 
1282.227295 62.014706 
1289.709473 167.75 
1291.228882 111.135002 
1321.921021 122.054825 
1330.115845 53.083332 
1378.723022 54.136112 
1386.779297 52.889286 
1391.03064 68.75 
1392.740479 112.633774 
1392.830688 94.166664 
1422.980713 89.120094 
1457.426147 82.695511 
1460.529541 64.224998 
1462.021851 72.102272 
1518.169434 51.076923 
1518.308838 72.523552 
1528.293701 56.25 
1532.750122 68.160004 
1541.992188 68.53125 
1590.943359 56.011906 
1593.329834 77.760002 
1593.407715 55.004032 
1605.219971 103.396736 
1632.000732 172.213028 
1657.829102 49.125 
1661.993164 57.025002 
1686.790039 61.246952 
1689.661255 47.25 
1692.580566 49.125 
END IONS

BEGIN IONS
RTINSECONDS=480.209015
CHARGE=1-
MSLEVEL=2
PRECURSORINTENSITY=3681016.750000
SMILES=CCCCCCCCCCCCCC[C@H](C(=O)OC)[C@@H](C(=O)O)CC(=O)O
INCHI=InChI=1S/C21H38O6/c1-3-4-5-6-7-8-9-10-11-12-13-14-15-17(21(26)27-2)18(20(24)25)16-19(22)23/h17-18H,3-16H2,1-2H3,(H,22,23)(H,24,25)/t17-,18-/m0/s1
INCHIKEY=LGCPAGYPUFWEBQ-ROUUACIJSA-N
CLASS=Acids
ADDUCT=[M-H]-
INSTRUMENT=Agilent Q-ToF 6530
PRECURSOR_MZ=385.2487
COMPOUND_NAME=Rangiformic acid
ION_MODE=negative
FORMULA=C21H38O6
108.022881 1201.17395 
112.016632 977.167419 
114.992729 8252.134766 
124.015587 11458.074219 
125.019867 1129.360107 
129.020096 6560.968262 
255.231583 64283.511719 
265.253052 1063217.25 
266.255981 338795.8125 
293.210876 113626.679688 
294.214783 35736.359375 
309.252075 98044.6875 
353.245544 1073983.75 
354.226379 367755.46875 
468.595093 48.337963 
496.975616 37.090908 
513.677368 35.025002 
521.901428 106.564026 
528.961609 162.206635 
557.736084 47.149391 
586.355774 87.432144 
590.762573 117.657784 
609.040344 131.136368 
621.654663 167.077591 
637.727905 143.401917 
649.75531 122.344177 
652.632446 157.339279 
689.689087 132.237366 
728.963135 163.90625 
729.433289 130.899994 
745.604309 93.375 
776.727722 75.059212 
781.994324 63.028847 
809.003784 68.75 
817.983521 201.088776 
827.502258 115.787041 
857.851318 152.20192 
865.274292 147.987671 
869.813293 137.322586 
881.481323 123.640961 
902.662659 124.070206 
904.949524 153.008331 
917.049744 120.142609 
959.425781 191.27272 
973.141663 55.041668 
975.68396 124.906746 
984.084839 150.92276 
1015.700195 197.455811 
1024.457031 121.370613 
1052.152832 74.022957 
1087.3302 143.673615 
1105.895996 57.361111 
1144.390137 119.236763 
1145.935547 233.765961 
1148.309814 125.0839 
1148.934814 131.274353 
1207.116699 36.560184 
1207.40332 53.291668 
1209.842529 40.25 
1227.193115 113.361115 
1245.676758 44.173077 
1254.580688 127.559998 
1274.824097 47.361111 
1311.487915 58.80357 
1318.113525 52.047619 
1335.650757 119.814514 
1341.117554 71.720589 
1360.502075 207.10257 
1364.672729 113.002357 
1405.792847 119.668648 
1414.606689 52.041668 
1424.53894 120.207146 
1439.296021 37.920456 
1454.911133 70.612503 
1472.67981 138.391129 
1493.707275 33.005001 
1497.827271 43.284092 
1508.678101 147.630203 
1562.209839 49.720238 
1572.162109 32.785713 
1592.197754 175.931335 
1597.634277 228.361481 
1599.557983 43.259617 
1607.744995 36.693966 
1658.547974 50.059212 
1664.001465 83.75 
1678.036255 37.333332 
1686.672607 73.675003 
1698.32019 24.173077 
END IONS

BEGIN IONS
RTINSECONDS=525.525024
CHARGE=1-
MSLEVEL=2
PRECURSORINTENSITY=1279067.000000
SMILES=Oc1c(C(=O)Oc2cc(CCCCCCC)c(c(O)c2)C(=O)O)c(C)cc(OC)c1
INCHI=InChI=1S/C23H28O7/c1-4-5-6-7-8-9-15-11-17(13-19(25)21(15)22(26)27)30-23(28)20-14(2)10-16(29-3)12-18(20)24/h10-13,24-25H,4-9H2,1-3H3,(H,26,27)
INCHIKEY=LNAYIVMXSQCRRC-UHFFFAOYSA-N
CLASS=Depsides (Didepsides)
ADDUCT=[M-H]-
INSTRUMENT=Agilent Q-ToF 6530
PRECURSOR_MZ=415.1707
COMPOUND_NAME=Sphaerophorin
ION_MODE=negative
FORMULA=C23H28O7
105.034309 9165.892578 
106.040825 2451.272949 
122.036636 4222.262695 
163.142975 18438.996094 
165.135406 36970.714844 
189.128052 61481.9375 
207.137665 194428.53125 
233.117172 611610.75 
234.120361 142482.484375 
251.127716 1177104.0 
252.130905 246236.46875 
311.164337 3542.062988 
312.1698 1421.493896 
327.192535 3621.358643 
328.193512 1736.827759 
353.168701 753.872192 
371.188049 2080.63208 
499.288269 132.142853 
508.444641 83.165321 
517.524231 161.382935 
545.728455 136.791672 
560.681763 120.020836 
588.132629 190.462967 
590.435425 104.640961 
612.733826 158.470581 
655.125 220.880005 
667.476074 83.565216 
670.240051 163.778839 
672.974731 119.210526 
674.266052 110.756248 
739.443542 68.247643 
744.259277 102.091415 
744.4245 69.571426 
747.771484 113.449997 
781.788086 160.972824 
801.242371 65.520836 
803.699036 127.125 
807.225464 95.012497 
831.933044 79.760414 
851.317261 67.666664 
856.96875 106.223213 
888.68335 187.183823 
890.947998 59.191036 
904.36969 124.612289 
943.593384 180.080887 
952.888306 74.387932 
962.779602 85.414215 
966.457703 172.81636 
988.719788 198.484848 
1024.708374 127.156693 
1033.704224 78.07692 
1034.386353 87.23214 
1043.290527 107.08036 
1060.261475 84.190475 
1100.665649 55.240383 
1109.174438 80.0 
1118.375122 75.010872 
1128.484863 77.041664 
1144.196899 45.0 
1175.36145 51.36842 
1196.845093 42.150002 
1202.478271 93.04808 
1211.471558 43.23077 
1220.62207 112.440475 
1265.136353 128.315796 
1273.842896 84.083336 
1287.71936 129.695511 
1293.930786 161.454895 
1303.876221 91.089996 
1330.042114 164.846649 
1340.253052 280.490234 
1374.628784 91.428574 
1392.722778 63.25 
1424.579956 72.076218 
1425.688721 71.612289 
1438.964111 33.100807 
1440.570312 67.78241 
1466.813354 61.244999 
1494.652222 63.174999 
1537.431763 77.052963 
1549.801758 64.17308 
1551.533691 115.033333 
1551.632935 41.900002 
1556.222534 122.333336 
1576.152954 71.637192 
1603.430786 75.387817 
1617.009399 85.002907 
1628.511963 91.189392 
1632.392212 120.976349 
1657.102783 54.0625 
1663.986694 110.476692 
1669.306274 68.556816 
1669.475586 50.80357 
END IONS

BEGIN IONS
RTINSECONDS=469.674988
CHARGE=1-
MSLEVEL=2
PRECURSORINTENSITY=1315284.875000
SMILES=CC[C@@H](C)C[C@@H](C)[C@@H]([C@H](C)C(=O)O[C@@H]([C@H](C)C[C@H](C)CC)[C@H](C)C(=O)O)O
INCHI=InChI=1S/C22H42O5/c1-9-13(3)11-15(5)19(23)17(7)22(26)27-20(18(8)21(24)25)16(6)12-14(4)10-2/h13-20,23H,9-12H2,1-8H3,(H,24,25)/t13-,14-,15-,16-,17+,18+,19+,20+/m1/s1
INCHIKEY=ZQEUMOKDJCSNHB-IHRHECOVSA-N
CLASS=Acids
ADDUCT=[M-H]-
INSTRUMENT=Agilent Q-ToF 6530
PRECURSOR_MZ=385.2923
COMPOUND_NAME=Bourgeanic acid
ION_MODE=negative
FORMULA=C22H42O5
100.920258 190.291672 
114.133209 170.044113 
116.954514 316.410522 
127.113312 335.282043 
201.149582 3749866.0 
201.290802 236721.6875 
201.964737 668.747192 
202.152451 531000.5625 
202.274414 975.31427 
203.154465 26195.583984 
257.172058 537.815308 
283.060364 216.121948 
284.082062 462.018585 
301.076294 1046.514038 
302.081909 1007.492188 
308.177155 160.041672 
438.201752 199.213379 
461.567627 129.777771 
466.690796 120.612808 
483.772278 110.764709 
519.529907 87.315216 
537.686157 76.384613 
543.487732 169.92276 
551.414978 121.756149 
571.477356 136.739761 
574.90741 96.401924 
594.860962 115.931335 
607.14679 126.003784 
622.182129 57.892857 
643.822449 106.347824 
683.189514 114.59375 
687.225464 52.76923 
713.64917 129.100357 
720.113708 54.242645 
732.026978 141.81395 
737.260681 71.559998 
739.576294 126.533226 
782.748657 50.570652 
814.618958 60.469444 
814.743713 56.670456 
819.703735 51.375 
839.470581 124.880432 
840.234375 79.384613 
870.936279 53.625 
878.572693 58.266304 
883.077026 84.185608 
899.998291 92.920921 
924.026367 57.375 
941.971375 46.89352 
950.637634 43.041668 
959.144165 47.025002 
966.85083 130.39859 
966.950134 43.111843 
1020.412048 91.0 
1029.953735 127.336113 
1034.508789 62.347828 
1037.009521 55.560184 
1038.540771 49.674999 
1043.600464 56.816666 
1089.723267 145.129028 
1091.45459 91.786766 
1096.685669 71.246948 
1110.470337 119.939392 
1118.243408 66.049416 
1127.255859 43.840908 
1175.330566 43.25 
1179.083374 70.281975 
1189.098267 53.066666 
1197.373413 202.024231 
1216.011475 80.25 
1236.601318 46.236702 
1243.070923 57.025002 
1271.985352 149.595749 
1294.681641 45.322369 
1303.870728 44.575001 
1320.555908 169.510635 
1362.072754 79.160713 
1363.270752 68.06649 
1365.833618 131.484848 
1372.706421 123.578949 
1394.088867 62.094696 
1399.656982 114.321426 
1447.785278 60.889286 
1461.646851 54.78125 
1461.771118 95.969826 
1485.044678 46.272728 
1494.678467 137.289291 
1539.448975 52.076923 
1540.013428 96.387817 
1556.542847 54.444767 
1560.087402 48.002907 
1560.285278 69.574997 
1594.581665 85.880432 
1614.683105 68.765625 
1641.168335 54.349136 
1646.254517 216.262985 
1646.524414 71.337959 
1649.133057 45.112499 
1686.761841 163.25 
1691.137207 38.111488 
1697.03186 26.25 
END IONS

BEGIN IONS
RTINSECONDS=404.256012
CHARGE=1-
MSLEVEL=2
PRECURSORINTENSITY=5135012.000000
SMILES=Oc1cc(OC(=O)c2c(O)cc(O)cc2CC(=O)CCCCC)cc(CCCCC)c1C(=O)O
INCHI=InChI=1S/C26H32O8/c1-3-5-7-9-16-13-20(15-22(30)23(16)25(31)32)34-26(33)24-17(12-19(28)14-21(24)29)11-18(27)10-8-6-4-2/h12-15,28-30H,3-11H2,1-2H3,(H,31,32)
INCHIKEY=VZPLPGICHZXOCQ-UHFFFAOYSA-N
CLASS=Depsides (Didepsides)
ADDUCT=[M-H]-
INSTRUMENT=Agilent Q-ToF 6530
PRECURSOR_MZ=471.1939
COMPOUND_NAME=Olivetoric acid
ION_MODE=negative
FORMULA=C26H32O8
105.082535 138726.28125 
123.044479 136918.09375 
137.097015 134835.328125 
149.024216 482376.9375 
179.107544 1405816.375 
180.093307 365676.15625 
223.097504 2072279.75 
224.100891 623446.75 
247.097198 486321.625 
248.100342 186569.109375 
265.10788 342535.15625 
336.843323 197.033585 
354.145386 399.449066 
383.220581 4047.89209 
384.218384 3248.691895 
385.218384 352.840027 
409.20224 549.93103 
410.205505 252.891891 
547.369812 147.149994 
550.580933 114.675003 
559.707764 182.975616 
594.815918 195.504166 
603.751099 226.211212 
607.648132 122.844299 
622.523193 132.431122 
626.304382 115.340912 
633.438538 121.0 
659.456848 107.165543 
703.941772 98.248291 
711.548828 82.337959 
718.555237 172.360657 
718.867371 78.470589 
720.833557 82.019737 
758.623657 227.140503 
769.692383 103.032143 
778.096008 114.419777 
799.538208 131.462845 
836.359375 100.287338 
843.736511 134.225006 
850.47168 100.01461 
877.073303 137.035721 
880.477417 166.689651 
885.165039 157.401917 
930.979736 98.635201 
947.20929 149.0 
965.434021 127.284485 
974.544922 114.875 
999.147522 153.274353 
1010.236816 108.072678 
1010.835938 92.894737 
1026.980591 83.769234 
1029.098389 78.132355 
1073.948608 79.153847 
1091.052734 88.025002 
1095.408203 146.653229 
1103.666748 107.444771 
1109.563599 104.041664 
1152.719116 89.703705 
1158.239258 82.010002 
1160.863037 88.133331 
1184.16748 88.34375 
1192.714233 91.247643 
1209.069214 112.041664 
1218.46167 94.002548 
1231.312744 95.333336 
1260.737793 214.840057 
1297.540283 108.375 
1304.116577 92.002449 
1308.667725 83.257141 
1321.096436 153.107452 
1327.41394 140.570953 
1366.953125 206.64006 
1384.904785 119.508926 
1401.407593 142.054825 
1422.460205 164.480637 
1443.296753 100.449997 
1446.941162 93.235466 
1477.873535 100.640152 
1494.980713 83.722221 
1512.656616 103.308823 
1532.935059 125.782532 
1539.876343 132.53125 
1554.99585 147.469162 
1575.229614 113.564812 
1603.679443 144.633621 
1608.21228 149.344177 
1631.118164 84.449997 
1639.263428 139.720245 
1669.193726 80.071426 
1693.020874 71.005951 
END IONS

BEGIN IONS
RTINSECONDS=626.064026
CHARGE=1-
MSLEVEL=2
PRECURSORINTENSITY=380512.687500
SMILES=Oc1c(C(=O)Oc2cc(CCCCC)c(c(O)c2)C(=O)O)c(CCCCC)cc(OC)c1
INCHI=InChI=1S/C25H32O7/c1-4-6-8-10-16-13-19(15-20(26)22(16)24(28)29)32-25(30)23-17(11-9-7-5-2)12-18(31-3)14-21(23)27/h12-15,26-27H,4-11H2,1-3H3,(H,28,29)
INCHIKEY=UTAQXQVSEKIWBB-UHFFFAOYSA-N
CLASS=Depsides (Didepsides)
ADDUCT=[M-H]-
INSTRUMENT=Agilent Q-ToF 6530
PRECURSOR_MZ=443.1995
COMPOUND_NAME=Perlatolic acid
ION_MODE=negative
FORMULA=C25H32O7
105.060905 1696.335083 
135.169067 6591.023926 
137.16716 9431.868164 
161.091034 22442.234375 
179.107071 73965.789062 
205.086563 267539.1875 
206.089905 48544.484375 
223.097382 897492.0 
224.100433 175910.109375 
225.103058 14572.320312 
237.123978 3927.694336 
282.125824 359.06131 
284.139221 419.305878 
297.134583 351.002594 
339.201477 2057.469971 
340.198547 656.151245 
355.226837 3463.544922 
356.229126 1097.204834 
399.22049 2531.266846 
536.118286 117.612289 
546.219788 115.278412 
556.388672 55.002777 
579.512329 169.476486 
587.409241 169.735001 
629.818237 109.889999 
635.105835 112.03125 
636.039307 63.246952 
648.580872 110.321426 
687.28656 210.900421 
688.505066 191.325577 
698.00238 109.615387 
722.68927 108.0625 
755.86908 103.680557 
763.914246 88.022057 
788.780579 112.285713 
793.74353 105.16346 
818.096436 187.697784 
818.199463 138.979645 
827.805298 84.349998 
863.78479 63.473682 
870.206299 110.25798 
883.720093 67.778847 
928.196838 80.0 
929.109436 104.346153 
943.1875 135.111359 
946.096924 108.056816 
966.366272 100.165321 
983.335754 56.0 
994.999634 126.111115 
1001.671387 41.0 
1027.169312 48.881096 
1070.379639 139.068817 
1087.678223 98.535004 
1090.462769 124.507812 
1094.466797 181.152771 
1102.101685 117.563354 
1105.070801 79.678574 
1150.353271 74.587265 
1150.484619 44.322369 
1202.486572 171.703705 
1203.411865 78.004036 
1224.374023 130.07753 
1226.079712 162.633728 
1236.426025 88.17308 
1239.989868 175.686798 
1302.667114 60.100609 
1317.22876 43.44643 
1327.95105 52.841217 
1341.880249 45.044998 
1346.619873 49.224998 
1369.358521 102.92308 
1382.754883 41.875 
1395.154297 121.102562 
1404.204224 45.5 
1448.458374 32.570946 
1451.071777 261.661407 
1466.738892 54.115742 
1501.830566 48.470589 
1503.466797 174.063049 
1506.67981 168.189392 
1526.877075 70.130318 
1546.364502 111.507812 
1566.528076 41.017857 
1574.82605 38.5 
1585.508545 39.027439 
1604.713623 51.67857 
1629.661743 37.640152 
1644.485107 61.33654 
1655.391602 52.333332 
1665.890503 72.911362 
1685.918091 58.44643 
1685.996582 46.005001 
1688.456299 67.125 
1695.294434 35.1875 
END IONS

BEGIN IONS
RTINSECONDS=381.584015
CHARGE=1-
MSLEVEL=2
PRECURSORINTENSITY=353395.625000
SMILES=O=C1c2c(C)c(Cl)c(O)c(Cl)c2Oc2c(O1)cc(c(c2C)C(=O)OC)OC
INCHI=InChI=1S/C18H14Cl2O7/c1-6-11-16(13(20)14(21)12(6)19)27-15-7(2)10(17(22)25-4)8(24-3)5-9(15)26-18(11)23/h5,21H,1-4H3
INCHIKEY=RPHAAJGBADUATP-UHFFFAOYSA-N
CLASS=Depsidones
ADDUCT=[M-H]-
INSTRUMENT=Agilent Q-ToF 6530
PRECURSOR_MZ=411.0
COMPOUND_NAME=Gangaleoidin
ION_MODE=negative
FORMULA=C18H14Cl2O7
112.985718 191.640961 
194.071167 806.096863 
293.976685 12803.605469 
295.977234 9421.648438 
308.001038 8434.685547 
351.989471 16082.623047 
353.988892 12490.179688 
360.003632 10820.448242 
375.030273 17295.1875 
480.344086 96.004311 
488.699158 85.224998 
496.394592 62.066666 
544.183716 51.455647 
551.701355 49.036289 
573.498657 66.003204 
581.847778 59.308823 
588.769165 80.125 
593.572388 54.16 
622.265808 56.907257 
653.365723 39.657608 
656.643982 60.694443 
663.299438 119.111115 
707.4245 76.227272 
709.477051 57.722221 
710.917603 66.80278 
721.464783 46.017857 
740.276978 43.625 
763.698242 85.59259 
792.049866 99.246948 
812.595886 125.056252 
813.542175 64.840912 
827.310059 65.003204 
860.345337 72.490387 
871.802734 71.592216 
884.749084 48.041668 
907.454651 57.135868 
922.016602 43.0 
944.330688 67.020454 
947.561157 45.164474 
968.164673 77.107758 
999.550903 74.260414 
1001.6875 53.235294 
1003.002747 175.35556 
1003.292419 48.669445 
1032.777344 70.814812 
1053.604248 66.014709 
1060.095825 33.125 
1073.607544 65.047623 
1075.854614 38.942307 
1112.090332 52.785713 
1117.835571 66.222824 
1127.540039 42.052631 
1134.597534 33.778847 
1182.200439 115.0 
1190.766235 126.654411 
1228.249634 94.081665 
1232.45459 151.814514 
1234.779785 165.340271 
1264.082275 94.035713 
1267.136841 61.337963 
1286.778809 99.414215 
1317.738159 76.013161 
1327.384766 56.388889 
1342.591797 87.592102 
1343.383911 71.140625 
1381.641602 55.05357 
1428.859009 102.0 
1433.87793 63.263157 
1433.973633 50.005436 
1482.207153 46.30682 
1484.139648 58.25 
1491.877319 54.052631 
1495.085693 36.148811 
1505.52002 36.480263 
1546.207397 38.242645 
1576.755981 31.008333 
1628.506348 29.266666 
1629.564575 29.272728 
1658.968628 86.406914 
1662.463867 47.894737 
END IONS

BEGIN IONS
RTINSECONDS=358.593994
CHARGE=1-
MSLEVEL=2
PRECURSORINTENSITY=330758.125000
SMILES=Cc1cc(=O)c2c(c(C)c(O[C@H]3[C@H](OC(=O)C)[C@@H](OC(=O)C)[C@H](OC(=O)C)[C@@H](COC(=O)C)O3)cc2O)o1
INCHI=InChI=1S/C25H28O13/c1-10-7-16(30)20-17(31)8-18(11(2)21(20)33-10)37-25-24(36-15(6)29)23(35-14(5)28)22(34-13(4)27)19(38-25)9-32-12(3)26/h7-8,19,22-25,31H,9H2,1-6H3/t19-,22-,23+,24-,25-/m1/s1
INCHIKEY=NWASWCGVBSEDJX-HYOIWIKGSA-N
CLASS=Chromanes and Chromones
ADDUCT=[M-H]-
INSTRUMENT=Agilent Q-ToF 6530
PRECURSOR_MZ=535.1378
COMPOUND_NAME=Acetylloboridin
ION_MODE=negative
FORMULA=C25H28O13
108.025291 177.333328 
121.088921 417.260315 
135.112625 506.612488 
163.002441 2320.839355 
175.142334 1917.976318 
203.042755 1386.756714 
204.042328 46886.957031 
205.048767 44833.824219 
206.052383 8845.933594 
271.061646 365.301941 
272.058167 355.79892 
313.072662 486.771637 
331.086212 730.078003 
332.082794 590.793945 
373.095184 841.092773 
374.092224 491.505157 
391.10733 707.125 
392.112976 542.965088 
433.110748 1785.591797 
434.118042 1621.207397 
435.121948 392.764923 
493.135284 1186.848877 
494.134674 1870.459229 
625.79303 70.5625 
647.346069 55.692307 
662.096497 58.765625 
685.751282 72.0625 
692.88855 57.157051 
700.141113 79.003052 
702.137695 71.800003 
720.023743 78.84375 
763.339661 84.020836 
769.741394 46.149391 
773.305664 45.603573 
787.500732 60.625 
817.253662 64.979652 
823.060303 47.0 
824.02063 39.059212 
829.995117 48.224998 
886.518921 48.778225 
896.005798 34.339287 
913.972839 52.125 
930.758728 54.032143 
941.962524 56.0 
972.393555 54.017857 
998.186646 36.011906 
998.35376 46.556034 
1032.723755 52.615383 
1044.290649 60.787163 
1095.706909 78.778229 
1097.125244 59.142441 
1115.092041 50.025002 
1116.006714 48.014706 
1139.605713 104.002274 
1148.459839 44.644737 
1177.221313 48.671295 
1207.469238 65.476692 
1218.989502 46.799999 
1220.329102 55.003571 
1226.848877 74.030304 
1251.41626 122.136238 
1287.067871 109.618149 
1293.620361 40.291668 
1300.10437 51.0 
1332.552979 45.273647 
1358.641846 28.111111 
1376.771606 28.778847 
1393.264282 28.595589 
1403.418945 43.224998 
1440.719971 52.01923 
1445.345459 39.015625 
1447.54834 39.760136 
1448.303345 54.022728 
1488.404663 57.140625 
1500.672485 55.025002 
1504.816895 57.583332 
1510.495361 48.816666 
1527.269897 98.59375 
1565.449219 83.5625 
1568.224243 49.671295 
1603.496948 28.0 
1641.070801 65.454544 
1647.125732 47.076923 
1653.007324 27.796053 
1653.73584 43.6875 
1672.994019 38.07143 
END IONS

BEGIN IONS
RTINSECONDS=303.868011
CHARGE=1-
MSLEVEL=2
PRECURSORINTENSITY=1548009.750000
SMILES=Cc1cc(=O)c2c(o1)c(c(c(c2O)C)O)Cl
INCHI=InChI=1S/C11H9ClO4/c1-4-3-6(13)7-9(14)5(2)10(15)8(12)11(7)16-4/h3,14-15H,1-2H3
INCHIKEY=OFIWISPGMYFUGQ-UHFFFAOYSA-N
CLASS=Chromanes and Chromones
ADDUCT=[M-H]-
INSTRUMENT=Agilent Q-ToF 6530
PRECURSOR_MZ=239.0089
COMPOUND_NAME=Rupicolin (sordidone)
ION_MODE=negative
FORMULA=C11H9ClO4
119.014206 37939.753906 
133.02861 11959.041992 
135.026138 16746.019531 
147.04425 92563.328125 
175.039444 125414.679688 
176.042862 18446.759766 
203.035034 34560.707031 
303.114105 106.449997 
336.103638 148.064285 
343.233337 90.455643 
344.681274 129.079544 
353.057831 84.63636 
355.981873 113.094231 
406.583557 83.734756 
435.272644 53.333332 
449.628174 55.284092 
451.391174 57.125 
453.831757 68.063774 
482.272369 122.698273 
512.743103 43.148811 
531.382751 69.666664 
543.366089 75.375 
579.976379 169.130203 
599.627258 63.094696 
600.487549 149.917557 
621.105164 66.644997 
670.690552 183.859512 
672.505676 98.165321 
727.579407 74.10714 
734.632446 124.001923 
737.269348 69.003052 
737.871643 71.449997 
738.655518 79.391129 
777.71582 81.01136 
811.840515 37.471153 
814.609192 46.431122 
820.038452 40.360294 
838.766174 43.125 
878.153931 156.017303 
890.760925 93.007576 
904.995911 50.013889 
950.116577 103.900421 
955.54834 43.363636 
960.858093 77.848076 
980.546753 49.440216 
996.534119 51.793606 
1006.548279 45.89352 
1017.210083 49.398586 
1050.339966 78.693962 
1066.780884 80.625 
1069.070312 42.244999 
1076.824707 46.78125 
1117.087402 70.275002 
1121.180542 136.001709 
1141.404053 54.349998 
1142.335083 84.964622 
1143.105835 62.0 
1173.518066 45.125 
1194.923096 96.173782 
1238.682739 73.040001 
1249.237061 140.547302 
1254.637207 95.306816 
1256.048462 103.125 
1261.408203 59.130318 
1291.829468 59.0 
1321.535278 65.520836 
1344.090332 84.137932 
1352.076294 68.014709 
1369.641968 45.0 
1380.566772 44.245689 
1387.892334 95.722221 
1426.816162 143.309067 
1430.653809 88.0 
1436.262207 77.58036 
1457.300781 63.799999 
1474.709961 82.333336 
1503.920288 136.283447 
1521.547607 80.24662 
1527.867676 78.571426 
1543.405273 193.336105 
1565.316772 86.009613 
1575.59021 163.533234 
1596.227051 48.005436 
1629.256714 86.846153 
1651.826294 70.013885 
1660.796509 48.222221 
1662.950073 66.671295 
1678.001343 196.014618 
1693.364014 53.30682 
END IONS

BEGIN IONS
RTINSECONDS=404.274994
CHARGE=1-
MSLEVEL=2
PRECURSORINTENSITY=178146.406250
SMILES=O=c1c2c(O)cc(C)c3c2c(C(=C(O)C3=O)OC)co1
INCHI=InChI=1S/C14H10O6/c1-5-3-7(15)10-9-6(4-20-14(10)18)13(19-2)12(17)11(16)8(5)9/h3-4,15,17H,1-2H3
INCHIKEY=GJSCVPZGPZIBMU-UHFFFAOYSA-N
CLASS=Naphthopyranes
ADDUCT=[M-H]-
INSTRUMENT=Agilent Q-ToF 6530
PRECURSOR_MZ=273.03
COMPOUND_NAME=Simonyellin
ION_MODE=negative
FORMULA=C14H10O6
118.163353 507.581635 
129.752548 4394.85498 
146.036148 2261.107422 
158.042953 2828.053711 
201.028687 9297.020508 
202.018341 1546.49707 
214.024597 1895.13147 
229.06308 4515.374023 
336.765228 128.705246 
356.794739 71.083336 
360.184998 87.090912 
368.938812 84.391304 
384.416046 64.480766 
384.857819 86.01786 
410.05481 58.23077 
442.888672 66.541664 
452.801392 57.076218 
455.771545 53.969826 
461.626617 106.18409 
464.406281 78.0 
519.653503 47.190475 
535.394531 71.125 
563.949951 46.107758 
566.332642 45.900002 
582.52301 41.487904 
588.482422 50.1875 
591.933044 52.115742 
END IONS

BEGIN IONS
RTINSECONDS=425.532013
CHARGE=1-
MSLEVEL=2
PRECURSORINTENSITY=428827.875000
SMILES=O=c1oc(CCCCC)cc2c1c(cc(c2)OC)Oc1c(CC(=O)CCCCC)c(C(=O)O)c(O)cc1O
INCHI=InChI=1S/C29H34O9/c1-4-6-8-10-18(30)14-21-26(28(33)34)22(31)16-23(32)27(21)38-24-15-20(36-3)13-17-12-19(11-9-7-5-2)37-29(35)25(17)24/h12-13,15-16,31-32H,4-11,14H2,1-3H3,(H,33,34)
INCHIKEY=NDOGMEJTCDSZAS-UHFFFAOYSA-N
CLASS=Diphenylethers
ADDUCT=[M-H]-
INSTRUMENT=Agilent Q-ToF 6530
PRECURSOR_MZ=525.2062
COMPOUND_NAME=Beta-Collatolic acid
ION_MODE=negative
FORMULA=C29H34O9
111.00927 1408.120239 
123.00885 2110.830322 
137.069885 2242.320312 
161.024261 1426.877686 
165.019333 3380.270508 
166.022339 1416.03125 
191.048386 2905.256836 
219.101379 4516.253906 
257.116547 3732.551514 
261.112305 8127.450195 
262.11499 4743.128418 
270.055756 3084.738525 
284.067993 3152.828125 
285.07486 3508.960205 
340.162872 3239.440674 
367.119751 4792.139648 
368.123657 11318.972656 
369.128937 8186.175293 
383.147705 11627.638672 
384.152496 8911.666992 
410.133362 3431.826416 
438.233246 2762.36084 
464.213654 2473.983643 
481.22464 6192.103027 
482.227661 9521.833984 
584.523315 69.605003 
622.044189 46.00658 
634.565796 54.100807 
651.581116 64.862068 
676.567627 125.80278 
687.864929 81.533333 
696.943481 56.1875 
704.985718 56.68145 
743.263428 54.003571 
750.270264 124.673615 
769.467896 95.125 
782.344055 59.16346 
812.492004 90.043106 
824.502869 105.340279 
838.748962 49.185608 
839.904297 121.445984 
880.324646 132.093018 
884.764587 173.85965 
900.073303 59.920456 
902.280579 53.346153 
942.388733 89.458336 
986.512939 74.26667 
1006.407471 46.0 
1010.567139 46.450001 
1022.020264 50.205002 
1037.212646 61.42857 
1040.545654 88.066666 
1062.111572 120.025002 
1075.828369 60.56818 
1085.895508 75.14286 
1108.126953 179.266312 
1115.718506 56.80357 
1136.52356 59.090908 
1166.632446 69.284088 
1168.269653 65.130432 
1177.429077 57.0 
1205.757324 74.265625 
1237.859253 44.00338 
1248.470093 69.469444 
1278.322266 67.326614 
1296.635254 48.557693 
1299.87561 68.760414 
1307.365601 49.002777 
1319.684082 58.100609 
1352.844238 54.003048 
1363.598145 63.816666 
1368.377563 42.01923 
1370.294556 40.066666 
1400.571899 75.025002 
1410.257812 46.017857 
1422.14209 45.599998 
1451.978638 50.197582 
1468.76062 90.25 
1469.801392 88.571426 
1486.909668 42.5625 
1527.973633 45.654411 
1528.869629 73.384094 
1541.981812 81.14286 
1544.096924 70.760414 
1573.239868 49.881096 
1590.271362 57.882355 
1597.776245 143.243896 
1598.459473 45.132355 
1636.182495 82.515625 
1653.150879 47.462837 
1656.212891 44.30682 
1670.473022 64.5 
1687.315674 59.099998 
END IONS

BEGIN IONS
RTINSECONDS=249.044998
CHARGE=1-
MSLEVEL=2
PRECURSORINTENSITY=2935783.750000
SMILES=O=C(O)c1c(CCC)cc(O)cc1O
INCHI=InChI=1S/C10H12O4/c1-2-3-6-4-7(11)5-8(12)9(6)10(13)14/h4-5,11-12H,2-3H2,1H3,(H,13,14)
INCHIKEY=RIVVNGIVVYEIRS-UHFFFAOYSA-N
CLASS=Cleavage Products of Depsides and Depsidones
ADDUCT=[M-H]-
INSTRUMENT=Agilent Q-ToF 6530
PRECURSOR_MZ=195.0702
COMPOUND_NAME=Divaric acid
ION_MODE=negative
FORMULA=C10H12O4
107.071701 459455.9375 
109.065643 1221660.375 
110.069038 103814.757812 
122.037224 228888.8125 
151.075958 683233.6875 
246.84523 160.961533 
250.481079 151.146744 
252.313904 149.787033 
257.397461 159.399994 
262.26413 153.014999 
316.595886 174.399994 
333.819611 125.011902 
348.36908 122.0 
363.740479 162.289993 
389.618683 135.472229 
407.798981 129.0 
417.427124 85.07692 
422.561188 102.025002 
424.996521 122.024391 
427.136108 136.04808 
471.232269 155.346161 
486.178253 145.009613 
538.830383 100.291664 
541.87384 113.094696 
550.43866 110.054825 
558.094238 112.471153 
573.677063 124.375 
598.790833 136.817566 
599.50116 153.391129 
623.741455 177.169006 
638.730652 140.520569 
653.95813 150.457138 
697.392273 124.76136 
701.610291 101.639999 
704.971924 66.800003 
709.663818 120.06649 
723.050659 129.60228 
731.354431 95.173912 
766.485779 69.0 
777.308777 116.334999 
802.068665 133.777771 
817.316528 124.146736 
829.244812 128.173615 
836.884888 134.206635 
855.413452 143.248291 
869.724365 126.165695 
887.268372 135.755432 
893.57074 121.002548 
905.243347 138.764175 
938.89801 184.380264 
945.501953 131.4375 
961.643555 155.038559 
969.933411 134.166672 
1001.903381 97.644737 
1002.203125 131.034485 
1018.029724 112.285378 
1026.630859 81.53125 
1061.473389 145.17392 
1105.083984 127.164474 
1107.847656 177.157898 
1121.007812 187.540176 
1130.282227 137.493896 
1132.996338 155.805557 
1188.382568 62.00338 
1198.944336 200.273056 
1236.266724 83.644737 
1240.378418 119.48214 
1253.902466 123.58036 
1266.245972 144.778564 
1284.155762 123.447365 
1308.246094 84.680557 
1332.893433 140.719345 
1344.695312 208.74086 
1359.987915 128.020462 
1390.986572 147.049606 
1393.687134 129.694229 
1403.517822 131.837021 
1421.25 158.284088 
1427.680542 140.25528 
1479.244141 107.951271 
1502.22583 79.007576 
1513.786499 124.061272 
1524.845947 73.5 
1534.379395 141.007355 
1547.11499 74.041664 
1572.124634 65.678574 
1575.764404 85.053574 
1607.152954 63.387821 
1624.561279 138.26651 
1626.802124 51.03125 
1633.600586 63.173912 
1677.458984 60.041668 
1684.682861 76.595337 
1688.820557 121.653229 
1690.65918 99.360291 
END IONS

BEGIN IONS
RTINSECONDS=281.585999
CHARGE=1-
MSLEVEL=2
PRECURSORINTENSITY=772220.312500
SMILES=Cc1cc(cc(c1C(=O)O)O)OC(=O)c1c(c(c(cc1C)O)O)O
INCHI=InChI=1S/C16H14O8/c1-6-3-8(5-9(17)11(6)15(21)22)24-16(23)12-7(2)4-10(18)13(19)14(12)20/h3-5,17-20H,1-2H3,(H,21,22)
INCHIKEY=UPYXFRYWDWLGRX-UHFFFAOYSA-N
CLASS=Depsides (Didepsides)
ADDUCT=[M-H]-
INSTRUMENT=Agilent Q-ToF 6530
PRECURSOR_MZ=333.0627
COMPOUND_NAME=Diploschistesic acid
ION_MODE=negative
FORMULA=C16H14O8
105.452232 10598.439453 
123.136574 77594.726562 
149.024948 13462.412109 
165.639175 27777.929688 
167.034973 523695.40625 
167.626831 51868.773438 
183.029343 82548.59375 
219.857147 557.476562 
271.07373 357.704193 
297.095306 647.256897 
315.04364 6403.353027 
316.027069 1139.230835 
395.665833 70.009613 
399.96701 93.209908 
427.061279 81.173912 
447.646118 105.002121 
447.777161 92.387817 
449.10022 83.768616 
477.733032 130.439194 
483.340759 105.20192 
518.117554 185.820312 
558.592346 134.125 
597.501953 106.441177 
611.434753 76.349487 
611.775085 70.406914 
622.49707 78.431122 
650.522705 129.891891 
663.464478 147.047409 
685.659302 98.457146 
685.969482 115.324326 
699.854248 79.009262 
705.226013 95.148148 
761.520691 97.230766 
789.206299 75.083336 
789.685791 63.11842 
814.860413 69.002449 
830.388794 83.445656 
837.175354 65.469444 
884.674133 80.734756 
891.175293 94.023933 
891.46875 70.644737 
917.483826 58.0 
932.890869 66.148811 
957.169556 65.969826 
978.148804 88.599998 
994.052429 46.326923 
995.907166 71.680557 
1039.836548 39.5 
1051.153076 67.005432 
1056.921387 32.025002 
1072.418091 96.340912 
1099.418579 67.231483 
1108.809326 102.387817 
1131.888428 60.111111 
1136.222412 85.625 
1154.827148 110.740944 
1173.919678 89.072678 
1216.365356 77.657608 
1234.165894 155.530884 
1256.24707 58.337963 
1260.336914 59.002777 
1282.72644 66.555557 
1291.199463 97.03846 
1325.5625 88.33532 
1328.275879 70.23214 
1333.640381 75.112503 
1334.366089 91.280174 
1351.400146 128.716263 
1384.082031 65.375 
1404.859863 66.458336 
1414.114136 68.493423 
1418.113647 66.032143 
1440.383545 155.0625 
1464.334106 63.185608 
1485.655151 75.165543 
1523.124878 55.266666 
1530.602905 41.487904 
1543.099854 62.768616 
1571.677124 45.445 
1581.283936 55.034092 
1604.442871 46.030407 
1604.525879 43.89352 
1606.023926 43.720238 
1664.888916 69.010414 
1668.240967 82.08654 
1678.591431 35.125 
1679.734253 66.065788 
END IONS

BEGIN IONS
RTINSECONDS=194.839005
CHARGE=1-
MSLEVEL=2
PRECURSORINTENSITY=13203.660156
SMILES=Cc1c(O)cc(C)cc1O
INCHI=InChI=1S/C8H10O2/c1-5-3-7(9)6(2)8(10)4-5/h3-4,9-10H,1-2H3
INCHIKEY=GHVHDYYKJYXFGU-UHFFFAOYSA-N
CLASS=Cleavage Products of Depsides and Depsidones
ADDUCT=[M-H]-
INSTRUMENT=Agilent Q-ToF 6530
PRECURSOR_MZ=137.06
COMPOUND_NAME=Beta-orcinol
ION_MODE=negative
FORMULA=C8H10O2
108.092476 64.458336 
192.466415 96.640625 
195.895294 75.884804 
209.181396 73.020454 
224.658081 61.657608 
259.270355 56.115742 
276.762329 99.387817 
281.333496 123.225807 
302.332062 79.003784 
322.865356 67.165321 
359.091949 36.923077 
365.826385 46.845001 
381.199463 38.44643 
399.222473 40.244999 
422.5112 41.671295 
428.015961 40.537792 
449.584015 41.440216 
468.204834 48.333332 
504.8013 51.482143 
510.815247 112.010002 
518.774414 44.5 
550.561523 48.67857 
574.640808 56.059212 
583.263489 57.0625 
587.617371 46.020832 
587.67749 37.408333 
END IONS

BEGIN IONS
RTINSECONDS=393.29599
CHARGE=1-
MSLEVEL=2
PRECURSORINTENSITY=564767.375000
SMILES=C[C@H]1CC(=O)C2=C(c3c(ccc(c3O)c3c(c4c(cc3)O[C@]3([C@H]([C@H](CC(=O)C3=C4O)C)O)C(=O)OC)O)O[C@]2([C@H]1O)C(=O)OC)O
INCHI=InChI=1S/C32H30O14/c1-11-9-15(33)21-25(37)19-17(45-31(21,27(11)39)29(41)43-3)7-5-13(23(19)35)14-6-8-18-20(24(14)36)26(38)22-16(34)10-12(2)28(40)32(22,46-18)30(42)44-4/h5-8,11-12,27-28,35-40H,9-10H2,1-4H3/t11-,12-,27-,28-,31+,32+/m0/s1
INCHIKEY=NFZJAYYORNVZNI-HFEWAROQSA-N
CLASS=Xanthones and bis-Xanthones
ADDUCT=[M-H]-
INSTRUMENT=Agilent Q-ToF 6530
PRECURSOR_MZ=637.1611
COMPOUND_NAME=Secalonic acid B
ION_MODE=negative
FORMULA=C32H30O14
111.016159 1217.579224 
139.017609 978.000916 
141.138 700.320312 
148.990875 979.089783 
151.180756 1157.956665 
197.14859 1830.098999 
198.005524 2067.48291 
199.039001 4761.135742 
200.041733 2533.910156 
225.023682 1885.723999 
226.024155 1849.041992 
333.0802 5604.458496 
334.079315 6923.151855 
349.069611 4450.370605 
350.076904 5275.114258 
351.080505 3817.681152 
366.105072 4426.244141 
410.093384 3261.750488 
454.087646 3694.261719 
468.11087 3215.111084 
486.126129 3578.411133 
500.137146 4164.048828 
518.147461 5570.994141 
534.146973 5118.972168 
544.131714 7237.959961 
562.143433 10406.287109 
578.137451 11635.874023 
594.171143 17280.898438 
606.131531 11959.975586 
620.14978 6831.517578 
755.879395 57.529411 
757.795715 71.400002 
774.035034 223.268875 
790.003113 70.964622 
790.401917 61.142857 
840.52063 78.025002 
842.282288 70.793602 
844.850891 74.80278 
845.642578 156.6129 
846.581909 91.640152 
848.210938 74.24662 
948.903931 74.612503 
1020.305054 126.574997 
1021.204529 106.153847 
1037.39209 63.490002 
1037.516357 108.782608 
1048.669189 148.284882 
1099.984497 61.578949 
1103.688843 60.011364 
1143.602905 63.34375 
1154.402954 162.144043 
1180.301392 68.675003 
1183.608521 64.310349 
1190.646729 99.25 
1199.567871 62.204544 
1202.006714 70.537788 
1289.89917 73.01786 
1296.025146 66.06649 
1304.487305 64.803574 
1321.799805 73.013161 
1332.789551 142.058823 
1349.441162 122.64006 
1368.077271 98.882355 
1374.798828 76.336113 
1397.507324 64.25 
1399.252563 103.959999 
1409.082397 78.800003 
1455.649292 60.6875 
1496.558716 98.716835 
1498.999268 73.8125 
1617.697021 158.25 
1628.082642 81.111488 
1683.771606 78.134438 
1684.468506 77.01136 
1688.755859 79.926285 
END IONS

BEGIN IONS
RTINSECONDS=337.657013
CHARGE=1-
MSLEVEL=2
PRECURSORINTENSITY=6072662.000000
SMILES=Cc1c(c(O)cc(O)c1)C(=O)Oc1cc(O)c(C(=O)Oc2c(C)c(C(=O)O)c(O)cc2O)c(C)c1
INCHI=InChI=1S/C24H20O11/c1-9-4-12(25)6-14(26)18(9)23(32)34-13-5-10(2)19(15(27)7-13)24(33)35-21-11(3)20(22(30)31)16(28)8-17(21)29/h4-8,25-29H,1-3H3,(H,30,31)
INCHIKEY=PXEWPVIKVBSHLU-UHFFFAOYSA-N
CLASS=Depsides (Tridepsides)
ADDUCT=[M-H]-
INSTRUMENT=Agilent Q-ToF 6530
PRECURSOR_MZ=483.0869
COMPOUND_NAME=Crustinic acid
ION_MODE=negative
FORMULA=C24H20O11
109.028976 191136.8125 
121.088684 298840.5625 
165.018433 2902251.0 
165.159973 181417.5625 
166.022003 417750.90625 
183.028763 1753731.125 
183.859131 259279.921875 
255.063995 15763.220703 
256.062927 6675.041504 
271.032471 21050.964844 
272.056122 6585.256348 
289.069397 13360.546875 
315.048523 10536.924805 
333.059052 27927.923828 
334.062317 9620.967773 
396.514709 65.0 
411.997192 48.038792 
465.082916 343.816681 
466.080353 156.054825 
556.196289 36.165321 
568.937134 90.080879 
576.711853 66.003204 
609.409241 34.840908 
621.830566 46.025002 
657.048218 64.765625 
659.400696 104.030403 
664.162476 61.42857 
682.951782 59.57143 
718.662354 61.583332 
726.743713 26.84091 
745.001404 54.375 
760.531128 31.285715 
775.691833 53.055557 
789.377258 20.086538 
818.287476 20.006578 
819.073486 67.222824 
828.606018 20.654411 
870.407837 54.102272 
875.333557 61.157051 
875.389343 33.892857 
898.400208 68.5 
914.829468 78.030403 
934.2724 47.75 
941.94812 78.0 
946.562012 23.6 
1030.932251 37.0 
1031.127319 25.450001 
1031.226318 17.011364 
1031.400024 118.408333 
1031.572754 23.225 
1085.985596 14.025 
1090.550171 16.0 
1104.943115 106.002548 
1105.170288 19.066177 
1108.068359 17.657608 
1123.24292 22.778847 
1160.786011 15.160714 
1164.724731 18.363636 
1165.159302 49.297619 
1216.376465 116.01136 
1232.699951 58.210526 
1232.772583 30.5 
1240.601929 72.75 
1252.789917 57.810001 
1279.722656 38.041668 
1296.520874 56.881096 
1300.052734 28.9 
1317.756714 39.80357 
1348.321167 32.520832 
1372.415405 15.048913 
1375.933594 32.520832 
1383.06665 72.760002 
1387.013184 41.445 
1431.150757 16.025 
1436.875854 21.0 
1458.680664 51.25 
1467.34375 22.113636 
1496.116089 20.0 
1501.35498 62.011906 
1511.680542 26.0625 
1519.614014 29.657608 
1556.426392 19.875 
1566.235596 18.444445 
1595.191406 23.920454 
1604.679321 75.907257 
1630.311768 92.0 
1630.822998 17.347221 
1639.775269 38.25 
1672.889282 44.107758 
1694.346802 13.25 
1696.468628 19.654411 
END IONS

BEGIN IONS
RTINSECONDS=391.768005
CHARGE=1-
MSLEVEL=2
PRECURSORINTENSITY=1335092.375000
SMILES=C[C@H](O)CCCCCCCCCCCCC[C@@H]1C(C(=O)O)C(=C)C(=O)O1
INCHI=InChI=1S/C21H36O5/c1-16(22)14-12-10-8-6-4-3-5-7-9-11-13-15-18-19(20(23)24)17(2)21(25)26-18/h16,18-19,22H,2-15H2,1H3,(H,23,24)/t16-,18+,19?/m0/s1
INCHIKEY=UYUDMGMNHAKPEV-CXEJCQMISA-N
CLASS=Paraconic acids
ADDUCT=[M-H]-
INSTRUMENT=Agilent Q-ToF 6530
PRECURSOR_MZ=367.2466
COMPOUND_NAME=Murolic acid
ION_MODE=negative
FORMULA=C21H36O5
113.064079 625.358032 
141.12735 555.062134 
155.14296 5810.817383 
169.158386 4034.60376 
170.132645 676.054749 
183.200821 629.936584 
207.209015 1745.0802 
209.19104 1492.765991 
235.21759 18217.425781 
263.237305 20034.224609 
277.25351 22616.246094 
279.261383 25289.644531 
323.258148 371343.03125 
324.260895 99063.734375 
432.912598 87.235291 
438.637268 222.308762 
489.000305 172.773514 
493.622742 113.230423 
497.482788 123.487808 
531.413147 129.184097 
547.393372 91.002357 
548.956848 75.224998 
563.453308 88.36364 
572.12793 103.002357 
610.457764 67.14286 
623.104492 64.118423 
658.843628 97.881096 
665.995728 121.298782 
682.677429 73.644997 
685.083984 85.408333 
700.957458 112.011902 
738.843994 67.072678 
744.413818 73.003784 
771.758606 89.245689 
776.127563 101.551468 
804.416626 87.862068 
832.986816 141.027771 
839.257507 57.025002 
842.822327 69.003571 
875.735168 59.002552 
878.755005 96.125 
889.920349 59.375 
892.203918 67.041664 
898.670532 42.03125 
944.610718 57.680557 
967.88916 69.976349 
974.823547 66.92308 
994.489014 85.76136 
995.732605 98.160255 
1000.502197 85.157051 
1000.945312 69.901314 
1039.50354 98.041664 
1047.317505 67.432144 
1054.468628 84.32692 
1066.522949 101.551727 
1123.804321 62.025002 
1130.334839 79.388885 
1162.70105 114.480263 
1168.865356 81.011902 
1172.205322 80.094231 
1184.101562 54.575001 
1218.667725 56.190475 
1223.352783 72.047623 
1227.60083 50.041668 
1252.101196 225.39682 
1256.653564 63.00893 
1278.247437 76.132355 
1297.917114 67.785713 
1331.814697 192.939514 
1340.349243 89.142441 
1349.903687 55.976353 
1361.795776 46.222828 
1412.862549 105.114288 
1413.808838 117.064514 
1413.889771 73.390625 
1419.944946 113.152397 
1430.830688 157.260864 
1431.880005 122.241379 
1497.838379 100.492348 
1499.793701 103.171608 
1500.820435 96.038795 
1510.308594 110.135002 
1533.958374 131.064468 
1572.572754 57.656818 
1634.432251 34.693966 
1641.6604 65.610001 
1644.552002 59.089287 
1652.862305 60.113636 
1675.764648 58.003788 
1680.127686 126.467468 
1685.803833 68.13636 
1695.789917 26.556818 
END IONS

BEGIN IONS
RTINSECONDS=458.731995
CHARGE=1-
MSLEVEL=2
PRECURSORINTENSITY=727455.187500
SMILES=O=C1C(=C(O)/C(=C(/c2ccccc2)\C(=O)N[C@@H](Cc2ccccc2)C(=O)OC)/O1)c1ccccc1
INCHI=InChI=1S/C28H23NO6/c1-34-27(32)21(17-18-11-5-2-6-12-18)29-26(31)23(20-15-9-4-10-16-20)25-24(30)22(28(33)35-25)19-13-7-3-8-14-19/h2-16,21,30H,17H2,1H3,(H,29,31)/b25-23+/t21-/m0/s1
INCHIKEY=DKDGWAKCXBFTMM-KZKMBZSSSA-N
CLASS=Pulvinic Acid Derivatives
ADDUCT=[M-H]-
INSTRUMENT=Agilent Q-ToF 6530
PRECURSOR_MZ=468.1317
COMPOUND_NAME=Rhizocarpic acid
ION_MODE=negative
FORMULA=C28H23NO6
101.041473 1782.694336 
117.03421 126274.59375 
118.036766 20989.765625 
118.189095 300.843994 
119.052879 1270.787476 
191.085663 42672.625 
191.250259 1109.430664 
192.089218 14053.057617 
201.082916 1975.093506 
234.066711 2542.901611 
263.069611 149014.109375 
264.073029 55637.933594 
265.074524 4724.481934 
301.072021 6033.668457 
302.075134 3795.739502 
332.088715 402.372925 
392.118439 1600.475708 
393.13031 1065.170654 
532.473755 61.080128 
560.987549 56.583332 
575.407898 58.907257 
581.838257 78.337959 
591.986328 62.020832 
619.908508 73.764709 
641.033936 81.160713 
659.524048 55.326923 
666.172668 64.723213 
693.92511 91.285713 
725.315735 87.890625 
730.002075 79.30867 
735.498596 112.839996 
735.753235 74.333336 
740.011597 144.668106 
808.383911 83.013885 
819.534424 67.388885 
836.470825 79.115738 
843.587524 85.049416 
881.269897 130.656616 
895.013245 106.603569 
904.136536 93.521553 
909.791748 82.230766 
931.589233 96.573982 
933.129333 84.011902 
971.101135 91.26667 
988.358276 85.271736 
994.858032 47.004631 
999.28363 63.037037 
1019.756592 74.432144 
1025.603394 44.0625 
1048.90979 37.557693 
1069.28064 43.05357 
1089.438354 47.640152 
1105.634155 68.768616 
1131.16333 135.643661 
1132.782349 84.08654 
1165.297485 71.17308 
1171.971436 112.111366 
1180.695435 69.818184 
1219.439819 128.171616 
1238.967407 89.315216 
1244.526123 68.520836 
1263.734985 86.141891 
1264.676514 100.408333 
1301.972656 92.165543 
1302.379395 48.666668 
1322.821655 75.529411 
1327.851562 58.320122 
1371.536499 54.048912 
1386.598633 91.041664 
1413.677368 90.190475 
1441.323608 53.979652 
1453.614868 81.512497 
1467.837158 131.839996 
1494.147949 62.015625 
1494.894775 145.578568 
1496.276245 108.01786 
1536.15625 54.032143 
1537.51123 57.125 
1554.06665 30.125 
1568.92749 36.016666 
1584.04541 137.152435 
1586.776733 42.125 
1636.88562 65.063774 
1644.484863 92.728447 
1655.170288 74.862068 
1664.379639 100.493423 
1665.028076 48.005951 
1682.045532 49.235466 
1692.560425 33.347221 
END IONS

BEGIN IONS
RTINSECONDS=425.553009
CHARGE=1-
MSLEVEL=2
PRECURSORINTENSITY=9649387.000000
SMILES=CCCCCc1c2c(cc(c1C(=O)O)O)oc1c2c(cc(c1)OC)CCC
INCHI=InChI=1S/C22H26O5/c1-4-6-7-9-15-20(22(24)25)16(23)12-18-21(15)19-13(8-5-2)10-14(26-3)11-17(19)27-18/h10-12,23H,4-9H2,1-3H3,(H,24,25)
INCHIKEY=IDZVZCQOFFSQMO-UHFFFAOYSA-N
CLASS=Dibenzofuranes
ADDUCT=[M-H]-
INSTRUMENT=Agilent Q-ToF 6530
PRECURSOR_MZ=369.1672
COMPOUND_NAME=Didymic acid
ION_MODE=negative
FORMULA=C22H26O5
109.028908 338.014252 
225.057831 142329.953125 
238.060104 1143370.375 
239.066742 715712.4375 
253.083694 120654.671875 
254.090759 377202.59375 
310.152069 1460188.0 
311.155426 429356.34375 
325.173126 1039634.625 
445.76355 242.032257 
447.615753 186.024994 
462.971313 161.355392 
476.270172 69.404999 
485.455383 135.017853 
495.710663 175.875 
529.684387 53.0 
532.425293 39.720238 
548.166687 77.520836 
566.963623 26.1875 
582.55188 46.041668 
614.600403 69.520836 
636.684021 78.446426 
658.086792 88.556038 
660.782776 40.367424 
673.354309 153.469452 
676.527954 75.083336 
712.098572 168.041672 
720.612061 254.515625 
757.343933 36.480263 
764.734863 34.099998 
765.54071 38.693966 
765.603027 31.571428 
769.275574 161.089996 
831.117432 24.03125 
860.123718 26.25 
864.261963 42.125 
868.016418 38.387821 
913.852234 151.045212 
917.619507 37.480263 
929.71991 122.368423 
967.432861 33.5 
973.474121 24.013889 
975.203369 22.027779 
982.170349 14.017858 
1023.853271 159.901321 
1034.666382 18.53125 
1053.706177 22.011364 
1058.932983 19.375 
1073.517334 37.148811 
1091.295044 48.015625 
1108.247925 165.96875 
1136.185303 48.367645 
1152.429321 89.489868 
1163.78833 42.882355 
1165.404541 157.769226 
1173.269043 158.001923 
1173.60376 162.284088 
1218.350586 54.272728 
1245.634033 90.432144 
1245.716919 31.375 
1255.798218 43.816666 
1262.4198 14.005953 
1310.726318 13.008333 
1324.293335 73.009262 
1324.378174 25.066177 
1347.677002 26.625 
1372.248901 51.367424 
1403.097046 38.1875 
1412.679321 47.25 
1417.908447 42.125 
1421.849609 177.677811 
1423.565552 44.041668 
1472.711304 30.844999 
1475.375977 37.0 
1501.118652 38.125 
1515.89624 33.5625 
1532.217285 58.391304 
1549.461548 22.625 
1557.34436 40.75 
1594.114746 26.796053 
1614.253174 77.135872 
1614.518677 22.799999 
1615.740601 17.0 
1653.793945 17.321428 
1668.077271 19.0 
1668.195068 15.375 
1683.034302 15.0 
1692.130249 13.571428 
END IONS

BEGIN IONS
RTINSECONDS=419.472992
CHARGE=1-
MSLEVEL=2
PRECURSORINTENSITY=19608.705078
SMILES=O=C1c2c(C(=O)C(=C1)OC)c(O)c1c(c2OC(=O)C)C(=O)O[C@H](C1)C
INCHI=InChI=1S/C17H14O8/c1-6-4-8-11(17(22)24-6)16(25-7(2)18)12-9(19)5-10(23-3)15(21)13(12)14(8)20/h5-6,20H,4H2,1-3H3/t6-/m0/s1
INCHIKEY=QADZPCBQWKTAKP-LURJTMIESA-N
CLASS=Quinones
ADDUCT=[M-H]-
INSTRUMENT=Agilent Q-ToF 6530
PRECURSOR_MZ=345.06
COMPOUND_NAME=Acetylhaemoventosine
ION_MODE=negative
FORMULA=C17H14O8
103.132629 45.09375 
112.98336 105.003784 
119.802841 67.160713 
130.922882 71.231483 
137.157837 106.049416 
184.249512 83.75 
186.114273 75.0625 
205.824112 104.125 
212.918594 105.165817 
227.027908 75.440216 
243.17099 72.769234 
245.106812 91.235291 
251.977615 79.315788 
293.519165 65.367645 
305.063141 73.009613 
317.399231 116.157051 
404.224792 66.007576 
409.870911 89.08036 
423.74884 59.720238 
443.58252 70.01667 
447.138824 75.862068 
455.972046 69.112503 
493.988403 125.052322 
518.577881 86.043106 
533.652222 76.889282 
536.690613 91.882812 
537.323853 63.777779 
564.142517 56.015625 
571.666992 126.125 
597.284058 44.007355 
END IONS

BEGIN IONS
RTINSECONDS=274.884003
CHARGE=1-
MSLEVEL=2
PRECURSORINTENSITY=759574.250000
SMILES=O=C1c2c(C)cc(O)cc2Oc2c(O1)cc1c(c2O)C(=O)OC1
INCHI=InChI=1S/C16H10O7/c1-6-2-8(17)4-9-11(6)16(20)23-10-3-7-5-21-15(19)12(7)13(18)14(10)22-9/h2-4,17-18H,5H2,1H3
INCHIKEY=LPUOVEFMUOQBFV-UHFFFAOYSA-N
CLASS=Depsidones
ADDUCT=[M-H]-
INSTRUMENT=Agilent Q-ToF 6530
PRECURSOR_MZ=313.0324
COMPOUND_NAME=Variolaric acid
ION_MODE=negative
FORMULA=C16H10O7
104.978058 24875.314453 
131.010712 6364.600098 
149.023239 33866.125 
175.038452 13651.272461 
197.059174 67385.945312 
213.052765 27828.166016 
225.053726 112347.898438 
226.05397 21711.878906 
241.048767 39809.359375 
269.043488 58713.121094 
270.046814 11548.0 
377.541138 102.580643 
395.729706 98.761902 
397.681519 120.91848 
418.026794 132.493423 
438.774017 87.894737 
455.93689 78.181816 
457.767456 103.633774 
472.175781 71.337959 
523.434937 46.01923 
536.217957 132.917374 
541.352844 67.351746 
542.400146 112.333336 
564.326782 93.462837 
567.719177 56.259617 
600.410706 52.200001 
616.690918 50.680557 
624.93573 47.055557 
634.66864 107.875 
652.723877 79.142441 
675.004211 63.211208 
708.142639 109.83696 
734.827026 123.485291 
757.953918 57.894737 
759.451782 62.177631 
776.511108 103.469444 
779.043701 61.470589 
809.446472 91.421509 
828.945129 61.259617 
844.535645 60.455647 
845.90448 67.8125 
858.677002 73.75 
868.914978 93.001808 
906.287231 67.786766 
922.122314 55.34375 
933.366516 88.875 
949.888611 53.680557 
954.650513 59.782406 
982.036865 50.657608 
1005.189453 49.24662 
1012.535767 84.161293 
1036.657471 55.900864 
1048.32959 73.6875 
1053.000977 78.644997 
1056.998779 79.149391 
1094.817139 83.512497 
1100.56543 65.175003 
1135.798584 61.670456 
1148.209473 58.694443 
1148.668213 69.003052 
1165.736938 77.520836 
1219.152222 51.0 
1220.037109 61.787163 
1242.832031 58.470589 
1263.674561 55.375 
1264.889893 72.025002 
1294.473389 64.198532 
1306.393799 73.265625 
1319.853149 50.23077 
1329.830933 55.005001 
1332.693848 60.017857 
1381.325684 51.0 
1382.435791 73.112503 
1385.990112 100.595589 
1422.351318 67.666664 
1432.558228 93.5625 
1448.399902 83.5 
1455.236694 54.265625 
1466.833252 61.337963 
1489.972412 51.005436 
1521.593262 62.125 
1539.092041 45.003788 
1546.904053 52.375 
1567.58252 51.490383 
1587.731934 57.680557 
1590.279419 94.230766 
1598.168335 54.520161 
1621.135254 92.133064 
1642.449585 49.900864 
1658.466064 37.025002 
1660.234131 60.164474 
1664.324341 92.5 
END IONS

BEGIN IONS
RTINSECONDS=442.209991
CHARGE=1-
MSLEVEL=2
PRECURSORINTENSITY=85416.171875
SMILES=Oc1c(Cl)c(CCCCC)c(C(=O)Oc2cc(OC)c(c(CCCCC)c2)C(=O)O)c(O)c1Cl
INCHI=InChI=1S/C25H30Cl2O7/c1-4-6-8-10-14-12-15(13-17(33-3)18(14)24(30)31)34-25(32)19-16(11-9-7-5-2)20(26)23(29)21(27)22(19)28/h12-13,28-29H,4-11H2,1-3H3,(H,30,31)
INCHIKEY=IDRJMRKONACJDM-UHFFFAOYSA-N
CLASS=Depsides (Didepsides)
ADDUCT=[M-H]-
INSTRUMENT=Agilent Q-ToF 6530
PRECURSOR_MZ=511.1232
COMPOUND_NAME="N 3,5-Dichloro-2-O-methylanziaic acid"
ION_MODE=negative
FORMULA=C25H30Cl2O7
158.98497 1022.414429 
160.995041 1284.179199 
193.301727 1930.122803 
195.040207 962.907104 
219.171295 2218.541992 
273.008575 136127.171875 
274.012146 50760.058594 
275.006165 203228.84375 
291.019562 50754.710938 
291.714386 21599.271484 
293.016388 93215.421875 
343.081146 165.008331 
357.156189 188.016785 
379.089905 145.022964 
399.135651 234.720078 
431.164124 429.929871 
435.121277 470.843964 
436.112488 533.822876 
437.113251 535.384644 
612.32959 75.470589 
623.150452 97.723213 
627.36261 71.34375 
647.971313 103.015411 
661.014404 124.284088 
679.398254 81.151123 
680.779541 80.349998 
735.197327 55.674999 
736.191589 154.818176 
743.982727 93.851418 
765.47113 86.248291 
774.782043 82.640625 
779.045715 75.975807 
832.994019 138.453766 
836.809326 70.398582 
841.072205 69.406914 
872.634338 70.49128 
888.139709 70.537788 
894.652405 143.321426 
920.50116 71.047623 
936.52124 127.017311 
947.294861 74.003784 
959.648499 91.112068 
972.519958 89.347824 
993.77478 61.39674 
1007.903259 70.599998 
1014.119141 56.920456 
1026.38208 83.615387 
1047.766113 44.148811 
1054.75061 46.0625 
1098.423096 41.942307 
1105.164673 92.371216 
1112.074829 42.400002 
1156.930908 150.778564 
1168.576538 118.081078 
1169.645996 99.041664 
1171.832275 100.320122 
1177.372314 83.259613 
1182.391479 97.08654 
1222.333618 59.273647 
1231.42688 51.482143 
1241.958374 50.75 
1284.61084 52.905487 
1288.927124 76.181816 
1310.505127 68.004036 
1314.563599 86.721153 
1352.997437 103.080879 
1360.133911 87.690002 
1368.688843 109.605003 
1392.314331 100.2192 
1392.375977 68.89286 
1422.920166 57.390625 
1424.262085 48.041668 
1459.833862 77.564026 
1476.82373 47.485294 
1514.553955 72.009262 
1521.565186 57.259617 
1529.901978 157.149994 
1530.574829 84.408333 
1540.238281 76.47406 
1548.976318 77.639999 
1575.351562 172.072723 
1596.174805 78.532608 
1619.367798 108.679054 
1623.305908 65.333336 
1645.578979 49.166668 
1668.169312 68.24662 
1675.726562 48.0625 
1690.880981 98.146736 
1690.987915 34.160713 
1691.359985 40.889706 
1696.150635 31.657608 
END IONS

BEGIN IONS
RTINSECONDS=238.171997
CHARGE=1-
MSLEVEL=2
PRECURSORINTENSITY=372346.375000
SMILES=CCCc1cc(cc(c1)O)O
INCHI=InChI=1S/C9H12O2/c1-2-3-7-4-8(10)6-9(11)5-7/h4-6,10-11H,2-3H2,1H3
INCHIKEY=FRNQLQRBNSSJBK-UHFFFAOYSA-N
CLASS=Cleavage Products of Depsides and Depsidones
ADDUCT=[M-H]-
INSTRUMENT=Agilent Q-ToF 6530
PRECURSOR_MZ=151.0763
COMPOUND_NAME=Divarinol
ION_MODE=negative
FORMULA=C9H12O2
107.051025 32681.837891 
108.035507 2247.761475 
109.064835 31262.351562 
122.012657 2444.42041 
215.869431 61.020832 
240.370331 66.215515 
255.036652 86.08654 
267.902863 56.25 
268.562042 49.083332 
321.319 47.78125 
325.254639 47.00658 
346.735443 43.520161 
350.083954 52.204544 
374.341736 136.036758 
416.799438 37.816666 
417.607849 50.113636 
429.818146 46.714287 
447.612885 82.645164 
458.618469 68.089287 
468.340851 48.007355 
500.071289 53.361111 
509.405182 85.673508 
518.13501 87.375 
559.826416 135.320312 
559.915833 73.149391 
580.802979 80.006577 
584.534912 64.0 
587.018677 47.905487 
590.143921 99.814812 
641.395081 72.142242 
648.452026 52.022728 
653.601318 72.440216 
678.965881 66.002548 
692.56427 57.892857 
701.614929 71.917557 
701.877686 80.727943 
733.285583 59.01923 
744.014526 43.840908 
745.881165 48.482143 
800.259399 34.640152 
826.39032 34.211208 
834.547058 91.656815 
834.628906 35.53125 
866.741272 55.148811 
866.800537 44.111843 
884.906433 54.532608 
891.783203 64.140625 
904.136841 45.782406 
918.395203 40.135868 
938.196472 41.210526 
950.815063 44.222828 
976.97583 43.048912 
1001.00061 37.375 
1007.709351 64.185608 
1014.5979 57.133064 
1041.267944 92.297623 
1056.984131 54.78125 
1083.783569 48.408783 
1085.713745 64.367424 
1092.185181 56.164474 
1140.014893 59.361111 
1148.320679 82.224998 
1150.453735 38.674999 
1168.105957 58.226852 
1183.236694 66.390625 
1216.692017 40.625 
1218.384155 174.130371 
1259.550415 86.130432 
1300.127686 55.25 
1316.869263 47.083332 
1324.259399 42.671295 
1333.58667 47.048912 
1336.118408 46.363636 
1359.795288 43.165321 
1376.094238 47.720589 
1418.08374 35.445 
1424.731812 42.003788 
1431.025879 30.28125 
1440.504028 62.520161 
1449.390015 48.083332 
1473.777588 38.036289 
1528.346191 76.344513 
1528.880737 55.125 
1550.551758 56.0 
1561.958496 44.532894 
1568.276245 125.0 
1624.952637 69.190475 
1637.491943 42.017857 
1639.75415 183.267548 
1646.794922 48.16346 
1659.658691 51.0625 
1689.457642 71.675003 
1696.304932 30.482143 
END IONS

BEGIN IONS
RTINSECONDS=436.559998
CHARGE=1-
MSLEVEL=2
PRECURSORINTENSITY=2022317.500000
SMILES=Cc1c2c(Oc3c(OC2=O)c(c(c(c3C)Cl)OC)C)c(Cl)c(O)c1Cl
INCHI=InChI=1S/C17H13Cl3O5/c1-5-8-16(11(20)12(21)9(5)18)24-14-6(2)10(19)13(23-4)7(3)15(14)25-17(8)22/h21H,1-4H3
INCHIKEY=MTWNEIGWRWQLFS-UHFFFAOYSA-N
CLASS=Depsidones
ADDUCT=[M-H]-
INSTRUMENT=Agilent Q-ToF 6530
PRECURSOR_MZ=400.9636
COMPOUND_NAME=Caloploicin
ION_MODE=negative
FORMULA=C17H13Cl3O5
166.169952 2853.540527 
194.033508 6713.082031 
222.029785 7679.114258 
230.013275 12578.380859 
258.006195 18065.316406 
277.989563 24889.628906 
286.001007 15656.178711 
292.986206 21840.654297 
293.984589 16265.211914 
341.959412 30482.060547 
343.956451 20075.683594 
349.972107 29217.205078 
364.996643 73650.9375 
366.992889 31106.361328 
486.962921 89.20192 
496.660278 104.093025 
500.198151 118.370613 
523.620911 95.285378 
549.927734 108.695656 
562.594055 147.523544 
620.750061 95.145409 
622.430786 105.370613 
645.803101 96.004997 
655.055359 93.587265 
669.853455 94.012497 
672.626099 89.097824 
721.173218 89.291664 
722.54718 95.01786 
728.290649 103.778061 
737.952454 109.472061 
757.782532 123.454544 
796.097961 112.210526 
798.548096 84.963234 
849.974182 97.091415 
851.737122 86.347221 
857.596069 145.232559 
863.264709 84.555771 
891.464233 79.054825 
920.599915 62.115742 
923.608093 68.875 
926.7052 152.321426 
930.844116 74.693962 
956.604126 88.400002 
972.881958 79.625 
975.920593 129.380951 
981.910767 59.25 
1030.886475 86.561043 
1043.722168 89.882355 
1065.168945 93.445656 
1067.151489 120.002052 
1067.625977 108.030403 
1074.115112 126.6875 
1100.786743 124.112503 
1120.019043 168.85257 
1137.523926 106.833336 
1143.315186 83.6129 
1147.197021 90.695656 
1154.966553 85.845001 
1200.514404 81.640625 
1201.703003 87.969826 
1220.252563 98.0 
1247.908691 56.140625 
1285.433838 112.45153 
1294.315186 69.263161 
1308.138672 79.016792 
1316.910034 124.79348 
1341.307617 78.07692 
1347.986938 49.728447 
1363.632202 44.761364 
1372.913452 65.24662 
1442.501709 56.875 
1457.094604 185.255325 
1457.203735 49.111111 
1461.771362 56.226852 
1480.546265 58.041668 
1504.061035 52.020832 
1516.234985 122.041664 
1551.573486 73.900864 
1557.562866 148.67392 
1574.043335 86.099998 
1574.901367 72.157051 
1581.550049 85.140625 
1597.677246 73.929878 
1638.297607 95.355392 
1664.688965 56.796051 
1686.835571 178.900864 
END IONS

BEGIN IONS
RTINSECONDS=253.660995
CHARGE=1-
MSLEVEL=2
PRECURSORINTENSITY=23626.837891
SMILES=Oc1c2c(C(O)[C@H](C)OC2=O)c(O)c2c1C(=O)C=C(OC)C2=O
INCHI=InChI=1S/C15H12O8/c1-4-11(17)9-10(15(21)23-4)13(19)7-5(16)3-6(22-2)12(18)8(7)14(9)20/h3-4,11,17,19-20H,1-2H3/t4-,11?/m0/s1
INCHIKEY=GCBHOICQSSPFDL-DPVSGNNYSA-N
CLASS=Quinones
ADDUCT=[M-H]-
INSTRUMENT=Agilent Q-ToF 6530
PRECURSOR_MZ=319.04
COMPOUND_NAME=Hydroxyhaemoventosine
ION_MODE=negative
FORMULA=C15H12O8
101.606552 43.135868 
109.145157 67.779411 
145.871765 73.0625 
150.5495 63.333332 
193.508484 92.530663 
214.977585 102.0 
226.981964 87.53846 
231.202744 72.07692 
237.747482 70.51136 
258.990845 104.04348 
301.006866 61.520832 
374.326843 59.375 
384.052551 39.1875 
398.049438 57.805 
421.432007 188.346237 
453.383545 35.038792 
461.342957 108.560974 
461.715668 91.934319 
473.143555 91.512497 
496.467651 71.78241 
520.088257 44.75 
561.447937 40.005951 
581.659302 33.694443 
585.381653 25.11574 
602.973206 90.722221 
605.424377 76.678574 
614.501831 45.532894 
653.60675 84.555771 
672.707764 93.573982 
677.515564 46.259617 
689.872437 102.881668 
690.80957 97.140625 
702.48291 69.199997 
724.267761 33.017857 
787.202942 70.190475 
796.553833 43.400002 
805.315247 43.520832 
818.136841 94.408333 
826.804871 77.011902 
844.055054 50.603573 
856.395691 65.061272 
890.928406 31.13587 
891.934387 46.003571 
902.023682 71.51136 
902.731689 39.375 
941.584961 65.157051 
942.581909 30.799999 
951.694824 31.694445 
958.633789 23.05921 
995.797058 56.005436 
1006.838562 21.204546 
1009.165894 29.05921 
1016.524292 34.244999 
1038.124268 43.025002 
1059.92041 73.136108 
1073.405273 61.900864 
1103.938354 69.009613 
1120.969727 85.315216 
1139.164917 90.308823 
1142.909912 102.570656 
1193.249268 33.291668 
1193.519165 27.025 
1207.762573 34.480263 
1216.941284 65.96196 
1251.365479 45.020832 
1258.871338 88.698273 
1265.370117 86.698273 
1265.4552 35.005951 
1302.535034 22.25 
1346.643188 32.333332 
1368.236572 35.142857 
1371.408203 41.942307 
1383.912109 41.375 
1410.292236 46.694443 
1420.843994 24.041666 
1449.528931 110.881668 
1449.682129 25.163462 
1474.825317 32.852272 
1502.868164 43.0 
1511.436523 29.5625 
1511.620972 44.0 
1521.342896 36.57143 
1535.86853 39.671295 
1579.928955 39.644737 
1582.665405 43.889706 
1601.466064 33.408333 
1613.133301 42.845001 
1646.743042 27.521551 
1657.591064 35.666668 
1672.307251 35.099998 
1676.652954 22.09091 
1687.554688 36.166668 
END IONS

BEGIN IONS
RTINSECONDS=375.049988
CHARGE=1-
MSLEVEL=2
PRECURSORINTENSITY=2111418.250000
SMILES=CC(CC)C(C(=O)NC(C(C)C)COC(=O)c1ccccc1)NC(=O)c1ccccc1
INCHI=InChI=1S/C25H32N2O4/c1-5-18(4)22(27-23(28)19-12-8-6-9-13-19)24(29)26-21(17(2)3)16-31-25(30)20-14-10-7-11-15-20/h6-15,17-18,21-22H,5,16H2,1-4H3,(H,26,29)(H,27,28)
INCHIKEY=CYKHBJCXJDXSPW-UHFFFAOYSA-N
CLASS=N-Containing Compounds
ADDUCT=[M-H+HCOOH]-
INSTRUMENT=Agilent Q-ToF 6530
PRECURSOR_MZ=469.2247
COMPOUND_NAME=Isoarthonin
ION_MODE=negative
FORMULA=C25H32N2O4
121.029015 1688724.125 
121.126801 92836.382812 
121.791039 561.606689 
122.032074 182018.359375 
123.034042 11199.287109 
123.274223 297.656128 
185.067581 215.207794 
214.107269 740.650879 
215.108429 373.053558 
216.102188 393.166412 
232.739929 165.072723 
301.183929 3758.075684 
301.291229 131.34964 
302.188843 1235.130859 
302.245178 209.675674 
303.196381 158.571426 
423.218475 76965.671875 
424.221283 42481.625 
424.797485 298.075134 
425.224152 6057.122559 
525.56073 79.125 
532.011047 132.75 
571.386902 57.266666 
600.798157 60.84 
608.792786 62.30682 
610.874817 162.207138 
677.695129 158.523544 
678.405579 75.408783 
704.156555 85.004036 
726.483093 168.199997 
780.388428 82.125 
826.135803 60.777779 
843.593506 66.285713 
877.650818 135.574997 
895.366699 57.400002 
915.128113 93.160713 
986.195312 186.073792 
1037.295654 55.805 
1055.343872 64.816666 
1072.122559 71.260414 
1077.097046 60.016666 
1081.204956 116.598686 
1113.082397 69.041664 
1116.49939 98.894737 
1146.661011 75.330643 
1192.840698 115.781593 
1226.301758 58.78125 
1240.469971 176.462845 
1264.633057 76.875 
1267.477295 86.072678 
1348.568848 65.444443 
1353.963013 65.80278 
1354.377319 86.173782 
1372.555786 99.641029 
1373.475464 98.564812 
1385.717896 120.24662 
1422.075562 68.045456 
1428.93335 158.057236 
1436.758057 61.400002 
1500.713867 139.537796 
1530.829834 118.297539 
1535.227051 65.367424 
1573.629395 134.199997 
1593.154175 62.0 
1604.787109 139.186859 
1615.600342 78.679054 
1679.926514 113.032257 
END IONS

BEGIN IONS
RTINSECONDS=425.358002
CHARGE=1-
MSLEVEL=2
PRECURSORINTENSITY=5210923.500000
SMILES=CC(=O)CCCCCCCCCCCCC[C@@H]1C(C(=O)O)C(=C)C(=O)O1
INCHI=InChI=1S/C21H34O5/c1-16(22)14-12-10-8-6-4-3-5-7-9-11-13-15-18-19(20(23)24)17(2)21(25)26-18/h18-19H,2-15H2,1H3,(H,23,24)/t18-,19?/m1/s1
INCHIKEY=SKQHRBRVCRUFSX-MRTLOADZSA-N
CLASS=Paraconic acids
ADDUCT=[M-H]-
INSTRUMENT=Agilent Q-ToF 6530
PRECURSOR_MZ=365.224
COMPOUND_NAME=Muronic acid
ION_MODE=negative
FORMULA=C21H34O5
109.063492 1513.083374 
111.060715 992.507935 
123.116257 2380.617432 
155.117157 2538.729492 
169.158615 24687.65625 
170.161758 3849.321533 
183.174072 12062.014648 
195.161072 4586.085449 
207.209793 9796.398438 
209.188858 7493.536133 
223.20433 9458.011719 
261.220734 9720.773438 
277.252289 1218137.625 
278.255005 350148.0 
279.266266 20569.082031 
321.240509 895302.0 
322.253082 249825.578125 
428.882385 94.603569 
432.846741 73.172874 
472.844391 101.014709 
473.342285 103.905487 
473.733124 44.013889 
492.539215 133.792908 
542.463806 102.521553 
542.555847 36.360294 
552.919128 38.642857 
576.581482 58.142857 
601.280823 80.720589 
611.74054 57.036289 
631.111206 60.315788 
633.172668 52.875 
642.090332 37.142857 
687.02356 37.125 
689.233643 32.605 
693.593567 72.019234 
724.202026 76.816666 
750.894531 125.0 
754.107544 123.028847 
765.936768 79.64286 
768.065247 168.29657 
771.116943 124.964287 
778.027771 94.281975 
831.260559 189.20755 
863.505798 49.521553 
866.320923 52.007355 
869.695923 77.512497 
881.017395 49.532894 
903.059998 85.230766 
949.853149 53.964287 
950.471558 90.360291 
951.083862 44.06649 
997.940491 75.456818 
999.499878 117.05896 
1004.190857 86.081665 
1031.819824 113.889153 
1057.185425 36.336113 
1061.87085 65.612503 
1063.132202 100.595589 
1064.833374 41.107758 
1114.686035 61.462837 
1118.130737 50.125 
1145.605225 109.019737 
1175.470947 50.005951 
1179.098022 217.122543 
1180.342896 154.0 
1195.825562 136.595245 
1225.908569 86.125 
1252.421509 126.786392 
1252.538208 61.174999 
1254.431152 58.685974 
1265.778809 70.027779 
1302.776978 50.125 
1316.036011 57.840115 
1324.245972 149.401917 
1357.542725 82.125 
1373.244019 37.599998 
1377.824341 86.833336 
1412.029053 29.306818 
1417.646973 33.125 
1425.782349 32.005001 
1445.5271 43.222828 
1470.912231 51.197582 
1472.224609 69.307205 
1485.832275 78.028847 
1499.569702 55.55682 
1503.558594 80.375 
1507.210449 52.605 
1533.661011 83.840118 
1563.520264 163.0625 
1574.754272 137.300003 
1608.867554 73.239998 
1625.031372 61.284092 
1634.147461 56.0 
1654.143433 57.720589 
1662.666992 106.25 
1695.842651 119.61364 
1698.106812 46.017857 
END IONS

BEGIN IONS
RTINSECONDS=415.59201
CHARGE=1-
MSLEVEL=2
PRECURSORINTENSITY=145255.062500
SMILES=CC1=C(C(=O)O)[C@@H](CCCCCCCCCCCCC(C)CO)OC1=O
INCHI=InChI=1S/C21H36O5/c1-16(15-22)13-11-9-7-5-3-4-6-8-10-12-14-18-19(20(23)24)17(2)21(25)26-18/h16,18,22H,3-15H2,1-2H3,(H,23,24)/t16?,18-/m1/s1
INCHIKEY=FEGXSCTZZUZMJG-UHUGOGIASA-N
CLASS=Paraconic acids
ADDUCT=[M-H]-
INSTRUMENT=Agilent Q-ToF 6530
PRECURSOR_MZ=367.2407
COMPOUND_NAME=Isomurolic acid
ION_MODE=negative
FORMULA=C21H36O5
124.055534 711.327026 
155.473755 4043.998779 
156.144714 568.28656 
169.170425 1539.169556 
181.161316 843.613403 
195.174057 1011.987183 
209.188553 3784.366943 
210.157394 1151.931641 
261.337402 1969.612915 
263.230347 7759.245605 
264.234741 2216.931396 
277.250824 5401.640625 
279.236786 3175.890381 
323.256927 6039.309082 
434.624084 57.072674 
441.679993 49.125 
475.945984 66.80278 
536.590393 49.30682 
544.521851 76.164474 
547.918396 111.975807 
558.989563 59.0 
569.307556 58.280174 
598.86084 123.734756 
609.133423 69.889709 
637.443176 57.125 
638.196106 72.140625 
638.912476 55.094696 
659.190735 74.5625 
680.409851 53.694443 
710.191406 38.028847 
721.024292 46.016666 
759.236755 97.441177 
772.720825 43.007355 
773.216736 158.98349 
787.798157 41.08654 
816.164856 32.408333 
847.40448 142.694229 
854.022522 40.174999 
879.089844 160.148804 
885.750061 49.125 
886.187988 52.450001 
901.570374 38.113636 
929.449524 34.004311 
953.62207 55.25 
984.582825 62.224998 
1007.37915 62.450001 
1021.75824 66.211205 
1031.989746 76.308823 
1039.053955 55.11842 
1076.830322 40.132355 
1083.91333 41.065788 
1113.618408 138.510422 
1136.877319 52.5 
1146.147949 45.041668 
1180.567139 54.599998 
1180.855957 77.002907 
1198.083252 49.408783 
1210.475098 53.375 
1215.366089 87.344513 
1237.662109 62.076218 
1264.660645 50.532894 
1271.386719 60.388889 
1274.435181 126.840279 
1274.517334 33.920456 
1335.154785 107.0 
1340.401855 35.805 
1368.784058 53.520832 
1374.241333 37.016666 
1380.779541 92.202271 
1386.239014 65.0 
1429.435913 66.975807 
1433.776855 41.075001 
1438.195679 54.08654 
1440.234619 62.471153 
1469.921265 59.133064 
1492.529419 62.307693 
1535.115479 75.01844 
1538.019409 35.003788 
1561.784912 41.416668 
1567.022217 67.004631 
1614.28125 34.901318 
1625.066406 48.573978 
1634.43396 55.041668 
1634.53125 41.595589 
1655.05835 49.964287 
1677.882324 58.002777 
1681.819336 43.0 
1688.880127 68.211205 
END IONS

BEGIN IONS
RTINSECONDS=349.209991
CHARGE=1-
MSLEVEL=2
PRECURSORINTENSITY=756611.437500
SMILES=C[C@@H]1CC(=O)C2=C(c3c(ccc(c3O)c3c(c4c(cc3)O[C@@]3([C@H]([C@@H](CC(=O)C3=C4O)C)O)C(=O)OC)O)O[C@@]2([C@H]1O)C(=O)OC)O
INCHI=InChI=1S/C32H30O14/c1-11-9-15(33)21-25(37)19-17(45-31(21,27(11)39)29(41)43-3)7-5-13(23(19)35)14-6-8-18-20(24(14)36)26(38)22-16(34)10-12(2)28(40)32(22,46-18)30(42)44-4/h5-8,11-12,27-28,35-40H,9-10H2,1-4H3/t11-,12-,27+,28+,31+,32+/m1/s1
INCHIKEY=NFZJAYYORNVZNI-ZKHWAINJSA-N
CLASS=Xanthones and bis-Xanthones
ADDUCT=[M-H]-
INSTRUMENT=Agilent Q-ToF 6530
PRECURSOR_MZ=637.1503
COMPOUND_NAME=Secalonic acid A
ION_MODE=negative
FORMULA=C32H30O14
111.028976 3864.94458 
123.022476 1753.968994 
141.055969 1999.936523 
149.118988 2254.474609 
198.030502 3350.328857 
199.039444 9518.171875 
200.043015 5087.576172 
225.081467 3717.11499 
226.025421 3134.543457 
243.029099 3432.080811 
333.078369 9420.262695 
334.078918 12761.014648 
349.071625 9007.181641 
350.075623 13608.350586 
351.087067 6445.479492 
410.097656 5806.912598 
427.103058 4006.009766 
454.089081 5651.467285 
468.113342 4347.87793 
484.112732 6543.961914 
486.128876 4707.70166 
502.12265 5191.365723 
518.132446 5077.347168 
544.133423 6392.483398 
560.127747 8913.348633 
562.145386 8560.59668 
578.140808 32993.058594 
579.140686 6966.511719 
620.148315 13081.338867 
698.66626 93.015625 
708.56543 120.105263 
721.390015 80.923912 
751.852051 83.08696 
781.332153 82.226852 
800.513367 94.529411 
813.847412 71.841217 
890.532776 120.045212 
898.047729 87.736115 
951.577698 88.573982 
965.012573 130.72728 
979.015076 137.396744 
986.928467 191.800003 
1013.022278 139.570312 
1041.781616 80.336113 
1044.751343 110.004997 
1138.969849 74.288269 
1200.019653 152.844299 
1233.478271 95.587265 
1262.300781 132.04808 
1283.292725 100.210526 
1317.18042 77.347221 
1337.607178 97.769234 
1383.214233 76.516129 
1388.746704 97.011902 
1408.568604 113.01786 
1447.509277 137.681702 
1451.624512 75.432144 
1468.792358 110.204117 
1474.209961 98.272728 
1481.106445 80.022728 
1535.994385 91.761902 
1560.8479 99.125 
1566.242554 80.245003 
1599.803833 102.0625 
1661.72583 87.768616 
END IONS

BEGIN IONS
RTINSECONDS=436.987
CHARGE=1-
MSLEVEL=2
PRECURSORINTENSITY=5045138.000000
SMILES=Oc1c(C(=O)Oc2cc(O)c(C(=O)O)c(CCCCC)c2)c(CC(=O)CCC)cc(OC)c1
INCHI=InChI=1S/C25H30O8/c1-4-6-7-9-15-11-19(14-20(27)22(15)24(29)30)33-25(31)23-16(10-17(26)8-5-2)12-18(32-3)13-21(23)28/h11-14,27-28H,4-10H2,1-3H3,(H,29,30)
INCHIKEY=PKLMGLZTAHCGBQ-UHFFFAOYSA-N
CLASS=Depsides (Didepsides)
ADDUCT=[M-H]-
INSTRUMENT=Agilent Q-ToF 6530
PRECURSOR_MZ=457.179
COMPOUND_NAME=Glomelliferic acid
ION_MODE=negative
FORMULA=C25H30O8
105.036041 15259.30957 
135.11702 45960.222656 
137.083389 68777.703125 
161.110504 212621.890625 
179.107697 605815.75 
205.0867 2279261.5 
206.090302 533396.25 
223.097473 1108403.375 
224.100632 247721.09375 
283.133575 31215.441406 
284.136475 20982.152344 
285.156891 3755.84375 
299.163422 37905.351562 
300.181702 14635.540039 
353.172455 1357.25 
369.207214 35573.421875 
370.208374 20163.783203 
371.216064 2330.627441 
413.194916 4933.119629 
521.681702 142.4767 
522.876404 148.349487 
556.088074 92.041664 
572.859253 152.46022 
580.547913 168.230774 
617.589111 66.012497 
647.981873 71.893517 
649.745972 85.3125 
655.584961 181.070404 
673.202881 161.302414 
703.14325 101.635201 
712.394287 79.06649 
727.817932 85.370613 
734.473145 103.764709 
752.49585 82.723213 
770.745667 86.416664 
800.554565 141.754471 
817.044312 122.385277 
817.496338 104.942307 
835.613464 230.134995 
840.605835 97.003571 
843.456848 116.171608 
883.87677 74.976349 
927.718567 68.245689 
944.15509 165.666672 
944.434204 103.880104 
952.772644 65.431122 
969.267883 98.493851 
990.556824 87.669441 
1011.816711 69.219597 
1024.078003 80.520836 
1041.970825 68.568184 
1053.34082 69.306816 
1068.773438 74.091415 
1083.538452 69.64286 
1099.502319 76.851418 
1111.673584 120.320312 
1117.501099 112.25 
1124.488525 128.1315 
1148.303955 177.190323 
1154.34436 71.027779 
1168.858521 127.668648 
1206.977051 59.761364 
1213.513794 159.396744 
1216.874756 102.669121 
1243.074829 68.275002 
1264.162476 79.938828 
1294.001587 105.157051 
1315.606812 83.002548 
1322.545044 70.680557 
1335.382324 91.010414 
1346.263428 99.387817 
1379.452637 96.5625 
1388.66333 138.238373 
1390.89563 139.969833 
1394.80542 79.120094 
1422.555542 123.645546 
1444.706421 73.080132 
1463.908569 125.644997 
1478.231812 78.035713 
1507.993408 72.615387 
1508.310181 62.404999 
1512.193726 62.551472 
1557.869629 141.653229 
1571.396118 61.231556 
1581.696655 79.204544 
1589.721436 99.592216 
1606.432617 65.055557 
1629.995361 66.449074 
1663.368652 112.900002 
1669.664673 80.598404 
1685.955322 84.022957 
1686.91333 74.541664 
1688.273071 157.080124 
END IONS

BEGIN IONS
RTINSECONDS=424.355988
CHARGE=1-
MSLEVEL=2
PRECURSORINTENSITY=148078.968750
SMILES=Cc1cc(c(c(c1C(=O)O)O)C=O)O
INCHI=InChI=1S/C9H8O5/c1-4-2-6(11)5(3-10)8(12)7(4)9(13)14/h2-3,11-12H,1H3,(H,13,14)
INCHIKEY=KCOOTJRKKIDHTM-UHFFFAOYSA-N
CLASS=Cleavage Products of Depsides and Depsidones
ADDUCT=[M-H]-
INSTRUMENT=Agilent Q-ToF 6530
PRECURSOR_MZ=195.03
COMPOUND_NAME=Haematommic acid
ION_MODE=negative
FORMULA=C9H8O5
105.027565 826.674561 
123.017159 2240.209229 
151.201157 2693.184082 
161.013809 632.49353 
163.252991 878.835632 
177.091187 1730.091553 
235.723679 87.809998 
249.390747 136.719345 
290.102875 96.190475 
291.813477 62.083332 
335.75058 71.002357 
348.736572 44.449467 
384.388794 91.166138 
409.12323 136.366928 
431.762207 70.226852 
448.308563 101.63269 
460.309692 73.5 
468.858032 160.005432 
482.509491 83.083336 
560.104614 64.444443 
562.452942 58.308823 
570.839844 49.049999 
573.185547 108.183823 
583.602112 51.125 
592.406433 99.335526 
END IONS

BEGIN IONS
RTINSECONDS=469.348999
CHARGE=1-
MSLEVEL=2
PRECURSORINTENSITY=2002153.500000
SMILES=CCCCCCCCCCCCC[C@H]1[C@H]([C@H](C(=O)O1)C)C(=O)O
INCHI=InChI=1S/C19H34O4/c1-3-4-5-6-7-8-9-10-11-12-13-14-16-17(18(20)21)15(2)19(22)23-16/h15-17H,3-14H2,1-2H3,(H,20,21)/t15-,16+,17+/m1/s1
INCHIKEY=WLGALFYTFVOQPY-IKGGRYGDSA-N
CLASS=Paraconic acids
ADDUCT=[M-H]-
INSTRUMENT=Agilent Q-ToF 6530
PRECURSOR_MZ=325.2305
COMPOUND_NAME=Nephromopsic acid
ION_MODE=negative
FORMULA=C19H34O4
113.023735 125073.671875 
113.181824 566.476501 
114.026901 7162.893066 
114.446518 219.429962 
115.054825 504.102264 
151.086258 221.030334 
169.821564 109.391304 
183.029831 161.580261 
186.814438 119.06649 
215.307617 123.777779 
223.104172 119.456894 
281.253601 497565.0625 
282.252686 113586.929688 
283.255127 5628.193359 
398.424408 110.800003 
404.242554 187.530884 
414.122681 120.787163 
449.398224 49.035713 
468.574951 38.017857 
477.631104 57.222221 
482.9422 51.004631 
491.38623 103.681602 
532.188782 35.782406 
551.066833 63.515244 
554.095703 45.5 
589.747742 48.875 
616.246216 101.668648 
621.063904 54.644737 
670.601318 105.798912 
682.626221 86.375 
685.84552 151.490005 
707.023315 71.01136 
714.53009 101.515625 
723.415649 73.009613 
723.776428 52.017857 
774.668701 107.230766 
791.654236 64.33654 
791.743042 44.150002 
794.268616 56.272728 
802.839844 142.325577 
845.13678 105.120094 
845.2052 107.574997 
853.241211 99.223686 
861.261841 105.224998 
887.124695 48.840908 
900.240173 106.26535 
944.79895 104.959213 
956.090393 85.273651 
968.405579 49.23077 
993.20874 65.75 
1016.88031 141.080002 
1018.448608 55.315788 
1025.182861 50.052631 
1061.720337 79.939514 
1083.121094 141.864731 
1088.397461 85.791664 
1112.200195 125.551468 
1142.567139 56.969826 
1150.810913 71.228775 
1184.019531 60.013889 
1184.923096 48.107758 
1185.739624 53.066666 
1230.566406 55.347221 
1251.880127 78.185608 
1253.564819 75.416664 
1259.470947 133.979645 
1288.901245 98.281975 
1289.832764 94.778847 
1329.810547 127.231483 
1331.645874 95.013885 
1353.944214 78.009262 
1360.489014 58.061275 
1364.12085 89.544495 
1402.6521 112.612503 
1414.700439 51.5 
1417.797241 67.240387 
1450.469971 104.142242 
1499.280273 102.806252 
1499.369873 69.32692 
1509.697144 64.532898 
1513.962769 134.440475 
1560.199951 72.13636 
1563.233765 96.96154 
1584.077759 125.440002 
1589.084351 110.695656 
1605.982544 109.047623 
1635.109741 54.573978 
1636.95105 41.802776 
1646.837524 30.083334 
1662.259888 53.117645 
1662.378906 25.53125 
1673.159668 24.75 
END IONS

BEGIN IONS
RTINSECONDS=362.588989
CHARGE=1-
MSLEVEL=2
PRECURSORINTENSITY=1153830.875000
SMILES=O=C1c2c(C)cc(O)c(C=O)c2Oc2c(O1)c(c(c(c2C)C(=O)O)O)COC(=O)/C=C/C(=O)O
INCHI=InChI=1S/C22H16O12/c1-8-5-12(24)10(6-23)19-15(8)22(31)34-20-11(7-32-14(27)4-3-13(25)26)17(28)16(21(29)30)9(2)18(20)33-19/h3-6,24,28H,7H2,1-2H3,(H,25,26)(H,29,30)/b4-3+
INCHIKEY=VEGGRTFDFMUBPD-ONEGZZNKSA-N
CLASS=Depsidones
ADDUCT=[M-H]-
INSTRUMENT=Agilent Q-ToF 6530
PRECURSOR_MZ=471.0573
COMPOUND_NAME=Fumarprotocetraric acid
ION_MODE=negative
FORMULA=C22H16O12
105.034073 3896.648682 
115.003265 35458.339844 
121.028534 6433.382324 
135.043442 10820.22168 
149.023605 21809.841797 
199.043137 11663.672852 
211.077362 20227.96875 
239.070419 58089.683594 
241.050385 45305.992188 
255.066269 23747.228516 
283.060486 47842.367188 
311.055939 530547.1875 
312.059113 178782.125 
337.034851 19417.767578 
355.104736 346186.15625 
356.048218 128972.015625 
425.361176 165.375 
536.586975 111.051231 
577.136658 84.275002 
579.202698 81.967102 
593.489624 82.2192 
617.365967 94.0 
618.875916 141.422409 
647.334595 91.151123 
655.822876 94.926285 
671.67926 92.666664 
673.848145 82.844299 
709.824646 103.817566 
719.442627 79.801727 
727.868042 106.818184 
744.742432 90.239998 
772.713135 85.246948 
782.296082 72.281975 
782.666809 72.040001 
819.881836 76.96154 
822.637207 76.045456 
854.440247 84.30867 
868.703003 93.04348 
871.019531 100.385635 
889.533447 107.852272 
931.852844 54.942307 
957.465576 100.335526 
974.579163 95.022957 
978.956909 70.041664 
991.614014 91.06649 
1018.668701 77.778847 
1023.137817 132.247635 
1050.709106 206.505737 
1085.328613 111.089287 
1100.464478 126.886627 
1101.089355 84.136108 
1114.559204 106.049606 
1132.640503 93.103813 
1151.38269 134.204117 
1163.927002 81.939514 
1213.477051 95.0 
1220.654053 85.328949 
1231.307251 71.678574 
1243.410034 83.04808 
1259.553467 75.111366 
1280.546509 58.080128 
1283.107056 115.077583 
1332.634766 56.375 
1341.033569 61.570946 
1349.657959 86.474998 
1360.002075 78.564026 
1384.346069 72.160713 
1385.471191 68.778061 
1396.826538 71.698273 
1421.73584 134.314102 
1449.602539 66.875 
1480.865356 124.408333 
1497.557007 76.209999 
1514.384033 119.002357 
1556.956177 140.545456 
1559.387207 109.697784 
1573.0271 83.721153 
1588.217529 92.213028 
1602.691284 92.344513 
1612.837158 63.10041 
1621.506104 83.041664 
1621.637451 219.619843 
1672.770996 62.57143 
1673.367065 63.052631 
1674.583862 73.801727 
1687.610352 63.375 
1689.454712 65.557693 
1694.166748 59.133064 
END IONS

BEGIN IONS
RTINSECONDS=272.265991
CHARGE=1-
MSLEVEL=2
PRECURSORINTENSITY=131935.328125
SMILES=O=C(O)c1c(C)c(Cl)c(O)c(Cl)c1O
INCHI=InChI=1S/C8H6Cl2O4/c1-2-3(8(13)14)6(11)5(10)7(12)4(2)9/h11-12H,1H3,(H,13,14)
INCHIKEY=QZKUNAATQJYHIC-UHFFFAOYSA-N
CLASS=Cleavage Products of Depsides and Depsidones
ADDUCT=[M-H]-
INSTRUMENT=Agilent Q-ToF 6530
PRECURSOR_MZ=234.9548
COMPOUND_NAME="N 3,5-Dichlororsellinic acid"
ION_MODE=negative
FORMULA=C8H6Cl2O4
119.013069 6990.901367 
126.994865 98849.578125 
127.724579 7635.581543 
128.993149 1839.408203 
154.968216 55356.425781 
190.963928 261978.90625 
191.970612 25574.888672 
192.965454 9148.379883 
306.752441 80.16346 
307.575317 175.881577 
327.438507 94.178574 
371.37262 85.165543 
378.837097 67.875 
391.922729 80.002663 
395.572479 232.128525 
408.128815 108.336113 
437.107635 75.235291 
457.900391 130.207138 
464.683502 66.260414 
493.797852 72.84375 
512.919556 70.173782 
528.059753 79.00676 
551.379639 144.100006 
557.121643 71.473686 
582.586243 130.594131 
589.584839 76.175003 
639.295959 71.041664 
659.898315 63.058964 
664.334839 56.005001 
672.891602 67.368423 
696.510559 63.25 
705.174561 134.385269 
723.00116 56.575001 
765.751343 77.263161 
770.740723 59.455647 
783.028198 76.92308 
799.756775 91.555557 
811.552917 52.222221 
812.998474 55.013889 
873.061829 92.916664 
884.908325 83.45153 
907.068848 77.191177 
913.7229 54.113636 
935.902832 70.336113 
937.527771 58.25 
969.321655 87.900421 
999.483704 78.289284 
1005.822876 119.677818 
1017.238159 103.9375 
1020.688171 142.410217 
1050.202637 98.105263 
1069.567139 52.557693 
1072.78833 42.30682 
1094.360718 74.0 
1113.942749 49.16346 
1141.065308 106.066666 
1141.980713 81.059212 
1157.658203 57.020832 
1173.982056 49.041668 
1224.238037 89.3125 
1230.54126 88.375 
1240.216187 85.336113 
1244.519653 92.08696 
1262.614258 136.882462 
1275.322144 93.444443 
1317.775024 90.889999 
1317.947144 126.333336 
1348.092163 71.328949 
1350.820435 84.625 
1395.257324 84.68145 
1405.319458 63.284092 
1412.156372 102.13636 
1431.866089 88.019066 
1438.109985 89.816666 
1454.719727 164.845001 
1464.020508 116.290321 
1495.716064 119.284088 
1515.227539 76.515625 
1520.762573 127.556252 
1553.563232 65.333336 
1554.948242 52.782406 
1561.207275 132.288269 
1618.413574 53.315788 
1621.385376 61.799999 
1622.022949 71.07692 
1625.362549 60.462837 
1661.993164 79.764832 
1665.214478 52.5 
1680.318604 43.058823 
1690.566162 44.333332 
END IONS

BEGIN IONS
RTINSECONDS=436.59201
CHARGE=1-
MSLEVEL=2
PRECURSORINTENSITY=2143330.500000
SMILES=O=C1c2c(C)cc(O)c(C=O)c2Oc2c(O1)c(c(c(c2C)C(=O)O)O)COC(=O)C
INCHI=InChI=1S/C20H16O10/c1-7-4-12(23)10(5-21)17-13(7)20(27)30-18-11(6-28-9(3)22)15(24)14(19(25)26)8(2)16(18)29-17/h4-5,23-24H,6H2,1-3H3,(H,25,26)
INCHIKEY=SKXNIRUDASOCCN-UHFFFAOYSA-N
CLASS=Depsidones
ADDUCT=[M-H]-
INSTRUMENT=Agilent Q-ToF 6530
PRECURSOR_MZ=415.0567
COMPOUND_NAME=Physodalic acid
ION_MODE=negative
FORMULA=C20H16O10
105.034447 8565.954102 
123.018829 8919.1875 
135.04512 10785.680664 
148.998688 22019.509766 
151.039566 16803.417969 
199.048828 21340.583984 
211.074814 37882.375 
239.069336 117241.195312 
241.049377 45728.515625 
255.063675 49748.695312 
283.058746 168192.96875 
284.061859 49424.972656 
311.05365 604480.125 
312.056091 157854.484375 
337.032074 24799.402344 
355.02652 724051.6875 
356.045593 247637.140625 
357.046509 27418.423828 
449.695343 193.373062 
495.968872 93.471153 
516.690002 95.716835 
518.750305 80.003571 
530.529358 109.007141 
530.729492 128.432693 
565.357239 159.333328 
570.361267 109.091415 
587.51001 151.148804 
597.871643 118.51059 
631.175659 94.074997 
636.915955 171.001816 
662.640747 111.521553 
670.664673 74.133064 
691.101624 117.479477 
721.963806 132.04892 
733.117004 98.964622 
740.427429 91.900864 
758.545776 97.003204 
761.27948 110.5 
797.312744 100.852272 
810.770081 112.102272 
811.378052 136.064514 
814.226379 89.764832 
823.698059 94.396736 
854.97467 131.360962 
886.387451 82.08036 
906.00061 94.939651 
937.183472 154.324158 
944.305481 141.361115 
948.098999 126.291664 
956.148987 90.136108 
965.612915 131.82045 
1001.268921 186.415237 
1036.137085 81.80278 
1044.198364 73.734756 
1075.186523 72.583336 
1084.509766 95.578575 
1096.515869 259.510193 
1098.950684 79.521736 
1138.821899 83.185608 
1138.923096 81.333336 
1148.023926 87.469444 
1150.133667 79.206635 
1155.081299 131.076218 
1201.838745 108.330643 
1205.596924 138.735291 
1212.63208 74.33654 
1238.127319 76.708336 
1259.924561 168.875 
1276.634277 84.474998 
1284.351562 81.019066 
1297.971558 93.349998 
1328.904541 69.625 
1387.949585 112.778572 
1396.010498 184.102463 
1409.685303 108.232689 
1420.404297 149.019073 
1425.397827 103.960526 
1439.187378 116.102272 
1471.681396 86.08036 
1475.305176 85.508926 
1480.683105 81.040001 
1508.000244 77.019234 
1528.256592 76.145409 
1541.300293 102.802635 
1557.837402 78.347221 
1582.360229 77.224998 
1589.285645 84.119186 
1624.904297 91.030403 
1631.777588 120.197578 
1642.121582 80.368423 
1660.237061 91.284485 
1661.169189 89.125 
1692.084351 75.484848 
END IONS

BEGIN IONS
RTINSECONDS=348.638
CHARGE=1-
MSLEVEL=2
PRECURSORINTENSITY=1830212.750000
SMILES=Oc1cc(O)cc2c1c(=O)c1c(o2)cc(c(Cl)c1C)O
INCHI=InChI=1S/C14H9ClO5/c1-5-11-10(4-8(18)13(5)15)20-9-3-6(16)2-7(17)12(9)14(11)19/h2-4,16-18H,1H3
INCHIKEY=GJFIGYXKJHSBBY-UHFFFAOYSA-N
CLASS=Xanthones and bis-Xanthones
ADDUCT=[M-H]-
INSTRUMENT=Agilent Q-ToF 6530
PRECURSOR_MZ=290.9969
COMPOUND_NAME=7-Chloronorlichexanthone
ION_MODE=negative
FORMULA=C14H9ClO5
103.018898 12171.359375 
117.082253 9996.105469 
138.994431 24955.939453 
143.048813 12419.893555 
155.048645 15476.001953 
182.984344 43884.722656 
183.040039 29064.128906 
227.032501 81391.03125 
247.012939 172870.25 
255.027649 83943.898438 
354.190887 106.027779 
363.072662 103.047623 
400.921143 77.08654 
404.580109 110.461067 
409.760681 58.130436 
464.743713 135.762192 
466.862701 61.165817 
471.19165 62.273647 
479.779999 44.244999 
489.435699 64.0 
520.376221 64.969826 
530.022888 95.462837 
548.487305 65.206635 
554.784973 93.004036 
557.174316 91.25 
571.652466 99.151123 
572.848938 112.231483 
601.10498 71.002663 
605.327942 67.072678 
615.985291 88.339287 
660.15033 69.75 
675.976379 113.115562 
695.893494 75.336113 
720.018127 95.599998 
722.92926 84.470589 
736.138733 99.013885 
751.890991 78.173782 
758.619385 86.112503 
774.618652 107.532608 
823.514038 141.0 
823.600952 97.489868 
838.530701 75.136108 
855.246277 50.490002 
871.906128 170.284088 
907.792786 205.646652 
917.070251 100.09375 
919.436096 148.469452 
954.672791 101.798912 
983.429321 62.889706 
996.840332 121.909088 
1009.559204 112.533333 
1013.312561 53.520832 
1075.0271 39.30682 
1082.371216 45.285713 
1099.672729 211.882812 
1108.252808 56.68182 
1108.477173 54.00658 
1116.517212 52.291668 
1136.335083 48.416668 
1176.551147 105.006096 
1177.502075 34.066666 
1187.854248 34.01923 
1187.935547 39.075001 
1229.279541 48.245689 
1238.356812 38.049999 
1255.297974 95.100609 
1255.673096 47.322369 
1289.591553 73.25798 
1290.249634 45.578949 
1294.510498 113.148811 
1297.659302 65.59375 
1312.319824 35.197582 
1314.12146 37.400002 
1363.538574 30.285715 
1366.236938 32.222828 
1366.898682 29.889706 
1396.305786 34.219593 
1418.621216 40.68145 
1435.901489 91.506943 
1462.113892 73.347221 
1477.001221 53.845001 
1482.797607 54.111843 
1486.031982 49.065788 
1495.34021 35.404999 
1550.097534 35.226852 
1564.705933 115.5625 
1569.907593 71.75 
1583.15686 47.644737 
1612.561768 107.32415 
1627.212524 49.449074 
1643.443115 51.219593 
1652.531738 57.100609 
1669.705811 152.021744 
1690.820801 42.211208 
1695.599487 100.025002 
END IONS

BEGIN IONS
RTINSECONDS=328.548004
CHARGE=1-
MSLEVEL=2
PRECURSORINTENSITY=163975.328125
SMILES=O=C(OC)c1c(C)cc(O)c(C=O)c1O
INCHI=InChI=1S/C10H10O5/c1-5-3-7(12)6(4-11)9(13)8(5)10(14)15-2/h3-4,12-13H,1-2H3
INCHIKEY=PXFMUVDLJWXOQM-UHFFFAOYSA-N
CLASS=Cleavage Products of Depsides and Depsidones
ADDUCT=[M-H]-
INSTRUMENT=Agilent Q-ToF 6530
PRECURSOR_MZ=209.0445
COMPOUND_NAME=Methyl Haematommate
ION_MODE=negative
FORMULA=C10H10O5
105.033821 13438.046875 
106.134636 1300.099487 
107.014099 3255.714111 
122.036324 1380.550171 
133.040527 6240.266602 
149.023132 6619.46875 
177.024704 49021.265625 
178.025711 4985.118164 
181.052078 5097.984375 
282.514069 52.515625 
292.289856 58.680557 
298.157257 123.925926 
303.295685 64.76136 
317.058289 147.457138 
325.331818 72.385635 
342.869598 68.515244 
376.46991 144.680557 
386.422211 51.140625 
390.847839 67.034088 
393.073914 47.0 
412.691711 82.272728 
458.78479 97.777985 
466.300934 70.564812 
473.295593 118.045288 
501.695679 74.25 
521.808899 75.840118 
551.488525 75.0 
560.340027 46.487904 
582.874695 41.003048 
600.529846 117.215424 
616.732727 63.083332 
645.262085 49.00658 
684.857239 56.0 
691.333618 43.034092 
691.554626 66.32692 
705.466797 84.441177 
742.154419 53.160713 
746.09021 65.285713 
750.331055 93.6129 
756.559021 38.694443 
852.625549 46.592106 
855.031128 48.367424 
856.42749 44.125 
862.59314 46.375 
870.102661 56.347221 
873.761658 116.75 
934.937866 38.090908 
935.598511 31.0 
936.148865 67.367424 
988.737488 62.81686 
992.993774 136.013885 
994.257996 38.575001 
1003.981018 76.01786 
1006.564392 41.032143 
1044.585205 45.25 
1046.51123 36.173077 
1046.829712 45.0625 
1075.56958 22.125 
1091.132202 36.005436 
1104.571045 54.473682 
1134.223999 102.690002 
1150.015991 76.14286 
1157.88501 85.699997 
1161.513672 48.038792 
1202.088623 34.900864 
1206.342163 34.657608 
1218.245239 37.025002 
1227.580444 34.556034 
1258.612305 50.004032 
1282.169312 41.16346 
1295.777466 28.211206 
1309.633911 28.041666 
1333.759033 55.0 
1361.859131 30.245001 
1378.599121 27.148809 
1388.23938 37.44643 
1399.330444 91.349487 
1416.952637 102.041664 
1441.59668 35.0 
1459.093506 35.038792 
1488.501221 43.107143 
1501.106323 38.520832 
1511.082886 55.455647 
1520.268433 31.322369 
1524.98938 39.570652 
1546.111206 140.093018 
1591.229736 34.640625 
1605.432617 65.181816 
1612.393066 61.032143 
1617.849243 53.27174 
1647.911499 64.181816 
1666.328491 31.875 
1682.501221 28.0 
1693.794189 66.5 
1696.157104 46.845001 
END IONS

BEGIN IONS
RTINSECONDS=349.161987
CHARGE=1-
MSLEVEL=2
PRECURSORINTENSITY=155686.046875
SMILES=Oc1cc(C(=O)O)cc2c1C(=O)c1c(cc(cc1O)OC)C2=O
INCHI=InChI=1S/C16H10O7/c1-23-7-4-9-13(11(18)5-7)15(20)12-8(14(9)19)2-6(16(21)22)3-10(12)17/h2-5,17-18H,1H3,(H,21,22)
INCHIKEY=HEULMVKOOVHXME-UHFFFAOYSA-N
CLASS=Quinones
ADDUCT=[M-H]-
INSTRUMENT=Agilent Q-ToF 6530
PRECURSOR_MZ=313.0251
COMPOUND_NAME=Parietinic acid
ION_MODE=negative
FORMULA=C16H10O7
106.109909 124.583336 
112.018143 275.246613 
113.081963 306.081146 
114.072273 261.197357 
142.053879 907.538818 
170.035889 3472.592529 
197.02269 1520.598389 
198.036392 14096.367188 
199.033142 3121.441895 
226.02301 29848.818359 
227.038696 5381.722656 
254.020401 91112.992188 
255.023621 15895.580078 
269.044067 13448.617188 
270.047119 2359.351318 
352.955261 65.391129 
387.651031 59.969826 
405.065643 39.004631 
420.997467 34.942307 
458.46579 35.799999 
459.473206 39.041668 
461.341003 31.375 
463.760071 35.778847 
507.412354 54.875 
529.613586 54.78125 
541.579041 58.107143 
559.128113 58.003571 
567.706909 48.416668 
575.684326 43.0 
645.190186 99.470741 
655.280151 157.331528 
655.373352 49.117645 
686.188782 113.371948 
697.367493 87.120766 
705.886353 74.326614 
739.472595 68.076218 
747.548706 67.014709 
771.792786 67.449074 
789.622375 80.235291 
790.85614 98.695511 
816.382507 117.653984 
822.229919 105.125 
836.497864 188.897995 
841.801697 81.236702 
855.305603 59.003204 
904.190125 56.032143 
909.487122 28.160715 
919.305908 30.75 
920.994873 56.722221 
938.090576 56.520832 
966.330322 72.48214 
978.221924 31.03125 
978.67041 35.222828 
987.959717 35.900002 
1031.100952 106.03846 
1031.172119 46.208332 
1059.116455 52.347221 
1059.32019 29.674999 
1106.604126 46.875 
1110.400146 39.404999 
1121.050293 108.523552 
1126.666626 42.400002 
1130.957886 95.375 
1160.438599 72.010872 
1182.780151 47.205002 
1183.510742 57.086956 
1187.756836 27.066668 
1229.869141 45.044998 
1270.721069 63.25 
1281.961548 46.515625 
1295.550659 138.002274 
1296.695557 62.00658 
1297.905762 133.526642 
1320.731323 68.150002 
1349.988525 51.014706 
1355.805786 44.222221 
1362.328491 39.720589 
1380.150269 64.881096 
1421.071167 43.028847 
1453.240723 35.1875 
1462.224731 45.469444 
1467.60791 56.25 
1476.264648 73.173912 
1495.242065 60.669445 
1507.701172 82.030403 
1529.327881 33.570652 
1533.130981 40.191177 
1545.878296 32.005001 
1567.097046 59.68145 
1569.543091 119.77594 
1622.934326 54.391129 
1631.387573 27.5 
1643.130127 24.125 
1645.284546 45.297619 
1659.078247 32.482143 
1669.945679 75.208336 
1688.940308 21.450001 
1697.157471 39.036289 
END IONS

BEGIN IONS
RTINSECONDS=321.938995
CHARGE=1-
MSLEVEL=2
PRECURSORINTENSITY=41365.371094
SMILES=Oc1c(C)c(O)cc(C)c1C(=O)OC
INCHI=InChI=1S/C10H12O4/c1-5-4-7(11)6(2)9(12)8(5)10(13)14-3/h4,11-12H,1-3H3
INCHIKEY=UUQHKWMIDYRWHH-UHFFFAOYSA-N
CLASS=Cleavage Products of Depsides and Depsidones
ADDUCT=[M-H]-
INSTRUMENT=Agilent Q-ToF 6530
PRECURSOR_MZ=195.066
COMPOUND_NAME=Methyl beta-orcinolcarboxylate
ION_MODE=negative
FORMULA=C10H12O4
107.101379 98.485291 
119.049385 18441.875 
120.052414 1651.421509 
160.840881 1208.490234 
163.049774 22093.287109 
163.947235 2834.404541 
238.371109 81.681602 
261.095001 122.0 
293.119995 51.263157 
297.187073 31.005953 
317.735687 47.025002 
349.54776 55.680557 
370.519989 45.785713 
377.889618 80.125 
388.314026 69.041664 
388.882904 47.89352 
429.479126 74.9375 
438.263123 50.027779 
447.019775 45.0 
464.295074 87.5625 
494.390137 83.560349 
504.977142 92.512497 
520.200867 54.200001 
571.454041 72.173782 
577.507874 64.727943 
585.146301 38.111843 
595.401733 61.130436 
596.994019 51.515625 
652.714478 52.05682 
654.676575 64.059212 
664.689819 56.016666 
698.147278 52.721153 
720.331787 91.222458 
723.491882 89.80278 
752.329468 50.761906 
758.361694 32.666668 
778.315002 42.640625 
806.83252 41.720238 
835.933289 57.148811 
837.676636 45.645 
866.985596 63.097828 
883.136963 54.692307 
888.132996 50.094696 
889.419373 71.375 
892.338745 52.136364 
927.750366 51.25 
953.328491 44.041668 
959.088867 61.355392 
959.142639 47.008335 
979.809204 46.583332 
1009.106934 82.521553 
1011.659729 35.083332 
1031.717773 59.089287 
1092.584717 26.225 
1093.419434 36.004311 
1096.925659 28.889706 
1120.023682 71.01786 
1126.74585 54.066666 
1144.359863 41.125 
1168.851562 47.0 
1197.852905 39.961956 
1205.204712 76.125 
1233.602539 46.515625 
1237.182861 58.148811 
1237.668213 69.066666 
1266.869141 37.160713 
1282.005859 63.200001 
1289.565186 49.44643 
1331.368896 45.044998 
1351.148315 64.025002 
1369.940918 38.113636 
1378.317993 43.89352 
1389.13147 75.130432 
1434.966431 52.347221 
1437.19397 37.01923 
1473.118408 30.568182 
1492.748047 30.272728 
1496.487915 26.654411 
1514.511475 115.560349 
1558.190063 34.599998 
1559.136597 36.25 
1561.715332 50.694443 
1592.192261 44.612499 
1602.480957 47.512501 
1609.078979 39.671295 
1635.061401 31.605 
1654.315552 31.48077 
1660.099609 22.005953 
1682.255249 53.920456 
1684.402344 32.625 
END IONS

BEGIN IONS
RTINSECONDS=491.401001
CHARGE=1-
MSLEVEL=2
PRECURSORINTENSITY=3574420.000000
SMILES=Oc1c(C(=O)Oc2cc(CCCCC)c(c(O)c2)C(=O)O)c(CCC)cc(OC)c1
INCHI=InChI=1S/C23H28O7/c1-4-6-7-9-15-11-17(13-18(24)20(15)22(26)27)30-23(28)21-14(8-5-2)10-16(29-3)12-19(21)25/h10-13,24-25H,4-9H2,1-3H3,(H,26,27)
INCHIKEY=XZVFRLDHIHBLGT-UHFFFAOYSA-N
CLASS=Depsides (Didepsides)
ADDUCT=[M-H]-
INSTRUMENT=Agilent Q-ToF 6530
PRECURSOR_MZ=415.1707
COMPOUND_NAME=Stenosporic acid
ION_MODE=negative
FORMULA=C23H28O7
105.033554 17146.894531 
135.129074 59146.949219 
137.106384 99449.40625 
161.102921 181398.0 
179.107193 625381.9375 
205.086273 1620796.75 
206.089417 326899.125 
223.096771 1612282.125 
224.099976 305459.625 
311.158173 11947.172852 
312.167267 4996.560547 
327.193848 16398.498047 
328.197937 6484.463867 
371.182739 3301.76001 
469.866516 175.903763 
473.834473 104.34375 
486.548004 161.69606 
498.436523 111.875 
569.470337 78.009613 
593.652344 115.457146 
599.052307 98.04348 
604.05603 89.206894 
623.449585 102.5625 
635.5448 206.207474 
655.127014 101.331078 
658.820679 163.002274 
658.894653 89.164474 
704.261963 96.199997 
712.930298 140.506943 
715.515259 103.270271 
760.449463 100.917374 
779.224915 71.440002 
794.619568 81.5 
794.965088 92.471153 
811.516479 87.693962 
843.372925 96.002449 
845.284912 102.166664 
857.769714 95.206894 
865.285034 105.401924 
886.361511 122.451614 
900.19574 116.557693 
908.902222 121.878426 
909.477966 96.207146 
929.394165 88.344513 
973.90094 122.976349 
983.982361 91.011902 
1005.583435 114.033333 
1007.704346 133.510422 
1027.177002 94.06649 
1036.168091 119.470932 
1040.304688 123.89286 
1069.858887 90.00219 
1073.49353 104.556816 
1086.307983 92.764709 
1121.29834 127.98349 
1137.470703 138.225754 
1141.897461 136.298782 
1171.216431 96.565216 
1180.738037 94.708336 
1206.895264 85.680557 
1233.826538 39.115742 
1256.628052 70.493423 
1266.143433 48.671295 
1299.924683 84.223213 
1306.064941 128.042801 
1330.442627 110.71627 
1336.603394 120.875 
1353.219971 126.615387 
1366.011597 73.072678 
1367.286865 85.344513 
1373.496582 83.360847 
1423.433105 65.361115 
1424.503296 65.654068 
1436.022705 60.440216 
1442.706055 67.68145 
1443.836304 99.787041 
1475.147705 64.375 
1495.73999 141.1315 
1496.102173 51.603573 
1510.601685 84.880104 
1533.040039 132.288269 
1550.7229 93.041664 
1557.439209 168.59314 
1581.008667 89.25798 
1586.499756 73.336113 
1618.242554 148.339279 
1621.685669 63.185608 
1641.703369 156.716263 
1648.098755 108.777779 
1662.485718 60.010868 
1675.63855 29.782408 
1676.773926 36.025002 
1695.592041 30.674999 
END IONS

BEGIN IONS
RTINSECONDS=373.812012
CHARGE=1-
MSLEVEL=2
PRECURSORINTENSITY=5397247.000000
SMILES=O=C1c2c(C)cc(OC)c(C)c2Oc2c(O1)cc(c(c2C)C(=O)O)O
INCHI=InChI=1S/C18H16O7/c1-7-5-11(23-4)8(2)16-13(7)18(22)24-12-6-10(19)14(17(20)21)9(3)15(12)25-16/h5-6,19H,1-4H3,(H,20,21)
INCHIKEY=IXEVSIMCIWOSQO-UHFFFAOYSA-N
CLASS=Depsidones
ADDUCT=[M-H]-
INSTRUMENT=Agilent Q-ToF 6530
PRECURSOR_MZ=343.0789
COMPOUND_NAME=Notatic acid
ION_MODE=negative
FORMULA=C18H16O7
120.058578 9708.291016 
173.059052 128692.101562 
197.060104 1062257.875 
198.064697 192018.59375 
201.054382 197737.25 
211.076019 514373.1875 
240.078415 2508677.0 
241.081329 516058.09375 
255.090225 480101.125 
257.081299 179762.53125 
299.091431 151787.640625 
443.323669 111.400002 
479.751251 136.088882 
481.12677 112.097824 
497.490479 144.882462 
497.546692 113.217781 
510.277802 143.005951 
546.700989 120.428574 
553.690247 130.148148 
557.997742 123.100349 
577.186707 137.619385 
602.527222 158.142853 
637.798889 137.015839 
642.791748 113.979652 
653.828857 139.232559 
666.538391 126.336113 
716.40094 119.117645 
737.647949 77.172874 
778.636414 103.18409 
781.442017 126.682434 
782.19873 85.14959 
788.669373 68.556038 
812.076965 110.002357 
825.802917 155.120758 
842.015259 201.407608 
858.708313 161.539841 
907.632385 110.003784 
910.912415 107.061272 
927.078857 113.247948 
928.082458 67.375 
945.833496 131.135315 
1007.061279 125.084015 
1018.213196 77.125 
1018.285339 114.951271 
1037.588867 136.005676 
1042.073364 263.48584 
1079.90271 203.1008 
1102.82312 111.5 
1104.621582 69.219597 
1109.11853 91.800003 
1130.80835 145.65097 
1135.942017 105.055557 
1168.47522 118.367424 
1212.373413 74.32692 
1240.154297 56.09375 
1252.758545 79.920921 
1260.957642 131.006943 
1289.978027 57.720238 
1351.957764 220.143906 
1357.732422 158.625 
1409.263794 116.805328 
1421.227783 137.153839 
1429.865845 104.444443 
1446.067017 66.347221 
1458.353882 79.257141 
1468.009277 107.204544 
1471.400391 55.107143 
1531.799194 73.100609 
1549.03772 106.052963 
1551.307129 54.30682 
1586.793335 124.461067 
1596.168457 70.14286 
1605.293335 88.573982 
1641.793579 153.515778 
1674.741821 107.375 
1683.220825 71.431122 
1688.741455 80.515244 
1690.518921 61.136112 
1692.485229 55.083332 
1692.891357 61.190475 
END IONS

BEGIN IONS
RTINSECONDS=403.953003
CHARGE=1-
MSLEVEL=2
PRECURSORINTENSITY=2121761.750000
SMILES=Cc1c(c(O)c(C=O)c(O)c1C=O)C(=O)Oc1c(C)c(C)cc(OC)c1C
INCHI=InChI=1S/C20H20O7/c1-9-6-15(26-5)12(4)19(10(9)2)27-20(25)16-11(3)13(7-21)17(23)14(8-22)18(16)24/h6-8,23-24H,1-5H3
INCHIKEY=COJRBNIKTUZKMH-UHFFFAOYSA-N
CLASS=Depsides (Didepsides)
ADDUCT=[M-H]-
INSTRUMENT=Agilent Q-ToF 6530
PRECURSOR_MZ=371.115
COMPOUND_NAME=Nephroarctin
ION_MODE=negative
FORMULA=C20H20O7
105.156265 29748.591797 
107.028923 43915.855469 
135.008148 75238.382812 
150.058823 197866.109375 
165.091797 399473.15625 
177.019287 109154.09375 
203.003952 177566.796875 
205.014175 880621.0625 
206.01712 114549.875 
283.100128 264.248749 
284.082153 310.775574 
293.578918 256.314301 
297.074005 409.378693 
441.817078 133.240387 
447.705078 130.68512 
459.463562 133.559998 
481.803345 119.202271 
490.645325 209.5728 
527.692017 185.325577 
562.729431 145.288269 
589.21405 127.360001 
592.802002 127.656815 
598.239502 133.219208 
615.93158 117.444443 
630.32196 125.160004 
649.226318 109.205002 
652.412109 106.46154 
665.946228 123.260414 
714.970947 124.25 
737.311218 83.787163 
740.72821 127.395164 
744.91333 90.125 
783.487488 108.002274 
792.739014 97.001984 
799.283386 81.61364 
819.404907 116.285713 
843.518494 116.635201 
850.884155 140.002274 
871.251343 96.594139 
872.548584 72.0 
894.115967 90.083336 
906.136902 83.14286 
949.480835 91.975807 
959.961304 123.007812 
965.650085 112.103813 
966.256714 136.47139 
974.572632 109.119186 
1003.972778 126.926285 
1005.062317 110.735001 
1032.003906 98.48214 
1037.136353 107.01786 
1067.105103 105.041664 
1105.286133 104.410004 
1105.504639 115.125 
1123.470459 119.695312 
1129.271973 167.125 
1142.720093 108.656815 
1195.796997 104.034485 
1208.588867 82.765625 
1227.103638 89.800003 
1241.008667 91.727943 
1258.199707 98.049416 
1258.894653 98.80278 
1276.35791 135.20166 
1300.796631 121.920921 
1304.168579 89.010002 
1356.026489 120.920082 
1364.467773 108.53125 
1377.330322 89.889153 
1382.455811 102.125 
1387.078979 155.017303 
1420.372559 93.0 
1441.481689 44.642857 
1447.536621 51.612499 
1455.762207 62.49128 
1479.907593 81.097824 
1497.503418 49.67857 
1499.119141 70.328949 
1508.656128 71.375 
1551.835205 58.521553 
1558.273926 55.246952 
1561.605347 52.125 
1580.368164 89.307693 
1580.705688 66.480263 
1600.289062 105.931335 
1629.292114 83.284088 
1635.652954 50.532894 
1656.287231 46.150002 
1657.753296 102.781776 
1677.008545 51.440216 
1682.039551 112.259613 
END IONS

BEGIN IONS
RTINSECONDS=243.098007
CHARGE=1-
MSLEVEL=2
PRECURSORINTENSITY=36429.511719
SMILES=C([C@H]([C@H](CO)O)O)O
INCHI=InChI=1S/C4H10O4/c5-1-3(7)4(8)2-6/h3-8H,1-2H2/t3-,4+
INCHIKEY=UNXHWFMMPAWVPI-ZXZARUISSA-N
CLASS="Polyols, Monosaccharides, Carbohydrates"
ADDUCT=[M-H]-
INSTRUMENT=Agilent Q-ToF 6530
PRECURSOR_MZ=121.05
COMPOUND_NAME=Mesoeryhthritol
ION_MODE=negative
FORMULA=C4H10O4
178.234421 79.205002 
183.228577 64.784088 
193.457626 63.841217 
200.527649 62.805 
202.281021 79.177635 
239.548004 57.273647 
253.981033 51.764706 
259.452545 86.208336 
308.106476 64.083336 
310.654755 40.205002 
311.564423 55.455647 
316.483887 96.408333 
345.358276 52.53125 
364.765594 78.911362 
392.294006 58.900002 
400.605591 46.120098 
410.793762 62.017857 
416.350189 91.416664 
453.601562 38.016666 
458.786102 44.816666 
462.067505 40.778847 
495.93512 37.0 
505.781403 62.260418 
519.959045 39.625 
571.01001 257.416656 
571.068115 74.446426 
574.879639 37.23077 
580.502686 35.892857 
583.134399 51.005436 
590.662659 34.016666 
END IONS

BEGIN IONS
RTINSECONDS=435.988007
CHARGE=1-
MSLEVEL=2
PRECURSORINTENSITY=399693.906250
SMILES=Cc1cc(c(c(c1C(=O)OC)O)C)OC(=O)c1c(c(c(c(c1O)C=O)O)Cl)C
INCHI=InChI=1S/C19H17ClO8/c1-7-5-11(8(2)15(22)12(7)18(25)27-4)28-19(26)13-9(3)14(20)17(24)10(6-21)16(13)23/h5-6,22-24H,1-4H3
INCHIKEY=ABZLZZCDSLOCNF-UHFFFAOYSA-N
CLASS=Depsides (Didepsides)
ADDUCT=[M-H]-
INSTRUMENT=Agilent Q-ToF 6530
PRECURSOR_MZ=407.0555
COMPOUND_NAME=Chloroatranorin
ION_MODE=negative
FORMULA=C19H17ClO8
119.419968 37724.160156 
139.13327 19310.128906 
140.996643 5990.247559 
163.039093 81885.015625 
195.067459 36410.117188 
210.979691 166817.328125 
211.983627 25198.525391 
212.977005 48728.664062 
303.064209 513.105835 
331.036133 4615.196777 
332.092438 1245.035645 
333.038452 1481.001099 
498.407013 101.880432 
500.28656 69.760002 
504.887604 113.29657 
511.645569 83.5 
541.014282 114.285713 
549.55603 108.064285 
569.187134 96.382935 
579.494568 88.055557 
598.799194 82.375 
647.499512 159.0625 
658.016235 78.568184 
680.844116 74.198532 
682.043579 88.336113 
688.132263 93.32415 
707.704102 61.6875 
718.547729 59.926281 
771.636353 62.603573 
771.950989 79.568398 
795.984436 194.472656 
823.725342 155.533234 
830.371155 164.530884 
843.671631 85.960106 
852.251404 114.111839 
881.893127 101.0 
882.86554 74.215424 
916.095581 138.023804 
934.816345 102.086266 
937.42688 91.133331 
944.270813 75.199997 
959.510315 88.016792 
961.687805 71.432144 
995.858765 66.014709 
1020.072327 82.51136 
1031.023193 60.003788 
1032.296387 51.489864 
1066.977661 53.183823 
1077.821533 104.001869 
1095.290405 69.173912 
1103.820923 61.209999 
1119.967651 65.85714 
1166.553345 101.012497 
1169.713867 73.570946 
1178.33252 71.008926 
1182.555908 72.036293 
1216.459961 123.653984 
1230.817139 73.210526 
1237.081177 73.893517 
1270.27063 66.185608 
1283.953369 97.285713 
1288.280273 66.09375 
1290.315674 125.122475 
1293.092896 69.75 
1335.620361 54.119186 
1353.84375 51.28125 
1386.2229 56.280174 
1388.48584 57.041668 
1406.593506 66.556038 
1432.655762 59.787163 
1441.041504 132.723221 
1455.965454 159.520569 
1510.956543 82.045456 
1511.598145 68.173912 
1514.043457 101.368904 
1516.140381 63.721153 
1522.778564 103.56144 
1559.345459 95.027779 
1571.966309 81.446426 
1631.446411 51.0 
1637.123169 44.30682 
1648.36438 95.177635 
1654.696899 55.892857 
1657.283691 76.370369 
1687.483276 66.428574 
1695.524902 70.615387 
END IONS

BEGIN IONS
RTINSECONDS=337.868988
CHARGE=1-
MSLEVEL=2
PRECURSORINTENSITY=587784.000000
SMILES=Cc1c(C(=O)OC)c(OC)cc2c1c1c(cc(c(C(=O)O)c1o2)C)OC
INCHI=InChI=1S/C19H18O7/c1-8-6-10(23-3)16-14-9(2)15(19(22)25-5)11(24-4)7-12(14)26-17(16)13(8)18(20)21/h6-7H,1-5H3,(H,20,21)
INCHIKEY=WBIQYHZEYQDKCL-UHFFFAOYSA-N
CLASS=Dibenzofuranes
ADDUCT=[M-H]-
INSTRUMENT=Agilent Q-ToF 6530
PRECURSOR_MZ=357.0953
COMPOUND_NAME=Schizopeltic acid
ION_MODE=negative
FORMULA=C19H18O7
101.428062 97.34375 
167.106583 2243.666748 
168.062302 1817.427368 
195.042633 14136.624023 
196.060898 17112.763672 
197.055801 6758.085449 
224.050552 19934.222656 
251.030914 68040.335938 
255.063751 36537.011719 
283.056427 178910.8125 
284.062866 41960.808594 
298.082092 201872.28125 
299.082672 45335.070312 
313.106293 36432.855469 
428.191528 90.346313 
432.950012 64.185608 
444.949219 60.132355 
463.562134 62.025002 
492.243713 60.455647 
507.543701 93.671295 
537.418945 46.406914 
544.353577 54.0625 
554.334717 45.5625 
568.911194 129.014618 
613.459351 136.793106 
614.979126 52.326614 
619.956116 53.107758 
622.908325 76.453705 
650.983948 87.926285 
674.492859 61.515244 
691.438721 72.002274 
697.306335 65.840118 
705.420959 78.040092 
715.873352 156.07547 
731.43103 61.48077 
747.415527 107.247948 
766.453369 47.892857 
768.226562 34.889706 
818.343567 98.0 
821.338318 35.882355 
823.228394 59.900864 
825.526367 46.157051 
828.992676 40.0 
868.293213 46.285713 
890.459473 82.6129 
896.570923 53.244999 
913.627197 56.599998 
964.151306 89.289284 
965.051453 46.0 
970.069641 49.796051 
973.717896 87.679054 
1011.754639 109.911362 
1036.443726 45.470589 
1043.980835 46.041668 
1044.583496 67.032143 
1068.49707 48.25 
1080.98877 53.165539 
1112.099731 77.680557 
1120.681396 47.49128 
1142.305298 38.892857 
1163.652222 120.480072 
1165.771851 35.5625 
1167.417969 38.892857 
1205.758911 48.041668 
1215.827393 62.347221 
1218.257202 55.224998 
1271.346924 61.280174 
1274.351807 77.032143 
1287.03418 55.444443 
1299.129517 74.551468 
1299.484741 77.462837 
1339.725586 48.765625 
1356.707031 52.076218 
1373.127808 52.307693 
1382.003052 60.44643 
1403.166138 134.290817 
1404.991333 51.140625 
1431.556274 49.273647 
1439.107544 64.402779 
1449.510742 44.0 
1488.149048 77.911362 
1502.25415 43.200001 
1508.13855 56.680557 
1547.921997 44.521553 
1548.042725 51.200001 
1560.049561 45.720589 
1576.728149 70.265625 
1598.121582 34.720238 
1629.997925 43.148811 
1640.356201 37.107758 
1650.708496 49.654411 
1655.557617 44.612804 
END IONS

BEGIN IONS
RTINSECONDS=381.306
CHARGE=1-
MSLEVEL=2
PRECURSORINTENSITY=625362.625000
SMILES=Oc1c2c(oc3c(c(C)cc(O)c3Cl)c2=O)cc(OC)c1
INCHI=InChI=1S/C15H11ClO5/c1-6-3-9(18)13(16)15-11(6)14(19)12-8(17)4-7(20-2)5-10(12)21-15/h3-5,17-18H,1-2H3
INCHIKEY=CCCPQTCGPQONAG-UHFFFAOYSA-N
CLASS=Xanthones and bis-Xanthones
ADDUCT=[M-H]-
INSTRUMENT=Agilent Q-ToF 6530
PRECURSOR_MZ=305.0187
COMPOUND_NAME=Vinetorin
ION_MODE=negative
FORMULA=C15H11ClO5
107.994026 1202.485596 
121.051994 1459.343506 
140.00386 5774.317383 
142.017212 1628.279541 
198.032074 29876.421875 
199.042358 4727.94043 
206.014053 5226.327148 
226.026962 12610.675781 
246.980881 19045.152344 
260.995758 35723.03125 
262.003296 45258.152344 
360.830261 121.601669 
364.252625 88.4879 
414.314667 77.778229 
420.563751 124.164474 
423.026611 60.012501 
447.321167 79.3153 
448.63855 76.721153 
478.96048 95.631577 
481.966919 69.038795 
484.781494 67.022957 
502.903992 68.230766 
537.379761 135.720245 
539.116577 50.901318 
539.408142 58.900002 
554.868774 84.145409 
606.458496 69.809998 
625.309204 191.11911 
626.674927 97.406914 
626.897461 113.564026 
630.280945 72.734756 
634.037109 93.445656 
680.468323 64.347221 
686.094055 40.017857 
699.864868 105.013557 
714.739502 167.330887 
747.144592 92.002121 
783.625305 82.008331 
793.178589 145.160263 
799.131592 138.778564 
799.199524 94.734756 
807.028625 107.142242 
858.118164 50.185608 
862.555786 68.125 
871.060547 98.08036 
878.665771 47.575001 
883.819946 57.333332 
932.637085 62.900002 
936.404968 145.040588 
936.698364 73.0 
941.143066 51.720238 
947.76062 117.333336 
958.320862 49.266304 
1009.788269 78.0 
1029.777832 81.25 
1030.80542 60.149391 
1035.319824 61.285713 
1055.992432 82.069443 
1082.158081 96.232689 
1092.147827 93.010414 
1095.973877 84.115562 
1100.768188 80.275002 
1141.445923 77.102272 
1153.814697 97.03125 
1162.575684 125.755432 
1213.924438 76.133331 
1224.642822 80.432693 
1225.373535 84.692307 
1225.982788 84.258064 
1259.994873 83.001808 
1312.037598 71.004036 
1319.376343 53.969826 
1333.159912 47.132355 
1338.525391 65.265625 
1343.774658 52.125 
1359.501343 54.0 
1400.759033 45.852272 
1405.16272 47.005951 
1418.099731 84.480263 
1428.902344 52.002907 
1434.147339 59.487904 
1462.302856 59.025002 
1472.570679 95.129036 
1474.796875 59.625 
1479.657959 48.375 
1504.391479 58.875 
1546.918823 52.224998 
1547.894165 42.964287 
1572.252441 31.020834 
1603.599243 34.005951 
1620.308838 66.53125 
1644.394775 43.0 
1652.689819 68.273651 
1657.024536 64.281975 
1657.096558 47.285713 
1659.469238 32.625 
1694.756226 29.360294 
END IONS

BEGIN IONS
RTINSECONDS=369.934998
CHARGE=1-
MSLEVEL=2
PRECURSORINTENSITY=3606631.750000
SMILES=Cc1c(c(OC)cc(O)c1)C(=O)Oc1cc(O)c(C(=O)Oc2cc(O)c(C(=O)O)c(C)c2)c(C)c1
INCHI=InChI=1S/C25H22O10/c1-11-5-14(26)8-19(33-4)22(11)25(32)35-16-7-13(3)21(18(28)10-16)24(31)34-15-6-12(2)20(23(29)30)17(27)9-15/h5-10,26-28H,1-4H3,(H,29,30)
INCHIKEY=RLRCNRNYRSKNOO-UHFFFAOYSA-N
CLASS=Depsides (Tridepsides)
ADDUCT=[M-H]-
INSTRUMENT=Agilent Q-ToF 6530
PRECURSOR_MZ=481.1078
COMPOUND_NAME=Umbilicaric acid
ION_MODE=negative
FORMULA=C25H22O10
105.034065 57910.417969 
106.08725 6728.320312 
123.044434 408584.25 
123.968628 51824.488281 
149.023743 303722.03125 
167.034378 1282682.375 
168.037613 172507.703125 
229.083496 3426.440674 
230.065826 1150.418823 
255.063782 1498.533325 
273.077667 3814.550537 
317.06427 444817.625 
318.086365 158020.046875 
319.071442 21261.253906 
331.079529 232094.0625 
332.083313 93209.765625 
333.09668 13021.834961 
385.219818 111.120094 
425.49762 135.017548 
437.120789 838.592712 
438.134247 428.041656 
545.223267 157.778564 
573.683472 207.680237 
583.571411 144.435242 
600.36969 55.125 
642.397583 114.603569 
648.133057 217.366928 
652.697876 135.510239 
666.436035 103.066666 
671.302734 150.322586 
717.263306 45.25 
726.772583 163.274994 
752.20929 185.506256 
766.453674 27.654411 
778.893066 46.0 
782.626587 26.009615 
785.224609 34.183823 
834.363586 48.03125 
834.683899 134.09375 
848.90979 91.523552 
848.98822 37.035713 
913.234009 37.160713 
922.30426 39.174999 
927.835449 114.414215 
931.829102 267.758484 
944.897278 21.160715 
974.023254 58.065788 
996.81366 50.022961 
1011.311157 146.375 
1012.71759 158.612244 
1021.666199 45.066666 
1076.352905 154.280304 
1077.453491 136.0121 
1109.090698 73.034088 
1112.780762 47.322369 
1113.272705 111.001663 
1139.640991 103.28167 
1172.017456 46.16346 
1189.202515 57.920456 
1220.424927 100.975807 
1223.331177 48.142242 
1238.293457 176.991974 
1271.567871 143.094238 
1274.539307 148.125 
1280.413086 140.884811 
1304.979858 112.793602 
1318.526245 204.011368 
1339.542603 141.061569 
1340.216675 54.211208 
1389.993042 24.007353 
1393.271973 38.923077 
1401.151489 29.25 
1403.812012 15.083333 
1419.742554 21.322369 
1467.448486 15.075 
1467.746704 160.666672 
1473.641968 33.0 
1489.067871 152.097565 
1532.135254 32.1875 
1533.636597 38.75 
1555.632446 87.681602 
1562.118774 61.778225 
1565.778564 123.934319 
1583.500854 106.654411 
1602.050171 66.89286 
1626.490356 45.032143 
1668.081787 49.148811 
1674.029785 26.28409 
1675.062378 155.058823 
1686.217651 33.532894 
1689.292969 26.1875 
1691.659424 21.595589 
END IONS

BEGIN IONS
RTINSECONDS=402.815002
CHARGE=1-
MSLEVEL=2
PRECURSORINTENSITY=1565551.875000
SMILES=COc1ccc(C2=C(O)/C(=C(\C(=O)OC)/c3ccccc3)/OC2=O)cc1
INCHI=InChI=1S/C20H16O6/c1-24-14-10-8-13(9-11-14)15-17(21)18(26-20(15)23)16(19(22)25-2)12-6-4-3-5-7-12/h3-11,21H,1-2H3/b18-16+
INCHIKEY=KXQKSBAGVQMQSN-FBMGVBCBSA-N
CLASS=Pulvinic Acid Derivatives
ADDUCT=[M-H]-
INSTRUMENT=Agilent Q-ToF 6530
PRECURSOR_MZ=351.0862
COMPOUND_NAME=Pinastric acid
ION_MODE=negative
FORMULA=C20H16O6
101.046364 1420.952881 
104.028397 1771.905762 
117.034744 7412.602539 
132.020981 24149.742188 
133.025635 2966.315674 
193.065735 34814.0 
201.069473 10868.885742 
205.065582 190599.25 
206.068314 40765.429688 
249.054932 203593.125 
250.058395 45452.746094 
264.078186 182974.65625 
265.08136 44888.035156 
277.049896 320101.125 
278.053223 76068.929688 
423.928345 84.440475 
466.846741 115.041664 
471.292236 72.00219 
498.717682 76.351746 
507.876953 176.728531 
527.531799 110.256355 
537.266479 76.939514 
566.943542 102.402779 
578.161316 129.148804 
590.298157 95.049416 
602.109131 244.266663 
622.05542 87.371216 
630.887817 76.36364 
635.645203 89.75 
660.286011 118.375 
687.126892 88.568398 
721.529236 59.246952 
727.880859 212.965424 
728.025818 95.635201 
742.388916 201.797165 
773.573303 80.603569 
773.91803 106.114288 
779.639893 93.0 
824.904175 115.202271 
833.675232 88.066666 
837.767639 66.84375 
858.102783 132.592209 
894.052673 105.121216 
900.396912 108.903687 
923.818359 104.227272 
925.02594 134.065796 
932.166138 167.064468 
940.744995 149.051132 
950.611206 93.041664 
995.294373 44.728447 
1000.573242 47.044998 
1049.421387 55.061275 
1063.632446 118.878052 
1069.425049 66.625 
1076.78418 183.05896 
1085.656128 68.223686 
1091.148315 125.898148 
1117.321289 82.41346 
1137.840088 81.778572 
1176.221802 64.875 
1180.266724 91.215424 
1190.003174 78.20192 
1195.430786 76.360001 
1232.608154 148.222824 
1235.971069 118.225609 
1241.344727 169.006409 
1253.692871 124.189392 
1270.416504 134.760056 
1276.848267 98.470589 
1354.108032 194.0 
1357.577515 146.483032 
1360.717651 201.357147 
1387.012939 84.0 
1415.17395 99.290321 
1417.431396 97.336113 
1470.714233 93.764832 
1476.005859 127.151123 
1494.386108 68.01786 
1504.995972 56.072582 
1517.676758 268.142853 
1542.987183 70.007355 
1566.034424 101.875 
1568.775879 107.470741 
1575.232788 109.75 
1579.290405 132.024384 
1597.642822 63.025002 
1620.613525 61.008335 
1648.661011 54.941177 
1655.310059 71.222824 
1672.62207 52.157051 
1680.734497 63.142242 
1686.609375 96.0 
1691.089355 133.53186 
END IONS

BEGIN IONS
RTINSECONDS=524.916992
CHARGE=1-
MSLEVEL=2
PRECURSORINTENSITY=869077.687500
SMILES=CCCCCCCCCCCCC[C@H]1C(=C(C(=O)O1)C)C(=O)O
INCHI=InChI=1S/C19H32O4/c1-3-4-5-6-7-8-9-10-11-12-13-14-16-17(18(20)21)15(2)19(22)23-16/h16H,3-14H2,1-2H3,(H,20,21)/t16-/m0/s1
INCHIKEY=SLQVVNFTCYVCPB-INIZCTEOSA-N
CLASS=Paraconic acids
ADDUCT=[M-H]-
INSTRUMENT=Agilent Q-ToF 6530
PRECURSOR_MZ=323.215
COMPOUND_NAME=Lichesterinic acid
ION_MODE=negative
FORMULA=C19H32O4
106.09494 72.78125 
111.094299 80.400002 
112.98069 519.221252 
117.680634 100.454544 
137.278 141.809998 
163.235214 98.763885 
165.239777 192.53334 
174.381104 184.207199 
223.199173 199.753098 
235.241592 18272.212891 
235.389236 484.232605 
236.246017 3678.491699 
279.229919 291932.90625 
280.249573 64355.769531 
404.372803 69.714287 
404.637329 66.333336 
452.385437 97.0 
456.713074 73.428574 
465.356995 67.008331 
474.080872 76.230766 
501.87558 150.34964 
513.435913 81.157051 
549.032898 131.986938 
553.361877 104.08036 
560.820496 82.839996 
563.068726 73.975807 
600.826904 67.842102 
615.786194 156.769226 
642.81665 59.005001 
666.251343 110.56144 
678.510498 53.521553 
736.853577 74.89286 
738.718323 57.680557 
745.245972 64.803574 
751.524597 85.421509 
757.582703 137.008331 
774.625183 72.111488 
808.145325 54.291668 
810.034424 72.512497 
813.57959 47.541668 
818.855896 95.297623 
866.307556 51.0 
873.631714 48.041668 
898.748291 77.0 
901.080688 107.007576 
924.986511 85.668648 
937.212708 115.224998 
941.411804 87.321808 
946.325684 118.551727 
956.702393 71.215515 
993.109253 90.020836 
999.795898 70.041664 
1017.948486 79.209999 
1020.338013 74.010002 
1030.200317 83.235291 
1058.026367 53.721153 
1079.537476 89.440475 
1088.75061 113.440475 
1124.370483 50.0 
1133.191162 37.204544 
1149.364502 96.242645 
1159.487671 42.18182 
1162.023071 49.115566 
1199.44458 61.284092 
1216.923096 58.173077 
1225.979248 79.245003 
1227.316895 65.33654 
1240.157593 63.564026 
1266.817749 66.125 
1298.36084 140.444443 
1308.949951 48.603573 
1339.638794 53.625 
1347.465088 58.157051 
1355.23999 64.204544 
1369.13562 59.347221 
1397.460449 160.143906 
1406.379883 43.599998 
1421.567871 73.402779 
1460.908203 38.020832 
1503.456909 48.367645 
1510.846069 117.54348 
1525.820312 57.670456 
1548.119507 70.010414 
1578.658936 65.17308 
1595.978882 61.008335 
1597.90271 75.265625 
1629.633301 55.810001 
1638.953247 35.782406 
1675.675537 23.375 
1681.818115 68.402779 
1683.838501 20.245001 
END IONS

BEGIN IONS
RTINSECONDS=259.636993
CHARGE=1-
MSLEVEL=2
PRECURSORINTENSITY=8022930.500000
SMILES=Cc1cc(c(c(c1)O)C=O)O
INCHI=InChI=1S/C8H8O3/c1-5-2-7(10)6(4-9)8(11)3-5/h2-4,10-11H,1H3
INCHIKEY=JASONGFGOLHLGB-UHFFFAOYSA-N
CLASS=Cleavage Products of Depsides and Depsidones
ADDUCT=[M-H]-
INSTRUMENT=Agilent Q-ToF 6530
PRECURSOR_MZ=151.0391
COMPOUND_NAME=Atranol
ION_MODE=negative
FORMULA=C8H8O3
123.045013 3353244.0 
123.260056 204048.8125 
219.320374 119.006409 
229.782593 104.515244 
238.591293 126.222404 
245.037598 78.01786 
271.631104 153.173615 
302.392334 108.471153 
302.710388 134.008926 
304.921051 102.570312 
329.480835 139.002045 
344.20343 105.125 
365.527008 105.008926 
365.794891 124.965515 
377.950928 96.388885 
395.742828 98.107452 
397.778076 92.441177 
461.85614 88.329918 
462.727264 77.736115 
473.23761 79.837685 
476.123901 116.875 
518.887512 59.926281 
522.245239 90.473686 
529.01709 66.25 
575.789673 138.225006 
599.504761 80.644737 
600.495911 215.420807 
620.752197 164.800003 
622.807495 80.449471 
654.537781 110.34964 
683.572937 124.241379 
699.914429 78.0 
706.67572 83.322365 
731.52887 120.064285 
778.116211 74.565216 
790.484009 81.333336 
790.691467 64.728447 
791.521606 123.036018 
826.103455 86.052635 
852.161804 75.0 
857.392517 57.80357 
861.652588 54.880436 
906.719299 61.0 
909.840088 58.0 
925.282715 61.111488 
930.100342 62.0 
948.209778 118.125 
964.588867 57.799999 
965.100891 54.034092 
1011.629822 55.014706 
1021.086121 69.094696 
1030.438477 66.637192 
1038.983643 75.004997 
1066.466309 73.778229 
1097.616699 78.782608 
1102.358887 208.770493 
1126.519043 82.041664 
1139.743042 100.330696 
1147.353271 87.89286 
1180.066528 87.204544 
1197.820923 115.959999 
1207.400146 109.290001 
1242.392822 83.004311 
1251.610596 114.662231 
1269.45105 100.816864 
1307.298462 104.889709 
1311.062744 164.942307 
1333.304321 125.71627 
1338.6073 114.125 
1376.324219 89.521553 
1381.745605 149.164474 
1390.878296 98.555771 
1403.820312 93.59375 
1442.046143 80.33654 
1449.953491 61.30682 
1450.279419 112.072578 
1469.413574 65.840118 
1475.317993 73.097221 
1520.196655 114.734848 
1526.273193 67.963234 
1547.987793 94.30867 
1550.381958 62.375 
1553.972534 114.431122 
1559.250122 85.896278 
1614.114868 51.235466 
1632.275635 103.602272 
1644.865356 65.375 
1664.771729 51.049419 
1689.733398 53.148811 
1691.771484 81.555557 
1696.252441 48.840908 
1697.08313 44.816666 
END IONS

BEGIN IONS
RTINSECONDS=443.806
CHARGE=1-
MSLEVEL=2
PRECURSORINTENSITY=35704.835938
SMILES=Cc1c2c3c(O)cc(C)cc3oc2cc(O)c1
INCHI=InChI=1S/C14H12O3/c1-7-3-10(16)14-11(4-7)17-12-6-9(15)5-8(2)13(12)14/h3-6,15-16H,1-2H3
INCHIKEY=AXWZWBNCJWJORZ-UHFFFAOYSA-N
CLASS=Dibenzofuranes
ADDUCT=[M-H]-
INSTRUMENT=Agilent Q-ToF 6530
PRECURSOR_MZ=227.07
COMPOUND_NAME=Pannarol
ION_MODE=negative
FORMULA=C14H12O3
102.97435 77.015625 
106.960075 127.297836 
107.050598 92.640152 
113.001625 166.133331 
114.993698 90.635567 
138.837219 84.136192 
158.980728 154.408783 
167.053436 66.782608 
270.179352 71.925926 
272.190491 87.056816 
287.207428 56.55682 
297.905579 113.258064 
329.346558 40.111111 
336.130554 63.047619 
342.738068 65.344513 
394.084259 52.07143 
398.542389 74.25798 
400.149963 49.026161 
404.808228 47.058823 
449.496368 59.273647 
460.649445 46.680557 
466.239594 54.36842 
487.535706 70.669441 
501.500122 67.720589 
530.100098 88.469444 
537.087708 61.907257 
540.626221 75.004631 
552.908264 66.349998 
568.789246 59.408333 
594.616455 34.183823 
END IONS

BEGIN IONS
RTINSECONDS=410.52301
CHARGE=1-
MSLEVEL=2
PRECURSORINTENSITY=3407670.000000
SMILES=O=C(Oc1c(O)cc(CCCCC)c(C(=O)O)c1O)c1c(CCC)cc(OC)cc1OC
INCHI=InChI=1S/C24H30O8/c1-5-7-8-10-15-12-17(25)22(21(26)20(15)23(27)28)32-24(29)19-14(9-6-2)11-16(30-3)13-18(19)31-4/h11-13,25-26H,5-10H2,1-4H3,(H,27,28)
INCHIKEY=AAKHGLJWUOZNTQ-UHFFFAOYSA-N
CLASS=Depsides (Didepsides)
ADDUCT=[M-H]-
INSTRUMENT=Agilent Q-ToF 6530
PRECURSOR_MZ=445.179
COMPOUND_NAME=Merochlorophaeic acid
ION_MODE=negative
FORMULA=C24H30O8
121.064774 17398.630859 
137.029358 109267.671875 
138.03125 481585.375 
139.036774 50433.933594 
149.096725 65000.917969 
194.094086 284062.375 
195.102417 1574802.0 
196.106018 292373.03125 
221.081268 44137.3125 
238.084045 21999.65625 
253.102966 7837.421387 
297.067841 2848.197754 
310.16925 9316.783203 
311.171478 3196.273682 
354.152985 1537.962891 
369.168884 2054.368164 
401.195953 3940.785156 
427.175568 832.548462 
522.177246 76.297623 
530.019592 118.125 
553.495605 110.25 
580.35968 73.049416 
596.861145 185.001862 
611.985962 90.58036 
641.562683 84.76136 
644.334229 155.563202 
658.711182 77.328949 
666.477112 121.30867 
684.314331 109.009262 
717.843628 102.666664 
751.400146 85.347221 
762.050415 94.384094 
773.390564 170.906586 
792.814087 77.165321 
805.220398 93.625 
816.879089 74.119186 
818.106873 64.240387 
824.092529 68.432144 
869.067688 58.515625 
888.402222 202.560608 
889.416565 54.005951 
895.617004 73.26667 
924.847534 100.80278 
946.807068 71.125 
962.271912 55.016666 
1023.156372 95.886627 
1030.888306 193.127548 
1033.852539 77.592102 
1034.675293 75.107452 
1035.548096 124.107452 
1077.522095 141.248535 
1087.52417 124.027779 
1089.285156 81.564026 
1104.824097 104.449471 
1142.899292 60.695652 
1149.620728 130.006104 
1191.152832 160.001312 
1192.147095 95.92308 
1199.682129 83.533333 
1200.437012 75.240387 
1213.728882 75.444443 
1241.311279 78.668648 
1252.341919 71.23214 
1271.994751 78.13636 
1303.106812 112.136108 
1305.39502 97.5 
1315.964478 81.074997 
1321.156494 80.063774 
1338.166748 70.694443 
1372.190063 87.003052 
1380.682007 61.679054 
1391.62854 146.04892 
1405.811279 55.245689 
1431.647705 106.321808 
1472.087524 67.367424 
1473.832886 88.557693 
1498.458496 72.893517 
1500.775757 78.461067 
1522.624512 109.287338 
1536.101807 105.430557 
1548.602295 76.115738 
1554.970947 79.190475 
1573.480225 215.438599 
1605.429932 55.520832 
1625.242432 75.59259 
1627.413086 53.0625 
1651.198242 55.148811 
1675.648315 46.0 
1683.917969 40.416668 
1688.999634 77.284088 
1694.062012 41.038792 
1697.496948 25.326612 
END IONS

BEGIN IONS
RTINSECONDS=271.350006
CHARGE=1-
MSLEVEL=2
PRECURSORINTENSITY=207277.156250
SMILES=O=C1c2c(c3c(cc(O)c(O)c3)o2)C(=O)c2c1c1c(o2)cc(c(c1)O)O
INCHI=InChI=1S/C18H8O8/c19-7-1-5-11(3-9(7)21)25-17-13(5)15(23)18-14(16(17)24)6-2-8(20)10(22)4-12(6)26-18/h1-4,19-22H
INCHIKEY=PDICCECAPKBDBB-UHFFFAOYSA-N
CLASS=Quinones
ADDUCT=[M-H]-
INSTRUMENT=Agilent Q-ToF 6530
PRECURSOR_MZ=351.0106
COMPOUND_NAME=Thelephoric acid
ION_MODE=negative
FORMULA=C18H8O8
118.986748 582.826416 
147.125229 1738.495239 
167.050735 2114.710938 
195.052124 3196.696533 
211.025101 4751.980957 
223.03299 4131.862305 
239.040161 4890.887695 
251.035507 3804.587646 
266.138397 3394.680664 
267.028259 5594.519531 
295.024811 5992.731445 
322.011047 7588.233398 
323.020264 3445.483887 
408.426758 57.515625 
427.882996 61.01923 
477.880096 96.112503 
488.697937 92.53186 
496.948273 80.125 
502.069885 106.007812 
517.923035 106.461067 
530.014587 133.006943 
568.150146 79.26651 
570.056396 70.149391 
592.442627 58.347221 
592.638611 72.256355 
622.152466 52.695652 
637.071533 81.297623 
637.906677 108.050003 
670.633057 67.289284 
675.348022 66.432144 
679.991516 88.041664 
722.165222 60.760418 
722.538086 138.052963 
727.03009 40.91848 
741.488525 132.083908 
783.838989 85.571426 
793.315125 67.25 
813.569885 48.779411 
814.631104 74.360001 
872.401917 42.289288 
883.943054 101.072578 
884.443054 44.349998 
893.034973 44.532608 
899.961304 123.523811 
929.734253 56.537792 
935.018372 105.653847 
935.141907 46.349136 
968.030151 49.0 
968.979736 51.326923 
1011.220886 49.002659 
1021.817749 67.610001 
1029.722412 39.432144 
1044.625122 154.858765 
1052.80896 57.190475 
1058.259766 39.941177 
1094.716919 48.005001 
1109.497681 80.005432 
1110.577515 89.592102 
1133.685547 73.002907 
1160.498779 92.055557 
1174.756714 87.578949 
1190.067505 92.975807 
1215.481323 53.570946 
1221.796631 85.675003 
1242.696777 115.637192 
1242.799683 49.444443 
1282.086548 37.004311 
1283.266602 36.266666 
1284.509399 62.066666 
1309.105103 52.0 
1361.821655 51.875 
1367.471436 40.625 
1369.963013 43.404999 
1371.136719 50.512501 
1384.637451 71.107452 
1405.957642 51.521553 
1423.750854 78.907257 
1443.125488 56.002357 
1463.9646 79.125 
1476.816528 54.055557 
1479.121338 131.694229 
1512.040894 37.556034 
1559.8302 67.625 
1581.036865 57.361111 
1583.099243 106.385277 
1589.448364 53.014706 
1600.042847 73.541664 
1621.755493 57.555557 
1656.469116 71.333336 
1662.437256 54.375 
1669.778687 89.306816 
1683.526733 53.266666 
1687.820801 75.612808 
1696.141724 55.25 
END IONS

BEGIN IONS
RTINSECONDS=318.299011
CHARGE=1-
MSLEVEL=2
PRECURSORINTENSITY=316769.343750
SMILES=O=C1c2c(C)cc(O)c(C=O)c2Oc2c(O1)c(c(c1c2C(O)OC1=O)O)C
INCHI=InChI=1S/C18H12O9/c1-5-3-8(20)7(4-19)14-9(5)16(22)26-13-6(2)12(21)10-11(15(13)25-14)18(24)27-17(10)23/h3-4,18,20-21,24H,1-2H3
INCHIKEY=IEVVSJFLBYOUCJ-UHFFFAOYSA-N
CLASS=Depsidones
ADDUCT=[M-H]-
INSTRUMENT=Agilent Q-ToF 6530
PRECURSOR_MZ=371.0385
COMPOUND_NAME=Norstictic acid
ION_MODE=negative
FORMULA=C18H12O9
121.029457 2183.65918 
149.21669 2991.158936 
151.039047 3179.967041 
171.045273 3348.062012 
187.047272 6012.296875 
211.06517 9450.946289 
227.036026 31406.769531 
240.047302 6327.943848 
243.028976 30320.890625 
255.065536 13048.631836 
283.061859 12252.333984 
327.049469 2480.968018 
432.536926 64.066666 
452.698425 68.219597 
456.61441 86.207146 
466.892395 66.29657 
472.917908 88.198532 
503.415436 89.875 
504.655121 104.0 
550.720276 74.074997 
555.080688 57.25 
558.335571 38.455647 
561.955566 42.845001 
618.135132 40.541668 
620.372437 53.066177 
654.604492 81.297623 
673.804199 50.875 
690.558105 78.125 
693.917603 62.841217 
699.461609 48.81818 
715.934875 52.25 
757.773254 46.222828 
760.35321 81.370613 
769.112732 68.0 
780.429138 43.25 
789.157043 43.038792 
791.281555 45.185608 
839.469727 128.380951 
850.322205 61.100807 
880.186218 48.013889 
898.23822 60.347221 
913.495361 72.118423 
921.932251 60.0 
934.708191 61.266304 
959.356384 59.24662 
995.394897 51.035713 
996.496826 34.5625 
1016.546875 32.471153 
1031.591553 42.0 
1032.112793 40.111111 
1054.154785 83.0 
1067.992432 50.81818 
1076.934814 46.30682 
1097.140991 36.0 
1099.782837 103.643654 
1147.421387 75.375 
1159.962036 43.693966 
1167.923096 44.291668 
1190.789551 47.138512 
1201.334839 53.27174 
1211.070801 51.149391 
1227.21814 49.842106 
1251.677612 51.160713 
1253.93396 55.964287 
1269.452026 74.469444 
1284.710083 54.695515 
1319.840698 52.0 
1334.651001 72.32692 
1363.708984 120.720238 
1370.406372 51.285713 
1374.082153 73.002052 
1383.678955 90.641029 
1406.835205 64.089996 
1438.049561 48.002907 
1446.80957 43.1875 
1457.71106 45.404999 
1457.802002 44.076923 
1460.569946 39.160713 
1497.277222 52.265625 
1536.614014 62.284092 
1539.081909 52.842106 
1568.455322 100.002777 
1569.347168 61.836956 
1571.406372 39.041668 
1591.264893 50.727272 
1625.322021 72.564026 
1644.928955 34.25 
1650.800049 36.408333 
1665.271973 28.595589 
1680.025024 51.009617 
1685.398926 27.25 
END IONS

BEGIN IONS
RTINSECONDS=515.870972
CHARGE=1-
MSLEVEL=2
PRECURSORINTENSITY=1038075.625000
SMILES=O=C1c2c(C(=O)CCCC)cc(OC)cc2Oc2c(O1)cc(c(c2CCCCC)C(=O)O)O
INCHI=InChI=1S/C25H28O8/c1-4-6-8-9-15-21(24(28)29)18(27)13-20-23(15)32-19-12-14(31-3)11-16(17(26)10-7-5-2)22(19)25(30)33-20/h11-13,27H,4-10H2,1-3H3,(H,28,29)
INCHIKEY=JHEWMLHQNRHTQX-UHFFFAOYSA-N
CLASS=Depsidones
ADDUCT=[M-H]-
INSTRUMENT=Agilent Q-ToF 6530
PRECURSOR_MZ=455.1654
COMPOUND_NAME=Lobaric acid
ION_MODE=negative
FORMULA=C25H28O8
101.061951 377.546387 
133.058197 11342.707031 
134.105011 1838.496582 
160.974411 3574.052246 
195.949142 4745.786133 
198.030991 4168.481934 
281.078491 201491.328125 
282.084045 68208.03125 
295.095184 45108.230469 
296.100647 32823.609375 
309.109467 63715.230469 
352.162872 44793.898438 
367.185425 62409.085938 
368.189301 33210.019531 
369.166473 23926.730469 
411.175781 91152.0625 
412.173859 39291.6875 
528.788757 75.800003 
538.434448 65.125 
538.941406 73.157051 
540.606262 61.367424 
604.423889 103.612503 
608.041809 82.240387 
629.170715 86.680557 
651.731506 106.088768 
665.184082 121.382812 
666.849121 202.714279 
675.524902 110.408897 
748.001221 85.491379 
750.102966 102.160088 
752.033691 129.0401 
754.106323 85.235466 
759.214722 227.587296 
767.809204 72.326614 
823.197693 90.909088 
823.265747 114.25 
827.717407 91.273651 
867.284973 110.006577 
875.432373 75.414215 
880.811829 67.568184 
880.946716 75.900864 
895.911682 128.506256 
921.743286 67.285713 
965.504089 128.431122 
992.779175 60.014706 
1013.086182 76.840118 
1017.59021 81.521553 
1052.972534 149.909485 
1063.998047 106.408333 
1084.224121 84.4879 
1084.801514 92.120766 
1113.085327 133.756256 
1135.894775 101.71627 
1142.879517 97.979652 
1145.005859 78.141304 
1151.305542 82.25 
1162.240234 77.5625 
1216.030396 66.654411 
1229.878784 60.802776 
1233.254883 105.756248 
1238.977661 70.003204 
1241.681396 84.387817 
1281.56189 140.001816 
1283.628906 93.25 
1298.933105 130.678757 
1332.219849 58.349998 
1337.130737 73.881096 
1338.264404 68.148811 
1358.119751 65.0 
1372.584229 57.349998 
1386.403809 57.56818 
1435.807617 91.245689 
1462.765869 59.367424 
1467.337402 66.721153 
1481.870728 140.457138 
1486.397095 64.111488 
1513.137207 98.844299 
1526.218262 93.532898 
1547.8927 117.532608 
1551.155396 62.875 
1559.23938 164.065567 
1576.254272 56.009998 
1596.744629 104.845001 
1632.044922 73.666664 
1692.359741 58.224998 
END IONS

BEGIN IONS
RTINSECONDS=226.371002
CHARGE=1-
MSLEVEL=2
PRECURSORINTENSITY=1097393.875000
SMILES=CC(=O)c1c(O)cc(O)cc1O
INCHI=InChI=1S/C8H8O4/c1-4(9)8-6(11)2-5(10)3-7(8)12/h2-3,10-12H,1H3
INCHIKEY=XLEYFDVVXLMULC-UHFFFAOYSA-N
CLASS=Cleavage Products of Depsides and Depsidones
ADDUCT=[M-H]-
INSTRUMENT=Agilent Q-ToF 6530
PRECURSOR_MZ=167.0345
COMPOUND_NAME="N 2,4,6-Trihydroxyacetophenone"
ION_MODE=negative
FORMULA=C8H8O4
106.961304 7705.444336 
108.011185 2119.373047 
123.002258 392773.40625 
124.048187 24287.185547 
125.028923 31593.931641 
249.141953 122.185608 
258.842773 105.384094 
268.348236 96.510246 
269.110657 99.409088 
310.746704 115.601669 
324.723602 99.57341 
336.505554 103.53846 
376.949036 72.816864 
390.550995 72.002548 
390.921234 77.896278 
428.173492 69.764832 
441.086975 111.066177 
446.890015 67.675003 
456.279175 75.011902 
473.708984 88.047623 
488.290405 84.037041 
502.172974 126.923912 
514.624146 59.881096 
527.372986 76.222458 
532.128418 61.003788 
577.518372 67.08696 
582.582031 56.470589 
594.894836 92.132812 
600.345215 101.037041 
601.833984 75.840118 
644.590088 130.074997 
663.305176 96.01786 
664.97699 74.285713 
707.916321 97.007141 
712.632568 63.598404 
713.642029 74.29657 
740.103088 60.002659 
749.116211 81.781776 
795.878357 68.25 
803.41394 94.25 
827.856323 153.160049 
828.567627 106.510414 
841.285583 83.462837 
846.465393 104.224998 
880.775452 90.00219 
903.766907 64.923912 
911.586914 93.656815 
935.265991 67.148811 
939.594543 51.5 
943.949402 80.141304 
960.803955 85.680557 
996.057556 60.297619 
997.362793 46.027439 
1005.915588 68.157051 
1018.489197 38.291668 
1028.239868 60.260418 
1060.183594 60.934322 
1081.842529 73.737244 
1084.30249 58.662235 
1112.884155 109.25 
1135.72168 83.0 
1142.145264 84.625 
1149.799194 71.0 
1168.655273 92.0 
1185.656738 61.375 
1201.211182 69.272728 
1241.38562 53.049999 
1255.030151 104.400002 
1263.654663 87.14286 
1263.952881 78.761902 
1272.270752 80.119186 
1292.415771 71.578949 
1335.80127 65.265625 
1339.630005 70.013885 
1398.090698 107.841217 
1412.774536 65.625 
1418.968262 59.440216 
1425.109253 74.610001 
1428.668091 65.125 
1433.05835 72.761902 
1471.738403 69.520836 
1493.753784 48.408333 
1503.877808 77.333336 
1510.240845 64.765625 
1515.672607 57.224998 
1542.931641 54.0 
1575.412354 59.409092 
1577.283936 30.605 
1604.915161 47.387821 
1630.843628 39.961956 
1632.333984 71.111488 
1639.112549 70.03846 
1648.700317 72.204544 
1676.208618 74.875 
1690.034668 117.547295 
1690.113892 58.291668 
END IONS

BEGIN IONS
RTINSECONDS=393.507996
CHARGE=1-
MSLEVEL=2
PRECURSORINTENSITY=195487.203125
SMILES=Cc1cc(c2c(c1)C(=O)c1c(c(cc(c1C2=O)O)O)c1c2c(c(cc1O)O)C(=O)c1c(cc(cc1C2=O)C)O)O
INCHI=InChI=1S/C30H18O10/c1-9-3-11-19(13(31)5-9)29(39)23-17(35)7-15(33)21(25(23)27(11)37)22-16(34)8-18(36)24-26(22)28(38)12-4-10(2)6-14(32)20(12)30(24)40/h3-8,31-36H,1-2H3
INCHIKEY=MQSXZQXHIJMNAF-UHFFFAOYSA-N
CLASS=Quinones
ADDUCT=[M-H]-
INSTRUMENT=Agilent Q-ToF 6530
PRECURSOR_MZ=537.0789
COMPOUND_NAME=Skyrin
ION_MODE=negative
FORMULA=C30H18O10
107.053314 63.08654 
113.130676 995.881775 
159.042435 284.223541 
175.0448 3743.605225 
176.01825 1158.076904 
201.058258 1238.110352 
214.912537 2184.550537 
225.05658 581.001892 
226.061127 524.224976 
281.05011 2870.941406 
282.048615 1487.29895 
294.05011 1191.038452 
308.896973 6375.505371 
309.043945 2525.699463 
335.044312 962.869873 
402.881622 11787.972656 
451.082184 4450.817383 
452.103394 5425.692871 
469.091309 6248.795898 
470.119446 6658.322266 
593.322205 60.728447 
629.56427 34.5 
652.26886 96.153847 
660.94397 37.56818 
664.412781 32.007355 
682.249146 51.367424 
687.924683 29.818182 
721.982727 33.005436 
761.574646 43.339287 
773.251282 48.05357 
776.067566 90.737244 
776.721619 62.734756 
785.144592 74.01667 
807.610046 74.235466 
829.439392 126.917374 
834.839783 72.043106 
845.435669 48.01923 
870.244873 62.816666 
902.735352 47.5625 
933.127625 58.669445 
949.835815 60.150002 
954.377808 130.027023 
961.422668 200.160721 
964.083923 146.083328 
968.364624 123.964622 
1004.18634 134.65097 
1005.497925 73.023933 
1024.527832 118.20192 
1056.344116 91.01136 
1076.073608 65.025002 
1100.998779 43.901318 
1111.508057 96.671295 
1145.109863 48.440475 
1152.949097 68.0 
1165.26001 56.387821 
1180.285034 49.5625 
1224.447266 28.9 
1238.193726 21.375 
1260.529541 34.059212 
1278.510254 23.5 
1294.800293 127.723213 
1301.925293 23.889706 
1305.248901 25.0625 
1332.271362 54.075001 
1337.177246 48.845001 
1354.856323 49.034092 
1365.390869 47.07143 
1374.56311 81.969826 
1393.055298 111.625 
1434.859375 44.349998 
1468.375366 43.265625 
1482.310059 38.5 
1498.952881 74.881096 
1505.788086 44.142857 
1509.744263 32.78125 
1524.849365 23.008333 
1549.296143 56.017857 
1581.863525 47.57143 
1602.802368 54.603573 
1605.928345 59.063774 
1639.172974 77.25 
1644.236816 85.793602 
1677.289307 44.160713 
1689.902466 52.041668 
END IONS

BEGIN IONS
RTINSECONDS=361.580994
CHARGE=1-
MSLEVEL=2
PRECURSORINTENSITY=71067.851562
SMILES=COc1cc(c2c(c1)C(=O)c1cc(cc(c1C2=O)O)C=O)O
INCHI=InChI=1S/C16H10O6/c1-22-8-4-10-14(12(19)5-8)16(21)13-9(15(10)20)2-7(6-17)3-11(13)18/h2-6,18-19H,1H3
INCHIKEY=MCPKJGRRWINKOH-UHFFFAOYSA-N
CLASS=Quinones
ADDUCT=[M-H]-
INSTRUMENT=Agilent Q-ToF 6530
PRECURSOR_MZ=297.0383
COMPOUND_NAME=Fallacinal
ION_MODE=negative
FORMULA=C16H10O6
113.035301 109.75 
116.92347 79.240387 
141.029831 223.21489 
142.051575 770.972839 
170.044769 1358.746216 
197.099899 2201.430664 
198.11412 6749.45166 
199.035141 1180.006592 
226.027222 4226.852539 
254.022369 16783.775391 
254.995773 3523.825439 
402.64624 80.387817 
415.122742 41.920456 
424.230194 40.520161 
426.499237 50.165539 
436.522736 48.728447 
461.122864 40.670456 
488.252991 63.5 
523.01178 39.541668 
524.078247 105.925926 
534.325073 54.003571 
542.783264 68.25 
584.126038 97.391304 
602.725586 55.926281 
603.730835 54.23077 
619.740356 74.571426 
653.751465 59.322369 
663.233826 53.05357 
665.829773 72.260414 
668.490723 67.96154 
693.590942 175.786392 
711.476257 48.805 
781.39917 38.796051 
789.827454 71.080132 
793.723328 39.3125 
795.108398 40.787163 
801.306885 40.208332 
801.572998 36.125 
862.125366 35.266304 
872.831665 56.905487 
873.58313 98.640625 
873.70166 24.674999 
900.032715 31.901316 
907.148621 51.454544 
926.386169 31.666666 
929.793396 27.164474 
931.844666 26.450001 
982.922974 117.680557 
990.933289 53.16346 
997.449829 102.002357 
1008.83783 43.900002 
1021.000366 77.384613 
1059.259644 32.005001 
1078.792969 178.792557 
1078.885132 71.388885 
1105.926025 44.307693 
1119.919067 30.0 
1129.569702 32.440216 
1170.707764 31.875 
1178.713379 47.888889 
1202.008179 28.78125 
1213.365234 71.595589 
1227.014282 39.666668 
1252.581055 43.107758 
1296.53418 59.693966 
1311.48291 61.42857 
1334.072998 51.030407 
1342.085449 63.245689 
1344.404785 43.00658 
1368.867798 123.63636 
1413.376953 43.025002 
1418.104126 58.125 
1430.039551 69.80278 
1449.59436 47.0 
1479.301025 54.625 
1491.651855 66.545456 
1495.403809 49.173077 
1533.716064 68.0625 
1552.23877 28.307692 
1560.581665 78.979652 
1572.461304 34.027779 
1612.103882 76.219597 
1622.552612 40.444443 
1628.736206 44.454544 
1668.612915 33.657608 
1668.759521 41.599998 
1679.843018 27.160715 
1689.031982 59.273647 
END IONS

BEGIN IONS
RTINSECONDS=204.621994
CHARGE=1-
MSLEVEL=2
PRECURSORINTENSITY=7314869.000000
SMILES=Cc1cc(cc(c1C(=O)O)O)O
INCHI=InChI=1S/C8H8O4/c1-4-2-5(9)3-6(10)7(4)8(11)12/h2-3,9-10H,1H3,(H,11,12)
INCHIKEY=AMKYESDOVDKZKV-UHFFFAOYSA-N
CLASS=Cleavage Products of Depsides and Depsidones
ADDUCT=[M-H]-
INSTRUMENT=Agilent Q-ToF 6530
PRECURSOR_MZ=167.0335
COMPOUND_NAME=Orsellinic acid
ION_MODE=negative
FORMULA=C8H8O4
123.044273 3832618.75 
123.233749 242352.171875 
124.029655 226980.0 
234.809387 84.673615 
249.070099 78.208336 
272.764587 92.321426 
277.08078 74.556816 
319.442871 88.171608 
322.180206 53.041668 
360.856567 49.432144 
372.552795 44.160713 
386.539948 49.939518 
409.069031 90.030304 
428.485962 84.25 
430.394745 72.598404 
443.463654 135.96022 
473.557739 165.333328 
475.009918 168.236771 
524.132507 59.976353 
546.476196 72.285378 
549.377625 62.0 
563.652771 105.094696 
577.661926 62.260418 
580.228149 82.005951 
610.861023 115.723404 
634.81781 52.113636 
639.374268 71.816864 
649.684814 77.410004 
676.809143 126.63269 
691.015198 51.520161 
712.850586 80.102272 
735.990417 41.004032 
765.769348 70.556816 
779.434326 45.391129 
800.923645 68.050003 
806.111389 51.344513 
827.607056 57.307693 
832.111877 47.720238 
868.706299 106.006409 
869.808044 43.44643 
873.863342 81.002777 
890.36969 116.243904 
943.949341 66.271736 
960.142517 45.047619 
983.340271 44.280174 
989.969788 51.025002 
993.678589 49.191177 
998.561096 42.875 
1001.034729 51.351746 
1061.540039 63.047619 
1062.830688 59.245689 
1070.954712 155.666672 
1071.012817 86.462837 
1119.95752 50.942307 
1142.00061 50.836956 
1149.338135 61.06649 
1153.29834 79.227272 
1155.405396 60.130318 
1188.335449 68.680557 
1201.004028 74.321808 
1206.287109 50.308823 
1209.313232 134.009613 
1257.245117 36.408333 
1267.072144 33.224998 
1295.754883 41.020832 
1302.11853 40.720238 
1330.730591 65.003784 
1342.012817 45.0 
1342.875977 94.391304 
1355.300659 62.322369 
1373.261597 49.027779 
1400.594238 54.25 
1403.419189 65.959999 
1429.188721 58.57143 
1449.19873 60.0625 
1454.809814 51.245689 
1463.074097 48.816666 
1470.985474 85.612808 
1504.46936 66.400002 
1516.469849 42.166668 
1520.851196 42.840908 
1552.184814 57.889286 
1569.518921 68.859695 
1575.62915 114.595589 
1607.667114 49.0 
1610.147095 53.322369 
1614.965698 46.941177 
1620.720947 43.041668 
1670.178955 39.485294 
1672.185547 54.009258 
1686.267944 32.142857 
1694.777466 34.0 
END IONS

BEGIN IONS
RTINSECONDS=315.049988
CHARGE=1-
MSLEVEL=2
PRECURSORINTENSITY=364610.343750
SMILES=CC1C(OC2(C(C1O)C)C(C1C(C(=O)C2(C(=O)O1)C)C)C)C
INCHI=InChI=1S/C17H26O5/c1-7-11(5)22-17(9(3)12(7)18)10(4)13-8(2)14(19)16(17,6)15(20)21-13/h7-13,18H,1-6H3
INCHIKEY=CVPVGRDVSAJUQS-UHFFFAOYSA-N
CLASS=Aliphatic and Cycloaliphatic Compounds
ADDUCT=[M-H+HCOOH]-
INSTRUMENT=Agilent Q-ToF 6530
PRECURSOR_MZ=355.1738
COMPOUND_NAME=Portentol
ION_MODE=negative
FORMULA=C17H26O5
112.941612 155.65097 
125.081757 177.278412 
148.04837 2258.345947 
149.16127 267.244995 
163.111954 11023.916016 
163.617981 289.19104 
164.115219 2105.831299 
200.591812 151.600006 
250.170395 221.049698 
265.170471 5508.186035 
266.19165 1421.657593 
309.170258 800.080444 
409.97525 121.298782 
421.74939 138.025635 
445.457611 128.111359 
446.884766 111.05896 
456.847595 100.666664 
500.519592 105.602272 
506.687256 98.578949 
511.819214 109.690002 
528.899902 223.96196 
546.781738 121.801666 
561.204773 95.571426 
570.610229 138.132248 
580.970581 124.171608 
636.617065 197.01236 
645.241089 96.882355 
651.610352 150.018448 
670.719238 93.125 
674.999451 150.986938 
712.608459 121.755135 
721.994324 136.256409 
725.28363 113.769234 
749.640259 139.245697 
754.682983 247.716064 
764.008301 149.421051 
789.835022 163.721771 
791.247314 141.632812 
797.318298 134.884811 
824.939453 110.735001 
838.967651 94.461067 
842.103943 88.130432 
873.560425 108.049416 
919.287659 96.445656 
919.448242 103.612289 
923.202637 84.349136 
948.638489 145.71196 
985.923157 102.844299 
993.576355 96.04348 
1015.536133 78.666664 
1029.923828 113.351746 
1040.242432 154.945312 
1084.842041 112.130211 
1098.37915 99.840118 
1102.402832 138.719345 
1109.463867 128.456818 
1142.905151 106.11364 
1151.98584 191.027023 
1161.887695 96.0 
1175.06311 116.53125 
1205.246338 83.058823 
1227.542725 82.149391 
1233.723633 90.25 
1274.208374 116.800003 
1276.648926 149.421875 
1293.769653 92.26667 
1307.708252 98.398582 
1312.050903 104.14286 
1316.782959 104.210526 
1397.025635 125.878052 
1401.694092 103.578949 
1405.916748 117.26651 
1409.400757 111.328949 
1413.262817 178.049423 
1422.631348 143.721161 
1456.798706 103.031715 
1484.415161 123.181816 
1487.182007 107.5625 
1509.300415 101.035713 
1518.532593 130.111267 
1537.712402 128.505676 
1556.532471 134.768616 
1565.426514 99.840279 
1583.689453 93.149391 
1598.525391 102.333336 
1617.969727 85.015625 
1618.671265 87.112068 
1642.398804 93.679054 
1663.352295 178.79361 
1671.054443 86.019066 
1684.207153 117.25528 
1686.029053 116.781776 
END IONS

BEGIN IONS
RTINSECONDS=414.968994
CHARGE=1-
MSLEVEL=2
PRECURSORINTENSITY=1498782.875000
SMILES=Oc1c(C(=O)Oc2cc(O)c(C(=O)O)c(CC(=O)CCC)c2)c(CC(=O)CCC)cc(OC)c1
INCHI=InChI=1S/C25H28O9/c1-4-6-16(26)8-14-11-19(13-20(28)22(14)24(30)31)34-25(32)23-15(9-17(27)7-5-2)10-18(33-3)12-21(23)29/h10-13,28-29H,4-9H2,1-3H3,(H,30,31)
INCHIKEY=QZZMDINWSWWNKM-UHFFFAOYSA-N
CLASS=Depsides (Didepsides)
ADDUCT=[M-H]-
INSTRUMENT=Agilent Q-ToF 6530
PRECURSOR_MZ=471.1588
COMPOUND_NAME=Glomellic acid
ION_MODE=negative
FORMULA=C25H28O9
105.093536 6772.265625 
123.044899 65906.789062 
124.048492 6967.088867 
146.036621 8322.027344 
149.023956 44160.4375 
193.086624 239173.0625 
194.089844 52639.421875 
219.065765 570487.125 
220.069351 134154.921875 
237.076096 684931.4375 
238.080048 140463.0 
298.124329 275.021271 
313.142303 6308.54248 
314.147949 2935.243164 
315.11676 405.491241 
365.180176 158.120102 
367.150299 189.49234 
383.187927 10001.642578 
384.192505 5273.626953 
385.191803 827.816895 
427.174835 4466.013184 
553.486755 104.107758 
563.098938 150.516083 
577.523865 135.483032 
619.828979 221.563629 
625.423401 86.410004 
628.364807 81.59375 
654.154053 80.025002 
682.252197 156.148804 
707.116577 121.014999 
728.930664 75.0 
741.08313 97.719337 
742.225586 96.118423 
762.869019 99.737244 
783.562012 89.247643 
789.120483 93.01667 
790.877014 121.414215 
834.624207 61.784092 
844.997192 66.428574 
875.685059 64.888885 
890.447327 62.445 
905.041382 89.925926 
920.796509 93.375 
927.1875 59.142857 
979.71991 42.140625 
982.159973 41.112499 
989.039795 40.291668 
1025.440552 159.007568 
1046.930786 144.547302 
1056.94873 107.103813 
1063.056885 87.209908 
1067.310059 92.232689 
1074.156616 80.100807 
1101.830444 66.133331 
1148.440063 51.150002 
1156.975952 75.076218 
1160.110352 78.055557 
1198.786865 78.141304 
1200.557373 115.063774 
1216.054932 70.003571 
1226.654297 254.125 
1226.842896 90.173912 
1283.40686 61.339287 
1290.774414 42.842106 
1298.141357 61.115742 
1320.572144 107.391304 
1339.99353 103.241379 
1381.905151 58.0 
1390.191284 66.375 
1401.860474 58.224998 
1420.420776 62.01907 
1443.614746 76.01136 
1446.474487 46.644737 
1456.657959 48.030407 
1472.335327 45.515244 
1476.226807 61.760136 
1525.992432 50.391304 
1527.669678 42.805 
1528.100586 50.406914 
1533.521118 91.008926 
1571.51416 68.16346 
1589.954834 51.157051 
1601.168091 67.032143 
1601.276611 74.222221 
1610.112549 71.960526 
1660.774048 92.206635 
1675.973145 73.5 
1681.18335 62.011906 
1683.704102 67.721153 
1689.764404 89.130318 
1690.055054 61.165321 
END IONS

BEGIN IONS
RTINSECONDS=450.910004
CHARGE=1-
MSLEVEL=2
PRECURSORINTENSITY=583528.437500
SMILES=OC(=O)c1c(OC)cc(cc1CCCCC)OC(=O)c1c(CCCCC)cc(OC)cc1OC
INCHI=InChI=1S/C27H36O7/c1-6-8-10-12-18-15-21(17-22(32-4)24(18)26(28)29)34-27(30)25-19(13-11-9-7-2)14-20(31-3)16-23(25)33-5/h14-17H,6-13H2,1-5H3,(H,28,29)
INCHIKEY=FNJKTDQIJKLZGZ-UHFFFAOYSA-N
CLASS=Depsides (Didepsides)
ADDUCT=[M-H]-
INSTRUMENT=Agilent Q-ToF 6530
PRECURSOR_MZ=471.2302
COMPOUND_NAME=Planaic acid
ION_MODE=negative
FORMULA=C27H36O7
122.105339 18691.828125 
122.995514 2328.777832 
177.102585 23457.71875 
178.431168 18248.261719 
193.122803 155361.859375 
194.126022 37517.15625 
207.138519 16924.902344 
251.128311 12748.94043 
252.131836 4291.471191 
279.069366 5388.570801 
337.143555 29826.513672 
338.145294 14355.21875 
339.157745 8361.074219 
365.206207 24132.035156 
366.210266 13492.441406 
395.220032 55068.375 
396.224091 25989.21875 
427.241486 13757.819336 
551.400757 123.385635 
579.488586 101.10041 
586.116211 93.556816 
591.421021 101.297623 
622.480225 117.469444 
633.055969 109.781776 
658.641235 122.329918 
667.785339 111.116379 
674.900635 88.446426 
706.613037 86.177635 
709.386963 129.002274 
734.076843 92.181816 
759.65918 76.25 
774.262573 126.297836 
782.72522 100.202271 
794.353394 96.025002 
803.94812 140.380203 
830.26355 74.25 
837.975647 66.633774 
843.479553 99.083336 
898.239807 104.573982 
900.513611 102.512497 
914.613525 191.446777 
915.135986 77.432144 
933.41217 84.004311 
952.919983 78.022957 
983.456848 94.469444 
986.026672 80.191177 
1020.516296 158.008072 
1023.495605 62.409092 
1041.580566 83.125 
1071.017334 92.040001 
1082.639282 83.778847 
1096.104614 214.041672 
1098.588501 74.446426 
1105.372559 81.005951 
1122.858276 100.561043 
1146.787598 63.595589 
1152.266968 71.223686 
1158.060059 118.064285 
1201.427856 114.002274 
1213.760254 237.69606 
1251.786133 81.360847 
1254.474731 81.050003 
1261.509399 84.903687 
1281.146362 186.603912 
1303.333008 112.515244 
1312.169556 80.281975 
1316.867188 132.568176 
1359.394165 77.165321 
1366.372559 68.391129 
1380.447388 63.263157 
1402.860718 82.669441 
1404.381348 172.02388 
1439.924072 139.410217 
1442.132202 75.0 
1442.273193 56.11842 
1480.607666 64.736115 
1500.463257 114.002357 
1526.265137 76.01136 
1531.155151 71.720238 
1534.939819 95.545456 
1544.704224 78.231483 
1557.59021 72.26667 
1581.625854 85.011902 
1593.100708 65.842102 
1604.33728 80.064285 
1652.922607 47.160713 
1674.667358 57.08654 
1688.923462 68.344513 
1694.166992 143.017303 
1695.984741 47.81686 
END IONS

BEGIN IONS
RTINSECONDS=412.576996
CHARGE=1-
MSLEVEL=2
PRECURSORINTENSITY=3798794.750000
SMILES=Cc1c(c(C(=O)C)c(c2c1OC1(OC)C2(C(=O)C(=C(C1)O)C(=O)C)C)O)O
INCHI=InChI=1S/C19H20O8/c1-7-14(23)12(9(3)21)15(24)13-16(7)27-19(26-5)6-10(22)11(8(2)20)17(25)18(13,19)4/h22-24H,6H2,1-5H3
INCHIKEY=VEZRSCFWYNSNPR-UHFFFAOYSA-N
CLASS=Dibenzofuranes
ADDUCT=[M-H]-
INSTRUMENT=Agilent Q-ToF 6530
PRECURSOR_MZ=375.0998
COMPOUND_NAME=Placodiolic acid
ION_MODE=negative
FORMULA=C19H20O8
133.055969 17236.451172 
139.038361 19402.640625 
145.037735 20361.804688 
159.044495 30208.859375 
187.069366 62622.359375 
189.058716 60217.6875 
213.065887 75533.125 
231.059448 274118.9375 
255.060074 228648.765625 
257.070892 89721.414062 
286.038177 134626.15625 
299.079773 128039.765625 
301.060822 91720.546875 
329.053436 137278.875 
343.068237 76733.578125 
459.43338 151.11377 
463.876831 108.755135 
486.492859 113.072578 
502.199341 226.666672 
510.238159 104.285713 
550.897095 205.25 
553.570251 152.5 
570.184204 112.007355 
592.253601 165.235458 
601.882751 140.809937 
622.09375 118.236839 
622.638733 148.371216 
638.169006 101.923912 
685.997681 101.26535 
687.440674 106.56144 
730.293945 106.686401 
737.668335 113.04348 
763.303772 156.4375 
773.779602 123.324997 
776.288818 130.035919 
777.702759 128.675003 
788.342163 154.506943 
838.57373 108.080132 
845.547241 133.226852 
863.25116 109.764832 
882.280762 106.259613 
907.21582 138.095245 
930.660095 105.133064 
933.017761 105.662231 
967.414307 100.704544 
995.171143 153.0336 
1000.44397 118.059212 
1036.304199 100.081665 
1047.525391 112.61364 
1086.279175 115.259613 
1124.820557 110.723213 
1149.635498 144.667923 
1159.630249 138.037033 
1164.609253 133.432693 
1184.548828 108.384094 
1208.891357 178.49704 
1230.868896 112.288269 
1266.599487 139.382355 
1305.530762 209.57988 
1305.798584 104.721153 
1312.033203 141.259613 
1317.808105 148.32724 
1341.999023 120.054825 
1507.154419 100.308823 
1611.477539 132.40834 
1612.177124 229.186951 
1623.832642 103.160088 
1648.603516 117.089287 
1651.96875 121.446426 
1664.340088 102.654411 
1667.253174 121.445312 
END IONS

BEGIN IONS
RTINSECONDS=296.050995
CHARGE=1-
MSLEVEL=2
PRECURSORINTENSITY=707220.625000
SMILES=O=C1c2c(C)cc(OC)c(C=O)c2Oc2c(O1)c(c(c1c2C(O)OC1=O)O)C
INCHI=InChI=1S/C19H14O9/c1-6-4-9(25-3)8(5-20)15-10(6)17(22)27-14-7(2)13(21)11-12(16(14)26-15)19(24)28-18(11)23/h4-5,19,21,24H,1-3H3
INCHIKEY=SKCUFZLDTAYNBZ-UHFFFAOYSA-N
CLASS=Depsidones
ADDUCT=[M-H]-
INSTRUMENT=Agilent Q-ToF 6530
PRECURSOR_MZ=385.0474
COMPOUND_NAME=Stictic acid
ION_MODE=negative
FORMULA=C19H14O9
121.038818 2363.418213 
149.023575 4134.311523 
197.058563 13298.005859 
210.064636 13678.460938 
225.06076 18271.353516 
226.060913 16074.606445 
254.055557 43506.960938 
267.027435 47796.132812 
282.049316 27477.925781 
297.064728 55343.992188 
341.062195 147014.78125 
342.071777 39568.269531 
411.215118 228.380203 
455.359161 68.851418 
508.219269 88.002548 
526.118774 97.757576 
529.270264 161.130325 
530.778931 87.190475 
542.27063 90.625 
561.698486 79.96154 
600.113342 157.117645 
612.534729 86.285378 
624.4505 70.926285 
629.98175 72.941177 
643.370239 84.666664 
687.721252 52.515625 
688.194153 50.289288 
695.319275 54.032143 
748.917542 86.5 
755.854736 54.557693 
762.904358 96.01786 
763.580078 74.003571 
773.070801 96.32415 
796.079651 129.041672 
810.189087 80.375 
818.430115 61.289288 
826.367188 66.893517 
839.413025 75.333336 
869.575012 63.575001 
882.594116 71.920456 
892.952148 70.040001 
893.98407 61.326614 
920.725037 129.666672 
921.75824 60.090908 
960.365112 69.03846 
970.19281 51.232143 
974.336792 55.939518 
985.13562 62.125 
1048.95166 75.066666 
1077.304321 58.564816 
1083.874023 81.640152 
1098.17395 65.235291 
1100.263916 69.29657 
1131.860352 121.375 
1136.491821 56.157051 
1178.05542 52.016666 
1179.470703 54.004631 
1202.741211 48.375 
1209.108276 43.125 
1225.934937 86.896278 
1250.010986 82.96154 
1265.05188 121.185608 
1269.679443 54.263157 
1272.461426 66.011902 
1304.479004 84.157051 
1321.332764 118.0625 
1343.456177 58.909092 
1366.055664 155.134995 
1373.712158 55.160713 
1400.566406 57.025002 
1407.374878 106.555771 
1428.813965 51.049999 
1447.054199 60.89352 
1453.297241 63.016666 
1494.04187 67.002663 
1505.282471 49.642857 
1518.237671 56.07143 
1522.329346 71.375 
1530.670654 72.002907 
1549.81665 49.680557 
1566.047974 52.200001 
1595.473633 47.796051 
1639.384155 49.322369 
1641.075195 51.307693 
1663.119507 66.561043 
1680.5448 65.125 
1681.512695 76.16346 
1681.912354 70.414215 
END IONS

BEGIN IONS
RTINSECONDS=435.845001
CHARGE=1-
MSLEVEL=2
PRECURSORINTENSITY=6632010.500000
SMILES=Cc1cc(OC(=O)c2c(O)c(C)c(OC)cc2C)c(C)c(O)c1C(=O)O
INCHI=InChI=1S/C19H20O7/c1-8-7-13(11(4)16(20)14(8)18(22)23)26-19(24)15-9(2)6-12(25-5)10(3)17(15)21/h6-7,20-21H,1-5H3,(H,22,23)
INCHIKEY=NMKBRSYSHBPUPY-UHFFFAOYSA-N
CLASS=Depsides (Didepsides)
ADDUCT=[M-H]-
INSTRUMENT=Agilent Q-ToF 6530
PRECURSOR_MZ=359.109
COMPOUND_NAME=Barbatic acid
ION_MODE=negative
FORMULA=C19H20O7
119.049728 545341.4375 
120.056129 57214.527344 
137.06076 1124902.125 
163.03981 678066.375 
181.050583 3987016.25 
181.168564 250209.328125 
182.053665 472302.15625 
241.076691 3985.154541 
242.08812 841.767944 
271.133362 3278.816895 
272.136475 935.330566 
315.124847 14423.013672 
316.125305 3849.938965 
444.112579 65.603569 
446.181549 100.160088 
449.331482 79.5625 
479.357941 115.414215 
490.407074 195.0 
496.735474 86.157051 
505.010132 64.25 
507.274078 92.404999 
540.280212 67.347221 
542.613586 58.191177 
563.869751 53.0625 
585.252563 113.583336 
602.232056 88.025002 
624.063843 138.100357 
624.292114 61.003571 
633.697449 123.280739 
665.569458 84.889282 
686.638184 48.047619 
686.691711 37.349136 
719.260376 67.0 
727.531616 146.443176 
733.960266 83.920921 
744.187195 91.155769 
763.381836 115.516129 
788.091797 89.456894 
789.320312 140.881668 
807.425354 121.008926 
821.156616 162.039551 
850.98938 68.625 
870.441895 87.045456 
905.550293 122.019737 
944.476135 92.004036 
948.190369 126.33532 
955.038269 115.133331 
959.185425 76.880432 
995.831421 56.142242 
1000.762024 64.037041 
1012.674622 164.779419 
1033.21167 50.012501 
1056.890381 127.006943 
1083.585205 65.599998 
1090.588989 89.002548 
1100.15686 95.523552 
1105.532227 92.240387 
1119.350464 101.068184 
1136.716431 118.58036 
1164.157959 123.035713 
1166.929077 117.551727 
1193.594849 113.561043 
1197.491455 50.097828 
1242.907471 63.075001 
1271.49707 94.125 
1304.408569 134.470749 
1306.530396 258.032135 
1333.772949 192.0 
1336.698486 130.784637 
1343.376465 92.800003 
1361.435303 131.607147 
1410.456421 57.920456 
1412.339722 64.23214 
1436.218018 47.142242 
1453.463013 121.115562 
1473.764771 42.39674 
1495.801514 73.787041 
1526.409668 67.515625 
1530.309326 71.08036 
1535.574829 67.564026 
1535.649902 190.277023 
1552.812744 118.120094 
1596.794067 46.003788 
1617.165527 53.125 
1617.332397 110.33654 
1623.216431 48.164474 
1647.268066 113.494865 
1656.700562 51.065788 
1692.399902 115.5 
1694.481934 39.025002 
END IONS

BEGIN IONS
RTINSECONDS=315.45401
CHARGE=1-
MSLEVEL=2
PRECURSORINTENSITY=1880253.375000
SMILES=O=c1c2c(oc3c1c(C)cc(O)c3)cc(O)cc2O
INCHI=InChI=1S/C14H10O5/c1-6-2-7(15)4-10-12(6)14(18)13-9(17)3-8(16)5-11(13)19-10/h2-5,15-17H,1H3
INCHIKEY=AQZHBCDRWFMXIN-UHFFFAOYSA-N
CLASS=Xanthones and bis-Xanthones
ADDUCT=[M-H]-
INSTRUMENT=Agilent Q-ToF 6530
PRECURSOR_MZ=257.0368
COMPOUND_NAME=Norlichexanthone
ION_MODE=negative
FORMULA=C14H10O5
105.039619 106726.578125 
149.023132 114558.898438 
157.064026 56252.882812 
159.044052 23202.162109 
185.062241 56137.523438 
213.052856 354369.125 
214.054962 63250.394531 
215.032684 79651.625 
315.31662 155.587265 
343.431366 93.2192 
358.303375 83.756149 
360.022217 104.805 
364.255463 111.206894 
394.648743 100.820457 
430.774475 95.036018 
434.408936 91.734756 
463.317291 242.367371 
483.135071 172.047409 
488.533478 92.53125 
501.163391 114.049416 
503.715088 100.442307 
538.492676 101.070312 
580.958374 99.30616 
581.043579 83.26667 
583.134644 77.045456 
595.607422 110.930229 
631.810608 73.578949 
653.852417 93.03846 
656.788879 109.28125 
674.125305 76.306816 
697.278015 106.125 
727.736328 92.422417 
738.117004 130.68161 
746.49884 95.040581 
764.799561 97.358047 
790.676392 86.409088 
790.921631 99.284088 
819.463318 110.358047 
836.064148 77.541664 
861.223633 60.556034 
865.390686 51.889286 
876.450684 68.328949 
916.858582 72.047623 
932.960388 158.014618 
940.480774 78.428574 
949.322021 99.719337 
964.983643 107.625 
996.092712 171.40834 
1015.998291 88.594391 
1040.068359 80.786766 
1069.460205 62.100807 
1077.919434 84.199997 
1101.886719 106.92308 
1109.484985 108.906746 
1123.473389 85.89286 
1125.826904 155.001343 
1138.150513 97.0 
1154.944702 106.371216 
1167.782715 75.721153 
1176.836792 85.669441 
1219.431274 108.002357 
1229.496216 49.375 
1238.547852 123.531624 
1239.362061 71.679054 
1274.253906 95.461067 
1286.560669 51.038792 
1294.050781 82.045212 
1310.426392 52.284092 
1343.793945 62.388889 
1365.699951 77.529411 
1368.596069 73.002449 
1369.06311 85.760132 
1375.320435 106.25 
1406.832153 79.5625 
1420.92749 85.816864 
1445.05603 95.85714 
1461.052979 94.612289 
1464.490723 192.185181 
1472.653809 120.003571 
1493.105347 97.14286 
1528.015015 91.097824 
1558.568604 122.493851 
1561.240845 115.189186 
1565.215698 86.349998 
1574.451294 61.315216 
1585.861572 71.416664 
1632.558105 61.00658 
1656.640991 76.041664 
1666.808716 71.321808 
1668.793457 49.845001 
1672.95752 41.025002 
1685.915771 44.048912 
END IONS

BEGIN IONS
RTINSECONDS=226.255997
CHARGE=1-
MSLEVEL=2
PRECURSORINTENSITY=2507098.750000
SMILES=Cc1cc(=O)c2c(o1)cc1c(c2O)C(=CC(=O)C1=O)O
INCHI=InChI=1S/C14H8O6/c1-5-2-7(15)12-10(20-5)3-6-11(14(12)19)8(16)4-9(17)13(6)18/h2-4,16,19H,1H3
INCHIKEY=NPUXQAACUNUHIX-UHFFFAOYSA-N
CLASS=Quinones
ADDUCT=[M-H]-
INSTRUMENT=Agilent Q-ToF 6530
PRECURSOR_MZ=271.0179
COMPOUND_NAME=Canarione
ION_MODE=negative
FORMULA=C14H8O6
103.06205 29763.341797 
115.086113 60027.246094 
131.019974 43016.171875 
143.03096 53409.03125 
159.007965 117572.171875 
199.038116 61867.773438 
202.996597 64723.582031 
243.02803 146774.140625 
244.031448 24914.136719 
329.306152 71.47406 
329.694702 81.125 
342.246613 70.816666 
373.946472 94.061272 
382.44458 65.612808 
445.996826 66.005951 
451.304016 87.92308 
463.376404 65.263161 
471.54425 54.080128 
483.439209 55.083332 
501.18515 76.942307 
533.890015 66.23214 
552.229248 55.297619 
562.605469 206.740936 
577.66748 92.625 
579.398193 56.406914 
602.480835 53.125 
613.335327 74.4879 
638.81189 53.00658 
667.396179 55.111488 
673.023499 175.169006 
696.111633 98.3125 
709.761414 146.449997 
723.857117 45.025002 
731.29541 114.120094 
743.94873 67.265625 
760.909485 61.020832 
781.546021 83.568398 
790.592773 52.115742 
827.544983 53.25 
840.089783 66.557693 
846.495667 55.041668 
868.382935 77.107452 
891.43158 46.032143 
900.119873 69.284088 
909.28302 60.384617 
910.865173 42.720238 
969.182739 49.671295 
972.782104 47.197582 
974.025391 205.896271 
990.583618 66.224998 
1017.864685 66.53846 
1036.172729 62.198528 
1041.200684 84.083336 
1063.267212 87.190475 
1076.196777 60.235294 
1077.034058 58.25 
1118.900757 37.190475 
1119.606934 67.485291 
1165.762207 43.48077 
1166.196899 60.012501 
1210.645386 43.308823 
1230.464966 36.560184 
1243.350464 41.204544 
1246.165771 40.125 
1268.317261 45.480263 
1308.811157 52.640152 
1316.036133 93.635567 
1316.401611 49.404999 
1327.192139 48.802776 
1330.88916 66.0 
1348.041992 62.25 
1376.858765 38.020832 
1393.183105 51.515625 
1423.807251 83.952705 
1443.992188 58.976353 
1447.31604 70.532898 
1463.717529 52.907257 
1476.436157 48.722221 
1492.926636 52.5 
1520.259277 40.25 
1535.787842 60.166668 
1549.033081 60.017857 
1593.193604 73.556816 
1594.034546 44.017857 
1604.999268 70.050003 
1605.880127 62.297619 
1642.439209 67.306816 
1647.550659 48.694443 
1649.065063 47.036289 
1677.959229 72.84375 
1688.136475 35.6875 
END IONS

BEGIN IONS
RTINSECONDS=469.954987
CHARGE=1-
MSLEVEL=2
PRECURSORINTENSITY=3435597.250000
SMILES=Oc1c(C(=O)Oc2c(OC)cc(c(C(=O)O)c2O)CCC)c(CCC)cc(OC)c1
INCHI=InChI=1S/C22H26O8/c1-5-7-12-9-14(28-3)11-15(23)17(12)22(27)30-20-16(29-4)10-13(8-6-2)18(19(20)24)21(25)26/h9-11,23-24H,5-8H2,1-4H3,(H,25,26)
INCHIKEY=CPHXGYQLOSNELY-UHFFFAOYSA-N
CLASS=Depsides (Didepsides)
ADDUCT=[M-H]-
INSTRUMENT=Agilent Q-ToF 6530
PRECURSOR_MZ=417.1494
COMPOUND_NAME=Sekikaic acid
ION_MODE=negative
FORMULA=C22H26O8
122.03656 187113.78125 
137.023926 149790.03125 
150.068176 585146.375 
165.091446 580939.5 
166.069885 727242.25 
209.081299 2354445.5 
209.21106 142645.328125 
210.08139 349425.25 
225.076141 722300.4375 
226.079208 112738.3125 
282.127686 1395.547485 
283.12616 535.891785 
297.146729 718.795959 
314.159454 545.779053 
330.925659 181.142044 
490.692505 103.119186 
504.450409 196.127548 
535.999878 146.283447 
540.766235 133.556244 
546.842102 104.739754 
562.57019 117.027779 
584.708923 168.244995 
631.5271 89.097824 
634.934814 176.771271 
636.163391 93.533333 
642.471069 129.008331 
649.134399 231.882431 
687.391296 90.708336 
708.051147 107.637192 
729.067139 225.450699 
748.320557 106.285378 
758.818787 131.080353 
768.395081 117.307205 
790.660217 117.215515 
839.596497 112.247948 
851.954285 119.077583 
857.315002 121.330879 
877.202454 148.396973 
880.478271 107.010002 
892.436707 170.404846 
929.358032 97.002274 
940.28656 84.848076 
980.328003 96.146736 
993.947144 156.01236 
996.736816 90.699997 
1021.032532 92.347221 
1038.016724 92.894737 
1042.054932 165.778412 
1057.117554 124.306252 
1078.088867 88.008331 
1087.519653 205.033081 
1112.667114 86.583336 
1136.705811 94.285713 
1153.470337 92.257812 
1155.621948 98.3125 
1175.586426 78.625 
1202.391113 87.909088 
1220.411133 68.768616 
1228.334595 99.456894 
1254.483032 301.782898 
1273.634888 128.189392 
1283.470093 222.191177 
1299.823975 76.765625 
1327.174194 131.740936 
1362.822266 95.680557 
1365.864624 144.222977 
1382.894531 178.262848 
1389.718018 75.615387 
1410.126953 144.272064 
1448.77771 131.017853 
1460.403809 75.625 
1460.61438 67.889709 
1504.823364 71.224998 
1507.101807 102.64286 
1516.075439 174.53334 
1516.461792 66.211205 
1550.764404 94.107758 
1571.859375 91.384094 
1572.148193 99.85714 
1572.216919 74.416664 
1585.420166 117.881668 
1588.590942 104.926285 
1628.552002 130.939392 
1634.987183 99.408333 
1650.179443 75.165985 
1651.425537 114.326614 
1687.982666 143.166138 
1696.005615 139.600006 
END IONS

BEGIN IONS
RTINSECONDS=16.573999
CHARGE=1-
MSLEVEL=2
PRECURSORINTENSITY=1064791.625000
SMILES=OC[C@@H](O)[C@@H](O)[C@H](O)[C@H](O)CO
INCHI=InChI=1S/C6H14O6/c7-1-3(9)5(11)6(12)4(10)2-8/h3-12H,1-2H2/t3-,4-,5-,6-/m1/s1
INCHIKEY=FBPFZTCFMRRESA-KVTDHHQDSA-N
CLASS="Polyols, Monosaccharides, Carbohydrates"
ADDUCT=[M-H]-
INSTRUMENT=Agilent Q-ToF 6530
PRECURSOR_MZ=181.0696
COMPOUND_NAME=D-Mannitol
ION_MODE=negative
FORMULA=C6H14O6
101.024254 255402.53125 
113.112991 29116.537109 
119.000473 58029.882812 
131.041382 24581.234375 
163.077484 82985.953125 
233.247055 161.416672 
241.163315 133.040588 
261.93335 95.284088 
292.064911 75.882355 
294.619293 149.360291 
336.840851 75.045212 
342.912292 78.266129 
345.479431 81.681602 
364.428009 64.197578 
367.10257 79.842102 
392.569611 83.023933 
415.66333 128.896271 
440.594574 77.235291 
462.828339 79.368423 
469.354126 69.142242 
515.494995 81.01136 
522.468445 62.200001 
531.380554 60.760418 
531.505066 80.083336 
545.211243 90.089996 
567.702393 128.98349 
587.687744 64.816666 
590.782959 61.89352 
624.388672 83.768616 
648.662048 72.778061 
649.150085 72.125 
653.253906 127.173912 
654.448669 80.173912 
673.92981 84.53186 
704.650757 58.487904 
710.031738 140.3629 
738.055237 61.333332 
754.395691 86.290001 
755.96283 55.793606 
780.07428 118.0 
809.826355 55.625 
810.90448 56.76923 
815.376099 74.0 
845.262329 77.911362 
845.743835 56.076923 
870.463013 69.322365 
874.756042 81.040092 
901.424927 80.48214 
903.122803 59.920456 
946.21521 91.247643 
953.710876 72.116806 
964.891357 121.284088 
1020.199707 103.191452 
1032.691162 77.023933 
1036.915039 126.951271 
1041.342041 140.635208 
1074.066284 273.799988 
1092.34021 64.061272 
1105.618042 79.260414 
1109.527954 58.014706 
1111.874756 76.013161 
1121.166748 130.573975 
1167.582397 54.148811 
1176.651245 84.444443 
1179.542358 233.391129 
1185.062866 61.280174 
1228.871582 102.054825 
1241.526978 80.5 
1257.259277 116.833336 
1266.134766 86.209999 
1273.4729 176.38942 
1301.869995 117.181816 
1320.618896 86.125 
1334.206299 132.206894 
1341.752075 84.050003 
1364.770996 102.18409 
1396.468506 102.094696 
1410.444824 72.265625 
1426.724121 108.375 
1429.191406 116.248528 
1431.507324 138.1362 
1498.161377 100.235291 
1504.645874 77.148811 
1518.050293 95.260414 
1540.732056 93.230766 
1541.451416 90.828575 
1545.734863 107.612503 
1600.239014 59.140625 
1601.769165 61.605 
1611.962769 57.036289 
1624.471924 58.211208 
1636.378662 61.308823 
1647.651367 59.172871 
1680.333618 48.761364 
1683.368164 47.112499 
END IONS

BEGIN IONS
RTINSECONDS=364.097992
CHARGE=1-
MSLEVEL=2
PRECURSORINTENSITY=37795.601562
SMILES=Cc1cc(cc(c1C(=O)OC)O)OC(=O)c1c(c(c(c(c1O)Cl)O)Cl)C
INCHI=InChI=1S/C17H14Cl2O7/c1-6-4-8(5-9(20)10(6)16(23)25-3)26-17(24)11-7(2)12(18)15(22)13(19)14(11)21/h4-5,20-22H,1-3H3
INCHIKEY=CSRJYVIKHJFLSA-UHFFFAOYSA-N
CLASS=Depsides (Didepsides)
ADDUCT=[M-H]-
INSTRUMENT=Agilent Q-ToF 6530
PRECURSOR_MZ=399.003
COMPOUND_NAME=Tumidulin
ION_MODE=negative
FORMULA=C17H14Cl2O7
115.242409 114.602272 
118.770233 104.14286 
172.953903 624.285156 
207.026367 407.296417 
216.891953 23412.142578 
217.725616 2887.532715 
218.878021 11574.194336 
219.854828 336.851624 
256.130066 147.266312 
289.036926 93.002052 
313.874878 116.160088 
323.042175 139.024994 
323.982056 108.80278 
324.958344 133.447372 
367.041443 173.088882 
452.350006 67.26667 
474.934814 116.207146 
500.083679 62.387821 
512.726257 151.028152 
539.914917 98.242645 
554.765991 100.445656 
559.678223 84.010872 
569.928101 81.065788 
617.558899 63.67857 
629.407837 68.46154 
637.506287 107.0 
648.401917 66.157051 
660.634583 54.125 
671.60553 31.28125 
672.029663 48.612499 
727.001282 34.083332 
732.690796 39.235466 
757.388489 30.125 
775.486694 32.777779 
793.366577 40.005951 
794.904236 56.115742 
846.913025 37.125 
851.890015 54.896278 
856.953552 41.892857 
873.109802 73.015625 
875.229248 58.926281 
879.102356 131.735291 
898.709595 69.666664 
907.008728 107.131493 
924.747864 66.349487 
938.621216 67.852272 
973.101196 48.5 
976.384766 96.428574 
1000.547058 57.799999 
1016.430359 61.926281 
1024.1521 76.80278 
1054.584595 102.052963 
1054.671387 49.900002 
1060.828735 39.471153 
1066.606323 29.11574 
1124.567505 52.11842 
1126.905151 31.164474 
1128.034546 33.142857 
1136.789795 63.432144 
1156.909302 128.208328 
1205.296021 47.291668 
1205.440308 38.449074 
1215.882935 35.81818 
1216.857422 39.125 
1239.662354 43.692307 
1259.458008 50.645 
1273.327881 48.680557 
1293.581543 89.166664 
1295.68042 32.022728 
1340.651855 66.561043 
1349.398438 47.016666 
1350.348511 68.680557 
1360.983398 54.89352 
1364.973022 40.075001 
1411.614014 22.322369 
1417.065918 19.777779 
1429.345093 66.480263 
1432.276123 30.048914 
1452.017334 57.884617 
1479.93042 61.224998 
1490.552246 36.03125 
1500.701416 59.39674 
1508.753418 39.444443 
1532.976562 37.16346 
1551.856445 50.009617 
1581.154907 104.740944 
1606.121948 54.39674 
1609.8302 108.551727 
1620.670654 51.391129 
1628.100342 63.0 
1654.003174 111.173782 
1688.10376 62.388157 
1696.575684 55.390625 
1696.656982 20.160715 
1697.214478 17.778847 
END IONS

BEGIN IONS
RTINSECONDS=240.815994
CHARGE=1-
MSLEVEL=2
PRECURSORINTENSITY=1525381.500000
SMILES=Cc1cc(O)c2c(oc3c2c(C)c(C(=O)O)c(O)c3)c1C(=O)O
INCHI=InChI=1S/C16H12O7/c1-5-3-7(17)13-12-6(2)11(16(21)22)8(18)4-9(12)23-14(13)10(5)15(19)20/h3-4,17-18H,1-2H3,(H,19,20)(H,21,22)
INCHIKEY=ZVWOMGLVQVBJQN-UHFFFAOYSA-N
CLASS=Dibenzofuranes
ADDUCT=[M-H]-
INSTRUMENT=Agilent Q-ToF 6530
PRECURSOR_MZ=315.0491
COMPOUND_NAME=Pannaric acid
ION_MODE=negative
FORMULA=C16H12O7
129.082825 4804.257324 
131.049194 9061.032227 
157.063538 9771.098633 
171.079163 19025.785156 
181.061554 31646.167969 
197.058777 88723.109375 
199.073639 42001.203125 
212.045242 102240.632812 
226.058121 49756.105469 
227.066635 54790.417969 
271.055176 302117.78125 
272.057037 61058.636719 
297.041565 248370.296875 
298.039276 51991.039062 
394.254883 236.0625 
418.173157 96.116806 
433.576721 119.039558 
441.353363 146.882355 
445.555573 92.5 
448.182587 94.473686 
479.481873 131.309067 
499.686462 102.84375 
505.417084 106.014244 
513.704102 88.094696 
518.916443 153.551468 
569.523621 132.543274 
573.035034 72.047623 
576.397522 83.25 
583.685791 80.875 
603.814575 120.0 
645.595032 128.314102 
650.538147 89.055557 
653.769226 96.801727 
684.253235 133.223221 
686.342529 89.33532 
717.187927 109.040001 
717.243713 96.003571 
747.309937 79.785713 
769.77124 129.836761 
778.231934 72.17308 
790.970154 88.346153 
802.879944 96.440216 
832.624512 74.574997 
860.729431 74.375 
862.40686 88.561043 
866.480347 86.768616 
877.434448 139.404999 
908.004028 71.889282 
928.821167 146.0 
959.282227 112.5625 
959.357544 44.339287 
1001.543701 107.111366 
1040.54248 55.657608 
1042.028931 61.148811 
1043.205322 62.926281 
1047.843018 70.605003 
1063.447266 86.036018 
1099.221069 71.640152 
1114.773315 134.662735 
1125.307739 73.008331 
1131.162231 74.125 
1159.222412 96.142441 
1166.281616 57.0625 
1167.716309 111.408333 
1168.193115 56.016666 
1229.397461 43.113636 
1231.922729 85.489998 
1234.210205 40.961956 
1250.255249 69.025002 
1261.778809 79.840912 
1284.533081 60.695515 
1301.594482 68.003784 
1326.303345 68.68145 
1346.717407 93.107452 
1352.237061 84.565216 
1388.208374 113.556816 
1390.048828 81.199997 
1422.739868 111.008621 
1422.834473 66.480766 
1453.260132 36.16346 
1477.585571 81.052635 
1480.965088 82.125 
1495.474365 131.556458 
1512.029419 84.875 
1514.908936 78.260414 
1549.294312 64.285713 
1553.715698 90.80278 
1566.677002 40.020832 
1566.916626 97.111839 
1576.75769 48.083332 
1609.969849 120.021225 
1633.307373 39.560184 
1651.776489 58.107143 
1663.151611 55.894737 
1694.748657 52.599998 
END IONS

BEGIN IONS
RTINSECONDS=440.677002
CHARGE=1-
MSLEVEL=2
PRECURSORINTENSITY=45988.066406
SMILES=Cc1c2c(Oc3c(OC2=O)c(c(c(c3C)Cl)OC)C)c(C=O)c(O)c1Cl
INCHI=InChI=1S/C18H14Cl2O6/c1-6-10-17(9(5-21)13(22)11(6)19)25-15-7(2)12(20)14(24-4)8(3)16(15)26-18(10)23/h5,22H,1-4H3
INCHIKEY=SNNDIPJEAQAKTJ-UHFFFAOYSA-N
CLASS=Depsidones
ADDUCT=[M-H]-
INSTRUMENT=Agilent Q-ToF 6530
PRECURSOR_MZ=395.0093
COMPOUND_NAME=Argopsin
ION_MODE=negative
FORMULA=C18H14Cl2O6
102.932068 108.002449 
112.983849 191.193802 
138.995361 873.551086 
153.978531 208.34964 
170.01265 305.814911 
182.982788 961.46936 
208.020767 336.688538 
224.110596 491.145416 
244.045074 927.082886 
259.006897 733.147766 
272.022034 735.162476 
276.019531 561.04303 
288.030731 713.650696 
316.01474 827.493225 
336.006287 858.103821 
359.041351 637.285156 
448.676056 107.112503 
462.602661 103.521736 
508.803436 39.570946 
522.237244 71.565216 
535.735718 34.942307 
562.756104 40.099998 
597.815247 45.520161 
602.199219 42.76923 
614.039368 51.0 
614.144287 33.23077 
641.324829 67.470589 
666.398987 73.191177 
673.802734 82.615387 
689.52948 59.347221 
697.125305 123.963234 
714.001526 74.360001 
759.823242 76.367645 
775.638611 51.778225 
799.686584 145.266571 
813.661011 56.107758 
818.352051 82.29657 
835.757202 75.367424 
843.979553 113.002777 
850.784668 68.157051 
887.392456 98.396126 
887.47467 51.23077 
931.651611 63.157051 
938.63855 57.094696 
948.478149 77.061272 
952.425415 50.008335 
958.01355 56.066177 
988.039917 79.022057 
992.709839 42.592106 
1008.718872 40.0625 
1041.422974 36.53125 
1044.74292 26.674999 
1070.977905 29.017857 
1071.775269 49.55682 
1078.760254 47.388889 
1099.864014 27.009615 
1118.515747 30.011364 
1151.747559 28.204546 
1155.943604 64.880432 
1179.517944 94.010872 
1201.899536 129.668655 
1202.756226 157.96022 
1215.078003 99.685974 
1222.128052 136.846161 
1224.855835 68.778847 
1241.832153 42.032143 
1271.055664 40.5 
1275.026245 41.017857 
1305.230835 63.111488 
1313.115234 25.027779 
1328.12915 55.153847 
1364.016113 53.273647 
1367.093994 26.163462 
1367.297485 30.132353 
1394.722778 82.002449 
1421.259644 33.025002 
1421.366699 41.025002 
1445.668579 26.005953 
1469.113037 31.657608 
1492.67749 24.053572 
1509.5448 90.644737 
1512.178223 71.695511 
1534.021606 79.112503 
1549.058472 50.080128 
1561.463745 39.016666 
1564.161133 73.603569 
1577.662598 26.125 
1600.786011 26.339285 
1629.059326 40.204544 
1657.766968 25.041666 
1687.417725 14.291667 
1694.466309 56.30682 
1695.270508 29.022728 
1698.095459 37.041668 
END IONS

BEGIN IONS
RTINSECONDS=376.925995
CHARGE=1-
MSLEVEL=2
PRECURSORINTENSITY=1433056.750000
SMILES=O=C1c2c(C)cc(O)c(C=O)c2Oc2c(O1)c(c(c(c2C)C(=O)O)O)COC(=O)CCC(=O)O
INCHI=InChI=1S/C22H18O12/c1-8-5-12(24)10(6-23)19-15(8)22(31)34-20-11(7-32-14(27)4-3-13(25)26)17(28)16(21(29)30)9(2)18(20)33-19/h5-6,24,28H,3-4,7H2,1-2H3,(H,25,26)(H,29,30)
INCHIKEY=ROISWLBRDLJEFL-UHFFFAOYSA-N
CLASS=Depsidones
ADDUCT=[M-H]-
INSTRUMENT=Agilent Q-ToF 6530
PRECURSOR_MZ=473.0574
COMPOUND_NAME=Succinprotocetraric acid
ION_MODE=negative
FORMULA=C22H18O12
117.019081 175938.171875 
118.022423 13975.177734 
120.885429 3034.745117 
135.067291 6746.626953 
149.024216 14767.025391 
199.038773 8246.160156 
211.096313 12439.753906 
239.06955 39158.851562 
240.072006 14036.174805 
241.049438 30849.673828 
283.058685 36306.152344 
311.054413 616094.4375 
312.057831 249401.0 
313.060547 28015.71875 
337.034576 19789.644531 
355.039856 128121.351562 
356.051025 60245.992188 
529.216675 124.370369 
552.393311 84.041664 
553.158386 106.125 
578.02478 70.842102 
601.190674 129.052963 
612.085327 98.284088 
640.96814 109.097824 
648.576294 86.455643 
654.22876 73.644737 
667.468384 83.30867 
675.834534 96.160713 
714.081421 77.049606 
731.334961 71.816666 
744.558289 73.111488 
757.232788 147.789139 
772.290588 108.33532 
799.34082 92.023933 
806.205933 78.083336 
806.88739 79.662735 
819.1297 103.284088 
861.948608 182.189392 
883.622314 83.360291 
885.438538 63.55682 
914.278015 75.012497 
914.567627 76.160713 
924.22644 70.368904 
956.765381 86.816666 
978.021057 70.449997 
990.030701 92.052635 
1012.700317 66.901314 
1013.058167 90.432144 
1017.099731 68.800003 
1041.98999 194.00119 
1066.006104 53.375 
1101.11853 54.049999 
1121.720215 68.002907 
1135.089966 57.939518 
1148.320435 61.57143 
1158.439331 85.026161 
1162.959106 55.047619 
1197.715088 57.07143 
1199.240479 46.657608 
1256.904907 147.125 
1263.116943 142.918915 
1279.209106 110.260803 
1279.832275 144.805328 
1295.793457 123.789474 
1336.582886 76.14286 
1338.219727 70.145409 
1382.981689 140.001434 
1392.576782 71.367424 
1399.480469 76.654068 
1421.637695 65.14286 
1435.657593 55.197582 
1448.39624 174.927475 
1469.058472 124.5625 
1487.995239 46.041668 
1490.183105 67.5 
1520.731323 64.400002 
1545.516846 86.056816 
1553.640747 95.125 
1556.870361 83.285713 
1570.178955 65.784088 
1571.817139 103.125 
1577.029907 58.490383 
1626.267456 44.0 
1626.458252 54.153847 
1652.178345 46.289288 
1664.860107 42.032143 
1670.08252 34.0 
END IONS

BEGIN IONS
RTINSECONDS=270.274994
CHARGE=1-
MSLEVEL=2
PRECURSORINTENSITY=922271.437500
SMILES=OC1=C(OC)C(=O)c2c(O)c3oc(C(=O)C)c(O)c3c(O)c2C1=O
INCHI=InChI=1S/C15H10O9/c1-3(16)13-11(21)6-7(17)4-5(9(19)14(6)24-13)10(20)15(23-2)12(22)8(4)18/h17,19,21-22H,1-2H3
INCHIKEY=ILUWXELFYCLFHQ-UHFFFAOYSA-N
CLASS=Quinones
ADDUCT=[M-H]-
INSTRUMENT=Agilent Q-ToF 6530
PRECURSOR_MZ=333.0147
COMPOUND_NAME=Chiodectonic acid
ION_MODE=negative
FORMULA=C15H10O9
122.016052 20750.070312 
134.008392 12887.990234 
136.016113 27473.634766 
149.996384 59619.011719 
150.999817 6537.883301 
178.00946 10747.664062 
206.020401 12571.638672 
207.012146 4469.756348 
234.016373 16194.400391 
261.014069 4067.930664 
262.009583 16930.558594 
290.005066 141676.78125 
291.00885 25600.65625 
393.962219 140.439026 
420.343018 103.551727 
450.241577 87.25 
498.46817 63.400002 
505.336945 52.841217 
508.832855 110.232689 
528.922729 59.670456 
560.197327 61.625 
560.352844 70.320122 
582.703796 81.520836 
586.263855 94.0 
607.928833 63.173782 
621.020081 70.583336 
635.177795 56.375 
647.077759 79.157051 
685.326355 146.875 
688.911072 75.911362 
704.047363 98.880432 
714.229004 55.016666 
717.620178 87.800003 
771.49707 97.171608 
772.833313 91.889153 
784.509521 124.135002 
788.317688 86.236702 
795.473999 127.488373 
801.214966 67.263161 
855.093567 85.91848 
875.733337 53.599998 
881.80304 130.266571 
890.782104 60.017857 
927.440979 58.173912 
935.787354 75.520836 
945.624146 48.111488 
982.00177 122.58036 
982.967773 106.862068 
1006.632263 72.149391 
1011.493652 100.097221 
1021.281799 63.473682 
1039.836182 51.556034 
1081.435913 76.300003 
1093.376099 48.069443 
1134.188965 60.36842 
1135.654419 61.117645 
1143.706665 69.599998 
1155.393921 55.384617 
1157.694946 65.222221 
1199.799927 67.336113 
1210.949707 55.25 
1211.281494 48.242645 
1242.200317 58.00338 
1259.981567 57.5 
1295.992676 95.844299 
1318.034668 58.515244 
1320.550049 121.171875 
1320.629272 103.680557 
1328.837769 78.03125 
1373.668945 77.045212 
1381.790771 127.208336 
1388.729736 71.004997 
1396.343872 50.315788 
1422.28894 53.03846 
1457.765625 54.840115 
1468.440186 79.449074 
1482.021851 60.245689 
1511.371704 67.099998 
1517.913696 80.111366 
1535.223389 62.080128 
1541.214966 55.666668 
1582.630981 107.648529 
1598.692017 127.969086 
1620.968994 45.150002 
1621.307617 110.049416 
1622.644653 63.022961 
1624.056519 65.603569 
1673.269409 38.599998 
1676.332275 56.140625 
1680.183472 42.5625 
1692.932373 72.052635 
END IONS

BEGIN IONS
RTINSECONDS=337.123993
CHARGE=1-
MSLEVEL=2
PRECURSORINTENSITY=2433712.750000
SMILES=O=C1c2c(C)cc(O)c(C=O)c2Oc2c(O1)c(c(c(c2C)C(=O)O)O)CO
INCHI=InChI=1S/C18H14O9/c1-6-3-10(21)8(4-19)15-11(6)18(25)27-16-9(5-20)13(22)12(17(23)24)7(2)14(16)26-15/h3-4,20-22H,5H2,1-2H3,(H,23,24)
INCHIKEY=VOXMONAUSQZPTP-UHFFFAOYSA-N
CLASS=Depsidones
ADDUCT=[M-H]-
INSTRUMENT=Agilent Q-ToF 6530
PRECURSOR_MZ=373.0483
COMPOUND_NAME=Protocetraric acid
ION_MODE=negative
FORMULA=C18H14O9
105.033829 2842.16333 
107.036598 9245.383789 
123.007233 6108.691895 
149.023972 8505.420898 
151.038956 24700.185547 
213.053757 80293.976562 
229.049118 118923.742188 
239.068848 62016.105469 
255.063599 168462.65625 
267.063507 237192.921875 
285.071167 93139.992188 
311.052155 149322.375 
329.074036 130644.515625 
355.040955 57826.523438 
451.202393 109.014999 
456.059204 104.512497 
456.924683 76.224998 
485.614807 79.778847 
490.146423 168.960785 
514.914795 99.125 
541.31488 155.090912 
546.360718 100.926285 
548.105103 121.166664 
592.057678 122.168922 
593.220703 118.080879 
617.972534 145.023941 
624.391479 197.061569 
637.254028 170.960052 
654.905945 103.375 
667.444946 184.578568 
678.027161 104.675003 
706.893188 101.165985 
714.997925 87.080879 
718.641296 125.248077 
734.397278 73.26667 
735.241272 78.471153 
775.566711 70.26667 
806.220459 149.056244 
810.258667 74.480263 
813.449463 113.446426 
831.094788 80.925003 
843.519958 108.097565 
852.452393 76.551468 
892.830811 76.449997 
912.412781 60.25 
915.852905 105.875 
924.031738 115.645164 
975.717346 124.656815 
981.392517 106.840912 
1010.705933 82.408783 
1013.945068 83.5 
1035.363159 104.112503 
1048.898926 125.099998 
1065.678345 133.875 
1082.509521 119.782532 
1083.283813 128.560349 
1131.77417 129.760422 
1154.068726 80.0 
1155.387695 65.25 
1161.106445 71.100807 
1189.879517 58.142857 
1211.114014 54.603573 
1214.848999 66.235291 
1219.924805 125.190216 
1237.70105 55.004631 
1301.589111 85.094231 
1310.680908 62.68182 
1313.326904 82.011902 
1352.795288 69.18409 
1376.055786 65.160713 
1401.280762 79.929878 
1411.260498 110.072578 
1413.212524 73.0 
1463.550781 110.925926 
1474.018188 70.066666 
1487.22583 164.595337 
1495.765381 168.001663 
1520.699341 102.153847 
1537.91394 61.555557 
1546.54187 59.905487 
1573.179565 59.445 
1624.084473 52.765625 
1627.943359 88.004631 
1632.907715 51.969826 
1645.602295 68.785713 
1688.765991 63.107758 
1696.324707 53.013157 
END IONS

BEGIN IONS
RTINSECONDS=426.276001
CHARGE=1-
MSLEVEL=2
PRECURSORINTENSITY=843705.937500
SMILES=CCCCCc1cc(cc(c1C(=O)O)OC)OC(=O)c1c(cc(cc1CC(=O)CCCCC)OC)O
INCHI=InChI=1S/C28H36O8/c1-5-7-9-11-18-14-22(17-24(35-4)26(18)27(31)32)36-28(33)25-19(13-20(29)12-10-8-6-2)15-21(34-3)16-23(25)30/h14-17,30H,5-13H2,1-4H3,(H,31,32)
INCHIKEY=UANVCGQMNRTKGM-UHFFFAOYSA-N
CLASS=Depsides (Didepsides)
ADDUCT=[M-H]-
INSTRUMENT=Agilent Q-ToF 6530
PRECURSOR_MZ=499.2274
COMPOUND_NAME=Confluentic acid
ION_MODE=negative
FORMULA=C28H36O8
122.091248 39017.433594 
123.09597 5886.602051 
136.117447 3894.024902 
137.058624 11317.876953 
178.10173 52381.476562 
178.999512 12549.352539 
193.12236 248230.84375 
194.131943 69391.148438 
237.111847 665342.75 
238.115082 208005.9375 
239.117554 19895.966797 
261.111755 22013.447266 
298.157471 42134.601562 
299.155365 20860.275391 
313.178223 54304.875 
314.181702 29589.443359 
353.162964 1765.74585 
395.219727 1055.030029 
396.218597 1390.51355 
411.252258 22184.246094 
412.254578 17462.164062 
413.25824 1930.456909 
455.241547 10087.004883 
572.646545 87.20192 
599.031738 93.939392 
599.578003 82.556038 
614.021851 84.013161 
658.187561 77.599998 
660.894836 106.346313 
663.946899 125.36364 
678.026489 131.015411 
697.188293 102.043106 
713.011963 114.969261 
750.158325 123.0 
750.914551 129.925629 
752.388367 103.201668 
784.522522 138.131577 
800.157288 106.71627 
836.566345 85.4879 
854.188354 109.800003 
854.878174 108.3629 
857.334839 103.036293 
891.534668 149.911362 
904.160583 126.800003 
918.755371 87.64286 
953.05188 98.80278 
954.569275 106.001984 
973.152161 116.360077 
973.504395 137.469162 
976.319031 125.480637 
1026.924805 105.171608 
1050.118042 127.349998 
1071.981934 136.485291 
1076.030029 185.149826 
1095.406494 125.142441 
1119.626221 111.324997 
1126.599487 104.010872 
1157.074585 145.455811 
1166.990356 117.964622 
1173.079712 89.803574 
1176.134888 140.719345 
1240.602173 87.77594 
1242.769531 99.371216 
1249.014771 97.160713 
1249.867188 89.25 
1259.305542 106.102272 
1293.474976 83.011902 
1307.075317 80.333336 
1337.976318 84.0 
1379.626465 106.375 
1380.656494 77.16346 
1386.966797 79.592216 
1404.089355 141.02388 
1431.102417 90.002907 
1431.453003 95.75 
1462.852051 100.118423 
1471.1875 176.440994 
1478.31311 103.240387 
1487.93457 120.60714 
1516.671631 79.219597 
1530.000122 72.285713 
1534.912231 76.29657 
1559.562744 83.80278 
1581.156372 80.470741 
1585.923218 138.906754 
1621.741699 77.391129 
1629.222412 154.161285 
1638.712769 95.654068 
1641.370728 83.224998 
1646.626099 68.625 
1686.597412 82.059212 
END IONS

BEGIN IONS
RTINSECONDS=388.128998
CHARGE=1-
MSLEVEL=2
PRECURSORINTENSITY=18599.437500
SMILES=O=C1c2c(cc(c(c2O)Cl)OC)C(=O)c2c1c(O)cc(C)c2
INCHI=InChI=1S/C16H11ClO5/c1-6-3-7-11(9(18)4-6)15(20)12-8(14(7)19)5-10(22-2)13(17)16(12)21/h3-5,18,21H,1-2H3
INCHIKEY=RTBAOFRCWWQFHB-UHFFFAOYSA-N
CLASS=Quinones
ADDUCT=[M-H]-
INSTRUMENT=Agilent Q-ToF 6530
PRECURSOR_MZ=317.02
COMPOUND_NAME=Fragilin
ION_MODE=negative
FORMULA=C16H11ClO5
101.883141 70.765625 
103.287872 126.815002 
110.918968 70.063774 
112.9702 143.0 
124.539223 90.008331 
146.974457 93.132355 
181.030182 96.0 
182.029984 1084.352051 
183.036667 223.169556 
210.034668 164.008331 
238.081268 354.061768 
266.023834 509.561646 
274.00174 782.863953 
385.594299 30.049999 
397.682434 33.027779 
402.276093 146.391312 
423.145386 38.25 
450.160126 27.796053 
450.26413 34.066177 
464.237396 61.136112 
533.277344 47.083332 
534.757935 43.022728 
549.374451 88.635201 
550.391907 35.099998 
550.557251 41.083332 
584.271118 74.054825 
601.190613 108.529411 
601.262878 23.892857 
618.114807 81.375 
653.651978 25.148809 
671.998962 75.368904 
681.564819 46.005001 
691.000366 64.019234 
708.223816 65.560188 
718.235535 162.161285 
728.879456 37.473682 
737.818787 92.246948 
784.694031 37.005951 
804.122925 26.291666 
807.877136 33.799999 
828.493225 42.0 
859.302856 55.148811 
859.919983 29.004999 
880.291626 17.125 
892.287903 25.35 
934.619202 43.941177 
942.5448 28.225 
962.311218 39.150002 
969.791687 43.595589 
975.426636 29.148809 
979.26239 108.061272 
1038.92749 21.166666 
1039.782593 19.1 
1039.86145 19.048914 
1047.938477 50.06649 
1054.80957 17.405001 
1067.151855 22.160715 
1112.252319 30.111111 
1132.015503 62.360001 
1142.737427 41.5 
1147.306763 32.242645 
1166.180176 61.18182 
1167.667847 86.449471 
1201.022583 76.003204 
1202.242798 66.367424 
1214.987427 46.034092 
1218.690308 58.490383 
1241.947266 34.361111 
1267.333252 47.560184 
1292.602539 22.111841 
1298.418945 24.408333 
1300.113892 143.455811 
1316.367432 22.339285 
1327.422852 30.066668 
1389.070068 20.9 
1394.946167 30.011364 
1407.091064 23.053572 
1441.704956 28.211206 
1442.075073 56.0 
1449.116089 41.339287 
1472.910645 67.387817 
1491.363281 37.68145 
1504.385498 68.610001 
1543.401123 18.9 
1567.74585 109.414215 
1568.525024 21.006578 
1599.094727 62.005001 
1639.350708 58.779411 
1646.30127 34.408333 
1661.751587 24.075001 
1664.059082 55.0 
1678.295288 42.235294 
1696.921021 32.408333 
END IONS

BEGIN IONS
RTINSECONDS=524.463013
CHARGE=1-
MSLEVEL=2
PRECURSORINTENSITY=1366777.625000
SMILES=O=C1c2c(CCCCC)cc(OC)c(OC)c2Oc2c(O1)cc(c(c2CCCCC)C(=O)O)O
INCHI=InChI=1S/C26H32O8/c1-5-7-9-11-15-13-18(31-3)23(32-4)24-20(15)26(30)33-19-14-17(27)21(25(28)29)16(22(19)34-24)12-10-8-6-2/h13-14,27H,5-12H2,1-4H3,(H,28,29)
INCHIKEY=GHBZVNHEVHMKOB-UHFFFAOYSA-N
CLASS=Depsidones
ADDUCT=[M-H]-
INSTRUMENT=Agilent Q-ToF 6530
PRECURSOR_MZ=471.1962
COMPOUND_NAME=3-Methoxycolensoic acid
ION_MODE=negative
FORMULA=C26H32O8
133.10141 81218.460938 
134.104691 16557.541016 
134.964691 1173.640015 
177.090637 3222.482422 
209.116043 4043.084229 
220.073364 5927.049805 
221.078888 2909.111084 
235.09462 5371.643555 
297.108826 9075.760742 
310.115356 32475.191406 
325.143768 34528.109375 
353.170319 86700.664062 
354.174072 42523.367188 
368.192871 67768.289062 
383.216156 108063.804688 
384.218536 79652.875 
385.199829 53263.414062 
427.206573 80479.601562 
554.886169 147.511368 
565.751343 133.240082 
584.525024 79.25 
611.253784 103.889709 
614.545044 196.628876 
628.839233 97.157051 
663.663635 120.001984 
666.562378 122.086861 
679.408936 106.044014 
701.402039 120.506248 
723.324585 90.28125 
732.201721 81.083336 
735.844299 88.205002 
757.212646 80.840912 
783.603882 90.284088 
792.521362 74.570656 
799.196167 86.888885 
832.232788 75.512497 
835.259521 74.011902 
858.642395 163.018188 
860.247742 75.787163 
905.346863 72.370613 
922.492615 70.48214 
956.305908 80.320122 
958.269531 78.388161 
978.573364 66.199997 
991.701111 78.555855 
992.722961 73.419777 
1023.200989 70.315216 
1037.589844 71.272728 
1073.505981 92.560188 
1075.926758 71.050003 
1117.773682 82.428574 
1122.700317 92.842102 
1135.97644 123.115562 
1174.661499 103.022728 
1177.854858 97.960526 
1183.839478 87.035713 
1208.851807 96.001808 
1212.519043 95.215424 
1237.856323 170.025635 
1247.091553 96.840118 
1265.104736 101.481483 
1316.000977 75.289284 
1320.746216 107.334877 
1326.783936 97.052635 
1338.713135 87.6129 
1383.722046 71.172874 
1395.82251 74.288269 
1418.597656 185.195648 
1428.104736 91.260414 
1431.539917 79.515625 
1467.683472 145.133331 
1483.003296 60.349136 
1491.701904 70.328949 
1496.168945 99.0 
1554.279297 69.01667 
1592.196289 60.285713 
1595.458374 67.0 
1606.96106 85.903229 
1620.30481 108.920456 
1647.124146 98.633774 
END IONS

BEGIN IONS
RTINSECONDS=277.531006
CHARGE=1-
MSLEVEL=2
PRECURSORINTENSITY=136453.468750
SMILES=Cc1cc(cc(c1C(=O)OC)O)O
INCHI=InChI=1S/C9H10O4/c1-5-3-6(10)4-7(11)8(5)9(12)13-2/h3-4,10-11H,1-2H3
INCHIKEY=NCCWCZLEACWJIN-UHFFFAOYSA-N
CLASS=Cleavage Products of Depsides and Depsidones
ADDUCT=[M-H]-
INSTRUMENT=Agilent Q-ToF 6530
PRECURSOR_MZ=181.05
COMPOUND_NAME=Methyl orsellincarboxylate
ION_MODE=negative
FORMULA=C9H10O4
105.034454 90971.96875 
106.037079 6865.327148 
121.064919 3321.00293 
122.035873 4881.445312 
137.058136 2229.289307 
149.023285 14756.202148 
202.892029 65.432144 
233.463318 61.777779 
247.027725 71.003571 
264.667267 49.5 
284.368103 47.027779 
310.301147 43.014706 
321.897797 62.084461 
333.508148 47.222221 
348.48642 55.0625 
380.804077 73.022728 
394.972717 82.033333 
399.416809 60.032143 
410.066376 65.727272 
463.68634 68.23214 
477.563904 44.603573 
479.238525 124.781593 
526.871094 34.720238 
546.095154 34.625 
552.36908 54.960526 
582.693115 45.142242 
595.253662 57.432144 
599.359009 34.041668 
605.734436 76.564812 
647.687134 33.008335 
661.004517 35.81818 
662.148438 43.244999 
699.300415 54.208332 
717.509888 40.020832 
739.185059 201.961609 
752.393982 35.0 
758.340881 37.367424 
790.874023 50.694443 
791.554382 37.520832 
803.078003 44.671295 
815.747192 42.148811 
853.815613 53.004631 
865.405579 66.29657 
867.828613 68.28125 
879.312256 66.640152 
888.500488 220.964417 
937.338074 47.07143 
939.350647 133.248291 
939.439148 49.005436 
961.234924 172.911362 
961.3396 53.222828 
1011.124268 43.599998 
1015.362061 32.0 
1040.265381 139.903229 
1061.496582 70.612503 
1072.28125 46.796051 
1084.201538 36.140625 
1117.822998 46.240383 
1122.753418 44.222828 
1144.678223 55.090908 
1151.37793 45.017857 
1184.756348 36.520832 
1206.884277 70.4879 
1221.425415 45.142857 
1222.503418 58.961956 
1240.320679 80.25 
1243.958862 82.615387 
1318.706055 37.449074 
1344.172485 88.53846 
1352.998047 30.5 
1362.844116 36.272728 
1388.333862 53.25 
1396.277588 36.041668 
1411.164917 56.03125 
1422.050903 28.961956 
1443.817993 96.406914 
1455.963379 99.285713 
1483.453247 59.75 
1483.782227 39.671295 
1499.628662 58.5625 
1510.959106 127.053574 
1511.063965 35.041668 
1526.640747 39.454544 
1586.820435 35.094696 
1596.517212 209.479996 
1614.28125 38.266304 
1614.980957 34.339287 
1628.567993 49.125 
1652.911011 40.440216 
1665.334351 35.094696 
1688.449829 97.80278 
1695.795288 39.360294 
1697.172119 46.100609 
END IONS

BEGIN IONS
RTINSECONDS=436.059998
CHARGE=1-
MSLEVEL=2
PRECURSORINTENSITY=2582221.500000
SMILES=Cc1c2c(Oc3c(OC2=O)c(c(c(c3C)C(=O)O)O)COCC)c(C=O)c(O)c1
INCHI=InChI=1S/C20H18O9/c1-4-27-7-11-15(23)14(19(24)25)9(3)16-18(11)29-20(26)13-8(2)5-12(22)10(6-21)17(13)28-16/h5-6,22-23H,4,7H2,1-3H3,(H,24,25)
INCHIKEY=SPLUKWYWJOQKMJ-UHFFFAOYSA-N
CLASS=Depsidones
ADDUCT=[M-H]-
INSTRUMENT=Agilent Q-ToF 6530
PRECURSOR_MZ=401.0758
COMPOUND_NAME=Cetraric acid
ION_MODE=negative
FORMULA=C20H18O9
105.033089 9605.62207 
209.060028 42193.707031 
213.054184 84326.914062 
215.035461 47606.324219 
229.049118 107636.335938 
239.069611 114004.429688 
267.064362 128705.59375 
311.053802 196642.640625 
312.056854 51079.800781 
313.099426 117298.15625 
355.043274 90707.234375 
357.092346 116620.992188 
467.357452 118.333336 
470.980042 131.945312 
490.947784 132.25 
500.186646 137.5728 
528.165405 121.764709 
531.313965 187.324158 
559.740051 191.0 
595.670959 84.125 
599.357727 120.358047 
606.398865 115.601669 
623.752686 116.63269 
624.886169 80.802635 
627.729797 72.681816 
657.418274 70.975807 
708.245667 101.0625 
713.966431 95.215515 
721.778809 99.610001 
722.951965 88.532898 
732.262451 143.23558 
739.10968 93.022057 
812.913208 91.33654 
815.709717 169.001663 
821.461304 99.022957 
829.332886 105.045456 
852.525452 105.890434 
871.417847 104.705246 
872.926819 116.114288 
895.530273 187.769226 
921.802856 109.300003 
927.544739 111.003571 
963.69873 76.003204 
972.692871 87.454544 
976.106628 124.705246 
996.66687 81.781776 
1027.853638 129.816666 
1035.356201 86.862068 
1049.404785 160.020828 
1064.653931 142.918472 
1083.763672 76.125 
1105.365967 192.388519 
1112.829834 127.125 
1120.224243 67.686401 
1140.271362 96.716835 
1153.11853 91.198532 
1198.106079 60.681602 
1220.737305 92.03846 
1234.643555 70.210526 
1249.497437 117.321426 
1250.073364 83.004997 
1285.724609 67.003571 
1286.030396 129.809998 
1317.415771 67.142441 
1341.619629 115.3153 
1350.191162 107.522728 
1350.390259 91.390625 
1362.285156 72.166664 
1372.71936 103.25 
1381.075928 87.694229 
1428.460449 128.024994 
1428.547363 87.245003 
1442.397949 111.803574 
1453.270996 167.680557 
1461.429932 152.25 
1485.524414 79.010414 
1508.741333 102.206635 
1523.794189 129.070312 
1558.979126 88.583336 
1562.903442 104.028847 
1563.265869 97.035713 
1574.019287 157.67308 
1578.362061 125.555855 
1599.445068 60.5 
END IONS

BEGIN IONS
RTINSECONDS=425.549011
CHARGE=1-
MSLEVEL=2
PRECURSORINTENSITY=901105.750000
SMILES=Cc1cc(c(c(c1C(=O)O)O)C)OC(=O)c1c(c(c(cc1C)OC)C)OC
INCHI=InChI=1S/C20H22O7/c1-9-8-14(11(3)17(21)15(9)19(22)23)27-20(24)16-10(2)7-13(25-5)12(4)18(16)26-6/h7-8,21H,1-6H3,(H,22,23)
INCHIKEY=MIJKZXWOOXIEEU-UHFFFAOYSA-N
CLASS=Depsides (Didepsides)
ADDUCT=[M-H]-
INSTRUMENT=Agilent Q-ToF 6530
PRECURSOR_MZ=373.1244
COMPOUND_NAME=Diffractaic acid
ION_MODE=negative
FORMULA=C20H22O7
120.057518 26835.789062 
135.066422 108361.195312 
136.047867 17477.207031 
137.060196 23286.888672 
165.091537 20413.353516 
209.082535 52301.914062 
210.085876 9316.365234 
238.097931 5976.290039 
282.089264 30300.515625 
285.148743 17333.341797 
297.105042 87834.257812 
298.116974 28210.572266 
329.145599 116302.851562 
435.693817 85.117645 
443.792389 85.01667 
450.057373 105.097221 
491.03891 71.4375 
517.045044 84.925926 
519.719116 117.041664 
523.423035 87.337959 
543.67395 128.917374 
553.594482 88.530663 
558.623596 104.844299 
588.500122 124.314102 
594.851501 82.013161 
606.419556 83.048912 
614.459351 70.0 
614.733337 116.0 
675.299194 61.612499 
701.125244 68.020454 
705.043335 205.005554 
707.694031 126.365257 
726.208069 71.728447 
731.447876 87.541664 
768.153503 68.083336 
771.372009 63.671295 
772.747864 66.00338 
795.907104 66.157051 
831.735657 61.0 
832.680786 93.0 
859.048706 58.266666 
866.284546 73.889282 
887.698975 110.01667 
910.973145 82.355392 
973.37561 100.610001 
975.749268 96.800003 
987.911987 104.533333 
994.773071 107.654068 
999.406799 91.723213 
1001.321533 119.85714 
1060.450195 98.26535 
1063.809082 74.402779 
1074.76355 61.03125 
1090.852295 60.049999 
1108.248413 105.112503 
1138.297974 57.235294 
1144.829712 51.027439 
1171.914429 118.952705 
1182.527832 66.0 
1185.247803 118.097824 
1213.167969 44.458332 
1216.550293 51.273647 
1244.938354 41.032143 
1275.783813 64.445656 
1290.336304 112.471153 
1321.61438 163.472733 
1326.497681 70.130318 
1340.61853 63.297619 
1359.432495 68.002663 
1360.685913 77.047623 
1377.776978 76.565216 
1393.765137 70.041664 
1393.835571 59.875 
1415.568237 57.235466 
1419.196777 38.174999 
1478.185303 80.002357 
1493.227051 96.041664 
1494.372192 105.084457 
1510.429321 133.414215 
1512.549438 92.564026 
1544.864868 98.020454 
1550.677856 105.420456 
1563.708252 68.157051 
1586.832031 60.307693 
1590.021973 80.817566 
1594.485962 52.223213 
1615.463745 45.183823 
1653.149902 96.33532 
1667.878296 45.113636 
1669.771851 44.003571 
1684.345825 28.041666 
1692.639038 55.595589 
1697.252075 34.224998 
END IONS

BEGIN IONS
RTINSECONDS=338.096985
CHARGE=1-
MSLEVEL=2
PRECURSORINTENSITY=5484026.500000
SMILES=O=C1c2c(C)cc(O)c(C)c2Oc2c(O1)c(c(c(c2C)C(=O)O)O)C
INCHI=InChI=1S/C18H16O7/c1-6-5-10(19)7(2)14-11(6)18(23)25-16-9(4)13(20)12(17(21)22)8(3)15(16)24-14/h5,19-20H,1-4H3,(H,21,22)
INCHIKEY=CFPLLTGKDKZLIH-UHFFFAOYSA-N
CLASS=Depsidones
ADDUCT=[M-H]-
INSTRUMENT=Agilent Q-ToF 6530
PRECURSOR_MZ=343.0795
COMPOUND_NAME=Hypoprotocetraric acid
ION_MODE=negative
FORMULA=C18H16O7
107.075073 39438.152344 
119.049507 325100.53125 
120.063324 55645.046875 
137.060242 119632.445312 
149.059937 73869.710938 
163.039658 270757.0 
183.118362 120064.226562 
201.05455 187955.984375 
227.107147 547888.1875 
240.07785 176661.078125 
243.065903 229948.609375 
255.102127 1430868.5 
256.105255 294733.0625 
299.092377 80984.375 
396.318542 138.297531 
429.494507 104.100807 
440.047852 128.782257 
441.796082 155.817566 
512.316223 116.541664 
517.899414 174.906586 
518.568787 102.222404 
524.687012 224.697784 
545.28772 113.256248 
550.168701 127.644997 
572.518188 192.488998 
605.536194 182.147964 
637.687988 127.370613 
643.624084 199.903061 
645.170654 149.633331 
650.627319 141.191452 
683.841064 108.419777 
703.660522 95.33532 
718.339355 106.837685 
734.977539 160.006577 
765.264893 151.125 
768.579773 105.3125 
776.565491 103.449471 
789.448364 110.844299 
804.735596 161.447296 
824.721802 91.191177 
870.056091 100.349487 
871.582214 160.097565 
880.072388 101.859695 
883.534119 101.802635 
919.390015 105.125 
932.981873 150.111115 
933.04126 92.455643 
953.954285 78.125 
965.004456 97.633774 
1001.658508 108.0 
1029.838013 140.975616 
1034.744019 155.666672 
1039.675293 133.735001 
1052.152344 86.004631 
1054.853882 86.347824 
1087.662109 100.058823 
1100.556396 79.0 
1134.190552 78.289284 
1156.801392 96.68145 
1158.321411 148.600006 
1161.564819 128.526321 
1233.980835 85.083336 
1239.206055 75.052322 
1270.444092 100.368904 
1293.513184 92.666664 
1308.317261 100.118423 
1318.766846 120.137932 
1319.916382 160.045914 
1338.374756 114.516129 
1396.323486 176.005951 
1407.213623 196.283447 
1410.693481 85.818184 
1419.88562 116.094696 
1438.671997 100.055557 
1462.294312 256.675385 
1477.63269 88.008926 
1485.307495 77.75 
1498.676025 114.308823 
1512.257812 120.094231 
1549.704956 190.148804 
1558.654053 109.0 
1568.745972 84.090912 
1602.124878 93.560066 
1609.848755 115.132248 
1623.59375 83.002449 
1676.62915 105.875 
1679.717529 84.969261 
1684.252686 96.022957 
1695.146606 96.5 
1698.040527 138.884613 
END IONS

BEGIN IONS
RTINSECONDS=416.458008
CHARGE=1-
MSLEVEL=2
PRECURSORINTENSITY=1261799.750000
SMILES=Cc1c(Cl)c(OC)cc(Oc2c(O)c(Cl)c(OC)c(Cl)c2C)c1C(=O)OC
INCHI=InChI=1S/C18H17Cl3O6/c1-7-11(18(23)26-5)9(6-10(24-3)12(7)19)27-16-8(2)13(20)17(25-4)14(21)15(16)22/h6,22H,1-5H3
INCHIKEY=OYHGZQVOFWBBGE-UHFFFAOYSA-N
CLASS=Diphenylethers
ADDUCT=[M-H]-
INSTRUMENT=Agilent Q-ToF 6530
PRECURSOR_MZ=433.0038
COMPOUND_NAME=Buellin
ION_MODE=negative
FORMULA=C18H17Cl3O6
140.973358 6461.754395 
152.975433 5621.054199 
176.951843 149055.21875 
177.957397 11762.124023 
178.948959 71415.40625 
204.947144 554717.6875 
205.951111 49321.992188 
206.944534 285775.28125 
229.02858 6685.987305 
307.961823 4980.962891 
308.966492 1746.707153 
309.956818 2984.719482 
326.940765 3186.202148 
328.938599 3681.211914 
366.979401 9261.665039 
367.98407 2152.274658 
368.974396 5594.962402 
489.488251 96.148148 
500.853058 148.0 
549.419983 69.666664 
559.91925 84.722221 
567.967773 89.019737 
573.231567 73.052635 
580.543457 85.568184 
609.452026 67.224998 
641.316345 65.367645 
657.534729 80.911293 
684.105896 93.040001 
693.335327 83.375 
706.058594 81.560349 
713.192139 91.689651 
742.465576 149.496628 
768.099854 106.0 
773.895142 130.390244 
783.942749 117.449997 
790.939331 93.349998 
810.30603 122.414215 
822.712158 93.08036 
890.080383 80.002663 
890.336853 71.571426 
893.422485 103.201614 
893.942749 74.449997 
902.403076 85.841217 
925.992981 90.723213 
952.171448 81.263161 
968.611511 139.008926 
968.84845 87.00219 
1017.437866 75.736115 
1018.808594 100.003204 
1028.252441 103.485291 
1034.077026 63.125 
1077.706543 100.444771 
1082.90564 76.034485 
1126.349243 90.960526 
1140.09375 143.508926 
1146.432373 73.080132 
1149.646729 78.0625 
1162.586426 67.259613 
1191.00061 65.83696 
1200.056763 61.640152 
1214.463745 76.666664 
1225.016479 46.023937 
1229.911011 48.066666 
1282.447632 65.05896 
1306.769897 65.019234 
1318.458008 89.565216 
1332.890381 98.344513 
1361.043579 79.708336 
1368.580566 140.064468 
1382.918701 68.06649 
1403.912109 41.041668 
1418.914062 94.716835 
1440.34314 39.112499 
1454.802124 108.490387 
1454.897827 43.013889 
1495.701538 83.570656 
1508.214722 199.236771 
1516.488647 70.96196 
1519.913574 93.889282 
1524.770142 68.273651 
1552.491943 50.445 
1558.0354 73.938828 
1572.086304 41.81818 
1585.201904 45.5 
1616.077881 73.125 
1622.407227 64.017311 
1642.626221 74.839996 
1664.819458 41.083332 
1668.339722 126.323273 
1674.251099 76.118423 
1694.300781 40.367645 
1696.869141 30.225 
END IONS

BEGIN IONS
RTINSECONDS=416.781006
CHARGE=1-
MSLEVEL=2
PRECURSORINTENSITY=3188680.250000
SMILES=CCCCCCCCCC[C@H]1C[C@H]([C@@H](C(=O)O1)C)C(=O)O
INCHI=InChI=1S/C17H30O4/c1-3-4-5-6-7-8-9-10-11-14-12-15(16(18)19)13(2)17(20)21-14/h13-15H,3-12H2,1-2H3,(H,18,19)/t13-,14-,15+/m0/s1
INCHIKEY=SRMPRRDLILJEAW-SOUVJXGZSA-N
CLASS=Acids
ADDUCT=[M-H]-
INSTRUMENT=Agilent Q-ToF 6530
PRECURSOR_MZ=297.1988
COMPOUND_NAME=Acaranoic acid
ION_MODE=negative
FORMULA=C17H30O4
100.980034 147.428574 
103.885544 143.96196 
112.040733 140.455643 
113.03643 775.644836 
114.076729 278.28125 
167.144531 544.191162 
169.157883 3901.687744 
170.208527 359.578308 
183.203918 658.052063 
235.201904 886.126648 
253.221649 641932.0 
254.216507 130901.460938 
255.224121 2472.177002 
367.633362 159.71698 
371.949249 88.714287 
384.771179 51.065788 
393.324402 84.803574 
423.314758 33.115742 
442.558838 81.138512 
452.414581 39.778225 
454.951965 41.367424 
497.066742 41.728447 
505.186554 84.041664 
506.929199 52.799999 
509.435974 43.761906 
515.319031 102.635201 
578.881409 22.13587 
582.082031 22.28409 
603.468506 30.222826 
638.364441 208.890625 
644.688049 113.675674 
651.028198 42.458332 
693.509521 35.013889 
709.822754 37.78125 
717.080627 31.208334 
731.224487 94.015411 
736.366455 46.173077 
758.035522 39.020832 
784.942017 40.009617 
799.884583 30.339285 
802.650696 30.674999 
831.123535 112.152435 
866.015686 52.805 
869.973633 43.125 
875.10907 48.09375 
883.184326 39.942307 
889.241882 38.889706 
891.951904 55.284092 
925.813293 31.5 
949.86908 30.0 
956.895264 35.066177 
967.66272 54.721153 
978.931824 36.025002 
1003.17334 62.925926 
1017.89325 35.099998 
1017.982483 29.654411 
1044.284058 39.454544 
1070.959106 34.266666 
1076.330322 35.173077 
1119.892944 39.5 
1144.334473 116.787163 
1144.418945 39.0625 
1147.386719 31.004999 
1171.463257 47.075001 
1172.890625 43.0 
1216.286987 39.204544 
1223.031372 34.183823 
1229.677002 38.020832 
1235.69397 34.038792 
1236.332764 65.391129 
1237.109497 23.020834 
1287.306885 31.654411 
1305.561401 85.072678 
1310.160522 61.0 
1360.291382 32.009617 
1364.353271 87.444771 
1367.342529 55.720238 
1368.545532 35.0 
1386.060181 52.115742 
1412.532837 44.529411 
1449.18335 293.600006 
1458.639404 38.059212 
1469.1698 40.367645 
1473.947266 57.011364 
1531.634644 37.052631 
1531.743286 28.242647 
1537.353027 26.692308 
1545.998291 24.78125 
1546.274292 72.358047 
1548.376831 21.125 
1614.490723 20.532894 
1617.493408 18.625 
1621.595215 23.375 
1641.1698 21.163462 
1641.737793 134.899994 
1642.042725 24.041666 
1668.951538 128.428574 
1683.336304 28.75 
1691.733643 28.692308 
1696.704224 34.720238 
1696.905151 24.889706 
END IONS

BEGIN IONS
RTINSECONDS=378.390015
CHARGE=1-
MSLEVEL=2
PRECURSORINTENSITY=2825804.250000
SMILES=Cc1cc(OC)cc2c1c(=O)c1c(c(Cl)c(O)cc1O)o2
INCHI=InChI=1S/C15H11ClO5/c1-6-3-7(20-2)4-10-11(6)14(19)12-8(17)5-9(18)13(16)15(12)21-10/h3-5,17-18H,1-2H3
INCHIKEY=UBUNKICAVVWKMH-UHFFFAOYSA-N
CLASS=Xanthones and bis-Xanthones
ADDUCT=[M-H]-
INSTRUMENT=Agilent Q-ToF 6530
PRECURSOR_MZ=305.0204
COMPOUND_NAME=4-Chloro-6-O-methylnorlichexanthone
ION_MODE=negative
FORMULA=C15H11ClO5
106.042496 19394.527344 
128.97438 47423.320312 
142.041138 22084.263672 
169.027771 11616.520508 
170.036423 70548.0 
198.031525 231810.53125 
199.035172 34862.925781 
262.002716 114761.015625 
384.991516 200.896057 
396.759155 60.32143 
403.545319 61.520832 
419.253571 68.320122 
431.864227 61.190475 
451.423645 95.160004 
471.047577 133.0 
484.965485 194.897964 
515.087219 71.816666 
516.912231 87.160088 
519.156799 97.657784 
555.983093 72.00338 
572.292053 84.120094 
580.475281 57.224998 
590.369995 68.894737 
611.586182 62.734756 
639.605591 47.454544 
642.581665 64.328949 
659.483826 66.090912 
682.566956 156.591873 
700.885742 69.035713 
719.126709 275.603271 
723.799133 104.83696 
742.686951 83.160713 
765.280396 62.967106 
768.477112 82.47406 
796.452148 86.044998 
813.377197 49.347221 
815.860474 56.349491 
825.392334 44.49128 
851.276794 49.115742 
884.448364 93.26667 
894.602783 148.704544 
922.91333 53.375 
927.817566 64.032143 
938.532654 61.476696 
946.210205 53.16346 
966.307678 56.347221 
1003.405212 131.77594 
1013.818542 128.302414 
1034.427612 123.25 
1051.617798 89.801727 
1054.999878 132.231476 
1092.66333 145.148804 
1110.215332 40.778847 
1143.861328 134.074997 
1149.551514 49.08654 
1168.782715 159.656616 
1170.404419 54.0 
1186.300293 50.595589 
1200.213013 82.185608 
1214.611694 87.112503 
1241.341187 68.384613 
1260.750122 52.0 
1285.640625 51.0 
1294.172729 40.482143 
1300.96228 37.200001 
1311.200317 36.148811 
1324.29541 59.25 
1334.333618 49.5 
1378.162354 63.132355 
1385.090698 79.0 
1388.100464 50.044998 
1392.182129 45.680557 
1395.140625 71.199997 
1429.643311 59.025002 
1440.489136 38.5 
1450.301025 95.215515 
1535.695679 52.942307 
1540.71875 82.375 
1540.813965 39.115742 
1569.925171 38.889706 
1595.544434 53.003788 
1604.537231 54.920456 
1643.175415 79.004311 
1655.756348 45.044998 
1675.812622 171.531921 
1683.716797 55.041668 
1690.142456 63.875 
1690.2052 48.32143 
END IONS

BEGIN IONS
RTINSECONDS=395.946014
CHARGE=1-
MSLEVEL=2
PRECURSORINTENSITY=14827.558594
SMILES=Oc1c(OC)cc(CCC([N+](C)(C)C)C(=O)[O-])cc1OC
INCHI=InChI=1S/C15H23NO5/c1-16(2,3)11(15(18)19)7-6-10-8-12(20-4)14(17)13(9-10)21-5/h8-9,11H,6-7H2,1-5H3,(H-,17,18,19)
INCHIKEY=CQAXHXITAVOZSM-UHFFFAOYSA-N
CLASS=N-Containing Compounds
ADDUCT=[M-H]-
INSTRUMENT=Agilent Q-ToF 6530
PRECURSOR_MZ=296.15
COMPOUND_NAME=Solorinin
ION_MODE=negative
FORMULA=C15H23NO5
110.875778 82.215424 
122.934258 87.723213 
138.112473 90.656815 
149.67746 148.921051 
166.881851 172.523804 
175.965775 85.401924 
185.885025 164.714279 
216.646591 101.612503 
264.888245 71.0 
327.116302 93.120094 
331.21637 126.986938 
352.872711 68.409088 
367.205322 67.784088 
377.29715 43.520832 
390.110565 40.25 
410.439484 43.049999 
439.614471 50.066666 
456.791565 58.125 
461.97052 51.083332 
486.351685 89.440216 
487.551208 55.0 
493.982422 85.615387 
537.059937 49.75 
568.111084 40.23077 
568.967041 41.326614 
571.175842 82.141304 
571.559692 29.920454 
571.871704 35.142857 
END IONS

BEGIN IONS
RTINSECONDS=331.946014
CHARGE=1-
MSLEVEL=2
PRECURSORINTENSITY=1693409.375000
SMILES=Clc1c(O)cc(O)c2c1oc1cc(O)cc(C)c1c2=O
INCHI=InChI=1S/C14H9ClO5/c1-5-2-6(16)3-9-10(5)13(19)11-7(17)4-8(18)12(15)14(11)20-9/h2-4,16-18H,1H3
INCHIKEY=BKLLYUDFOSSKSW-UHFFFAOYSA-N
CLASS=Xanthones and bis-Xanthones
ADDUCT=[M-H]-
INSTRUMENT=Agilent Q-ToF 6530
PRECURSOR_MZ=290.9972
COMPOUND_NAME=4-Chloronorlichexanthone
ION_MODE=negative
FORMULA=C14H9ClO5
105.027374 1513.478027 
115.083893 4628.706055 
117.033546 1974.793701 
143.007202 8034.616699 
149.022644 3161.61084 
171.013885 10236.916992 
183.044022 13275.949219 
199.039307 246790.703125 
200.442001 38378.90625 
227.032928 394976.1875 
228.038483 69419.320312 
256.033691 58077.75 
366.955383 94.92308 
381.668854 62.487904 
399.418243 142.014999 
418.986176 68.685974 
444.158051 72.013885 
445.687256 74.226852 
448.818878 71.907257 
470.645874 85.884613 
483.227051 72.183823 
515.273254 140.543671 
537.377808 129.223679 
552.145813 102.333336 
558.569946 116.382935 
578.823914 82.532608 
587.587402 139.333328 
613.345154 108.284485 
641.206055 84.150002 
641.290527 81.481483 
652.910034 135.917252 
708.474976 81.882355 
714.849365 149.070404 
724.297668 84.49128 
728.048889 85.570946 
730.608948 86.556816 
735.34436 129.960114 
778.333984 121.04808 
796.000488 118.89286 
815.474915 68.307693 
819.617737 69.852272 
829.895325 67.471153 
843.321411 84.926285 
853.78064 72.0625 
870.413513 66.26667 
892.784485 107.917557 
911.491577 99.80278 
942.132446 72.421509 
958.826843 91.157051 
973.370728 88.166664 
980.450562 98.007812 
1019.702515 95.023933 
1033.429199 85.08654 
1041.429321 112.51059 
1041.726196 97.875 
1054.151489 83.0 
1094.957764 115.333336 
1102.226685 80.951271 
1114.135986 86.160713 
1154.816284 61.654411 
1173.602783 87.002274 
1176.486938 62.174999 
1188.952759 68.008331 
1192.563232 67.04348 
1210.401245 88.077583 
1255.276001 120.032257 
1267.675659 70.08696 
1270.390869 68.315788 
1288.265015 84.84375 
1290.537476 79.138512 
1322.754639 103.138512 
1338.874634 50.923077 
1339.167358 65.10714 
1391.743164 79.440475 
1408.768799 109.55114 
1421.230347 84.32692 
1440.618164 95.645546 
1449.147949 130.49588 
1459.241333 103.33532 
1480.671753 146.0121 
1510.487061 158.15921 
1540.18811 40.003571 
1542.535645 37.450001 
1563.854126 67.01786 
1570.427979 70.480263 
1570.950073 115.694443 
1591.149048 25.017857 
1638.040283 29.049999 
1654.099243 97.130432 
1662.605713 32.920456 
1670.583008 88.5625 
1677.163086 141.222397 
1694.234985 73.470589 
1695.758179 62.0 
END IONS

BEGIN IONS
RTINSECONDS=371.727997
CHARGE=1-
MSLEVEL=2
PRECURSORINTENSITY=238966.171875
SMILES=Cc1c(c(O)cc(O)c1)C(=O)Oc1cc(OC)c(C(=O)Oc2cc(O)c(C(=O)O)c(C)c2)c(C)c1
INCHI=InChI=1S/C25H22O10/c1-11-5-14(26)8-17(27)21(11)24(31)35-16-7-13(3)22(19(10-16)33-4)25(32)34-15-6-12(2)20(23(29)30)18(28)9-15/h5-10,26-28H,1-4H3,(H,29,30)
INCHIKEY=BXLGBRLDRRZQKR-UHFFFAOYSA-N
CLASS=Depsides (Tridepsides)
ADDUCT=[M-H]-
INSTRUMENT=Agilent Q-ToF 6530
PRECURSOR_MZ=481.1011
COMPOUND_NAME=Ovoic acid
ION_MODE=negative
FORMULA=C25H22O10
105.027809 9709.068359 
123.044601 39817.023438 
149.023651 237684.875 
150.026978 37125.835938 
167.034317 317119.625 
168.03772 56056.132812 
169.039032 6420.984375 
255.074402 849.501892 
256.066406 433.788452 
273.076019 2566.312256 
274.078094 793.630615 
317.065521 3478.276367 
318.068298 1370.224731 
331.080688 550092.375 
332.083679 215759.640625 
333.086517 28051.361328 
333.276306 695.882263 
393.74295 133.0625 
406.607483 113.116379 
437.122162 1894.745972 
438.124878 1142.97522 
549.518799 166.979843 
549.646729 137.248535 
590.369263 93.125 
594.008972 97.346313 
605.80481 90.10714 
606.88501 88.089996 
624.773865 93.321808 
628.979187 136.007812 
657.885925 156.510422 
688.261536 214.934998 
699.005859 126.375 
701.443604 110.47406 
723.211609 108.816666 
750.060364 101.33532 
752.250122 120.002357 
771.28656 112.372192 
773.729431 97.408333 
798.47113 131.708328 
800.199097 112.019737 
832.884033 135.263153 
832.934509 106.449471 
855.576355 105.077583 
858.567444 114.001923 
866.714722 155.449997 
906.93689 110.120766 
935.594238 108.722221 
966.571472 95.686401 
974.53656 156.152435 
975.474915 113.408897 
981.870361 102.105263 
1014.758972 110.333336 
1021.267334 165.979843 
1032.834717 90.061272 
1072.847656 84.960106 
1076.740967 92.097221 
1104.831787 82.25 
1117.905273 126.112068 
1124.567261 72.135872 
1128.27478 69.012497 
1134.637329 73.769234 
1167.194824 90.036018 
1192.089966 84.166664 
1211.353394 109.440475 
1214.1604 107.00338 
1219.657227 88.778572 
1231.054565 158.153488 
1247.251709 145.160095 
1264.526978 96.402779 
1285.333618 80.680557 
1291.745239 95.26667 
1333.676636 134.054871 
1341.990479 118.256409 
1348.73645 75.263161 
1351.547607 84.099998 
1394.416016 92.058823 
1419.300659 90.587265 
1432.568359 82.814514 
1447.060425 183.006256 
1455.181641 119.043106 
1457.879395 149.236771 
1495.148438 114.41021 
1501.361328 105.49324 
1504.948853 71.001923 
1546.082764 70.5 
1549.918335 95.822762 
1569.612671 128.254517 
1594.560547 76.778229 
1611.933472 85.510414 
1615.050781 74.58036 
1622.221802 150.040329 
1670.376953 119.0 
1679.875488 66.671295 
1687.702881 71.685974 
1691.672729 113.603912 
END IONS

BEGIN IONS
RTINSECONDS=428.187988
CHARGE=1-
MSLEVEL=2
PRECURSORINTENSITY=162142.796875
SMILES=Cc1cc(c(c(c1C(=O)Oc1c(c(c(c(c1)C)C(=O)OC)O)C)O)C=O)O
INCHI=InChI=1S/C19H18O8/c1-8-5-12(21)11(7-20)17(23)15(8)19(25)27-13-6-9(2)14(18(24)26-4)16(22)10(13)3/h5-7,21-23H,1-4H3
INCHIKEY=YLOYKYXNDHOHHT-UHFFFAOYSA-N
CLASS=Depsides (Didepsides)
ADDUCT=[M-H]-
INSTRUMENT=Agilent Q-ToF 6530
PRECURSOR_MZ=373.094
COMPOUND_NAME=Atranorin
ION_MODE=negative
FORMULA=C19H18O8
105.168831 6453.557129 
107.013863 1131.116211 
109.082474 594.560669 
119.050476 12991.269531 
120.284958 2018.85437 
133.489105 13075.128906 
163.039856 34340.695312 
177.018738 275304.5 
178.521759 32503.960938 
195.065567 40045.042969 
196.071152 5236.851562 
247.779434 255.628448 
252.627075 84.573982 
296.95813 101.447365 
297.079071 98.586037 
341.067261 716.795837 
438.685059 96.560188 
439.061798 76.06649 
462.167603 103.594391 
489.082916 82.692307 
500.850159 103.693962 
505.841522 70.765625 
528.307983 67.603569 
532.904419 71.107758 
571.897034 68.145409 
590.073364 71.489998 
590.848877 70.802635 
613.495483 111.210526 
615.304626 65.333336 
638.615723 56.00658 
689.11853 43.408783 
695.393677 105.756248 
705.104858 44.367645 
705.914551 67.023933 
712.423218 51.084461 
741.778625 54.125 
785.238281 46.048912 
789.699768 47.612499 
799.496155 74.273651 
804.781494 65.449997 
818.18927 68.289284 
835.906067 53.720238 
855.567993 113.001984 
870.52063 114.840279 
886.428589 81.333336 
910.075928 61.520832 
920.831726 54.490383 
925.723999 51.028847 
979.273743 58.142857 
980.393066 109.820312 
988.910645 110.493851 
1013.069519 59.728447 
1015.859192 76.911293 
1037.513428 65.0 
1050.296875 62.197582 
1064.143677 61.272728 
1085.057983 52.003571 
1098.258423 138.905487 
1100.604736 62.599998 
1141.408325 77.882355 
1156.109863 51.333332 
1159.177002 114.385635 
1159.388428 56.08654 
1172.763794 40.280174 
1194.03833 56.246952 
1223.793823 67.555855 
1242.340942 153.0 
1278.905518 94.128166 
1279.304565 70.136108 
1284.937012 97.695312 
1310.118164 82.391129 
1315.859619 92.781776 
1349.71814 63.185608 
1351.728149 98.047623 
1369.353149 69.469444 
1386.733521 59.892857 
1416.99707 141.081665 
1421.460327 40.017857 
1463.838745 46.521553 
1473.496338 48.529411 
1488.469971 118.816864 
1490.954346 138.72728 
1492.874878 72.91848 
1515.731079 48.640152 
1530.754883 51.173077 
1540.307129 76.493423 
1587.064209 43.796051 
1590.046753 51.765625 
1607.779541 93.903687 
1633.350342 130.130325 
1638.847168 85.132355 
1677.443481 35.020832 
1684.303711 44.333332 
1684.540527 45.875 
END IONS

BEGIN IONS
RTINSECONDS=371.428986
CHARGE=1-
MSLEVEL=2
PRECURSORINTENSITY=4320549.000000
SMILES=Oc1cc(OC)cc(CCCCC)c1C(=O)O
INCHI=InChI=1S/C13H18O4/c1-3-4-5-6-9-7-10(17-2)8-11(14)12(9)13(15)16/h7-8,14H,3-6H2,1-2H3,(H,15,16)
INCHIKEY=JWSADSZPLGCVPA-UHFFFAOYSA-N
CLASS=Cleavage Products of Depsides and Depsidones
ADDUCT=[M-H]-
INSTRUMENT=Agilent Q-ToF 6530
PRECURSOR_MZ=237.1089
COMPOUND_NAME=4-O-methylolivetolcarboxylic acid
ION_MODE=negative
FORMULA=C13H18O4
122.036652 2720042.0 
122.134758 160815.9375 
123.04023 249830.859375 
135.032837 368534.03125 
136.051163 144179.703125 
149.059769 222626.53125 
178.097824 87756.578125 
193.121902 510310.03125 
194.126129 76033.539062 
307.215363 96.285713 
336.535461 70.002548 
345.298889 65.211205 
346.851929 87.907257 
356.113678 41.075001 
403.743744 111.258064 
409.09314 89.736115 
419.764618 70.349136 
443.457336 84.695656 
463.170532 70.727272 
500.976837 121.007812 
501.176636 104.125 
512.160278 83.669441 
515.272888 76.34259 
530.652222 68.01786 
532.43512 71.112503 
568.888306 45.852272 
580.9245 88.440475 
601.918091 68.625 
632.852966 45.204544 
641.838623 76.03846 
647.601257 73.959999 
713.135193 69.473686 
716.527893 75.526642 
717.132446 81.219597 
717.610535 121.669121 
735.707947 68.208336 
793.416138 133.758621 
815.93634 84.599998 
822.850464 68.800003 
844.32019 45.224998 
848.556335 42.785713 
866.949646 72.190475 
878.07019 68.150002 
909.976685 23.0 
918.770386 79.161293 
938.118591 102.168922 
965.958313 39.454544 
966.087097 22.163462 
983.986938 77.333336 
995.531006 78.670456 
1020.562317 54.816666 
1049.000977 93.360077 
1053.664673 75.571426 
1054.947754 70.260414 
1109.845825 81.384613 
1119.816284 17.035715 
1148.311035 31.006578 
1148.624268 19.004999 
1181.914551 23.240385 
1187.113281 21.892857 
1199.353271 18.0 
1201.797119 80.491379 
1243.502686 87.75 
1260.45874 18.03125 
1265.687988 36.599998 
1275.703003 23.125 
1282.463379 26.363636 
1318.303589 31.009615 
1318.551147 34.111111 
1328.797974 33.78125 
1344.404053 76.840118 
1361.966064 73.259613 
1382.736328 42.00658 
1404.527222 21.164474 
1419.010498 96.681602 
1421.097534 75.800003 
1445.779419 20.25 
1448.005493 17.011364 
1487.805908 19.006578 
1501.385986 23.020834 
1517.633301 19.071428 
1520.981201 35.041668 
1542.475708 31.05921 
1555.725342 35.450001 
1579.772461 97.185608 
1582.863525 100.015625 
1594.560059 40.008335 
1595.728149 89.003784 
1634.214966 76.662231 
1650.518188 76.578949 
1670.952271 26.0 
1673.914185 108.003571 
1679.130981 24.0 
1693.971436 21.0 
END IONS

BEGIN IONS
RTINSECONDS=403.411011
CHARGE=1-
MSLEVEL=2
PRECURSORINTENSITY=1324491.125000
SMILES=CC(=O)CCCCCCCCCCCCC[C@H]1[C@H](C(C)C(=O)O1)C(=O)O
INCHI=InChI=1S/C21H36O5/c1-16(22)14-12-10-8-6-4-3-5-7-9-11-13-15-18-19(20(23)24)17(2)21(25)26-18/h17-19H,3-15H2,1-2H3,(H,23,24)/t17?,18-,19-/m0/s1
INCHIKEY=SPGPUDJMXMJNCU-MNNMKWMVSA-N
CLASS=Paraconic acids
ADDUCT=[M-H]-
INSTRUMENT=Agilent Q-ToF 6530
PRECURSOR_MZ=367.2396
COMPOUND_NAME=Dihydropertusaric
ION_MODE=negative
FORMULA=C21H36O5
113.023964 49146.097656 
113.118134 1341.23999 
113.616348 156.054138 
114.027847 3358.457764 
114.98719 156.895172 
155.165054 259.80542 
169.156387 237.09407 
170.160919 116.264709 
171.213684 176.885864 
175.483322 129.072052 
263.238251 2322.705322 
264.183075 797.368042 
279.267761 124437.382812 
280.270844 34859.804688 
323.260803 199331.921875 
324.259979 55220.023438 
425.441986 109.10714 
439.303497 87.508926 
441.739197 123.432693 
460.046814 90.960106 
493.027161 105.012497 
521.289734 108.444618 
540.391296 112.41346 
543.420044 83.778229 
553.19458 78.690002 
594.674377 77.890625 
609.528198 108.061272 
629.147827 118.173615 
647.170715 122.083336 
670.918823 99.387817 
674.417786 103.686401 
678.195251 143.81636 
711.658386 146.152435 
725.150635 110.598686 
755.887024 140.899994 
756.847961 109.917252 
789.581726 122.097603 
810.060364 143.017303 
844.537598 125.666664 
845.82605 151.257812 
864.649597 86.125 
886.751282 198.107269 
918.549072 78.019066 
940.356018 67.289284 
948.428467 78.05896 
952.427246 105.136192 
985.853882 140.375 
1006.351379 73.007141 
1015.538452 84.290001 
1035.161743 75.094696 
1035.310547 123.609756 
1039.096191 79.840118 
1056.768677 65.080132 
1080.34082 64.153847 
1101.323364 61.041668 
1130.590088 198.081894 
1132.509277 97.010872 
1160.195679 65.165543 
1194.999146 112.01667 
1208.49939 101.603569 
1213.776855 85.16346 
1220.237793 75.094696 
1242.822266 82.537788 
1264.203125 145.530884 
1275.806519 116.160088 
1309.168335 81.166664 
1329.333374 70.045288 
1331.294434 71.485291 
1336.794434 194.576538 
1359.370605 108.033333 
1379.863647 75.119186 
1410.443237 51.852272 
1418.01416 65.13636 
1435.296387 97.01136 
1464.925903 63.059212 
1479.943237 93.202271 
1490.200195 77.444443 
1509.613525 71.140625 
1529.252686 59.67857 
1537.122559 88.416664 
1578.988647 93.08696 
1604.9552 42.160713 
1616.105347 84.008331 
1620.969238 97.219597 
1624.069092 39.625 
1633.51709 39.796051 
1678.974243 39.969826 
1686.612793 51.06649 
1694.716553 86.939392 
1696.721924 37.125 
END IONS

BEGIN IONS
RTINSECONDS=491.684998
CHARGE=1-
MSLEVEL=2
PRECURSORINTENSITY=1599906.500000
SMILES=CCCCCCCCCCCCCC(=O)CC(C(=O)O)C
INCHI=InChI=1S/C18H34O3/c1-3-4-5-6-7-8-9-10-11-12-13-14-17(19)15-16(2)18(20)21/h16H,3-15H2,1-2H3,(H,20,21)
INCHIKEY=FYKXUGIGKHKTDH-UHFFFAOYSA-N
CLASS=Acids
ADDUCT=[M-H]-
INSTRUMENT=Agilent Q-ToF 6530
PRECURSOR_MZ=297.2413
COMPOUND_NAME=Lichesterylic acid
ION_MODE=negative
FORMULA=C18H34O3
110.059502 76.224998 
111.042023 455.917572 
116.925911 78.118423 
124.09124 112.375 
160.871628 160.688889 
211.205109 1529.393188 
253.252319 33320.410156 
254.255905 8434.867188 
279.234589 37762.582031 
280.235687 11643.739258 
368.235138 76.571426 
371.10199 49.100807 
383.366638 46.25 
383.42041 61.455647 
427.370972 124.310349 
442.415161 128.0 
445.904541 121.678764 
471.521637 59.020832 
471.82666 36.445 
504.445282 30.008333 
514.203125 34.066666 
519.406006 37.08654 
546.958862 51.005951 
556.64563 51.337963 
583.678528 49.125 
590.487976 46.720238 
591.350891 53.469444 
636.684509 78.041664 
662.835449 66.6875 
662.904419 31.005953 
675.412781 130.664154 
697.061523 162.116379 
724.014954 48.016666 
748.920288 51.840115 
753.25592 128.081665 
767.624084 113.014244 
799.578979 49.020832 
802.584167 48.014706 
831.220337 45.08654 
836.144897 38.01923 
840.372986 43.004631 
868.18396 65.489868 
916.188843 44.165321 
917.215576 55.06649 
933.016418 178.25 
946.61554 65.680557 
949.829407 154.809998 
978.455811 124.90741 
993.050964 133.619385 
1000.118225 41.44643 
1000.926758 48.889706 
1029.047607 56.440216 
1059.960815 68.271736 
1070.461304 33.1875 
1114.457886 26.4 
1124.183105 31.5625 
1129.272339 200.410263 
1139.125 51.810001 
1179.022217 77.33532 
1184.688354 41.0 
1187.46814 60.190475 
1230.45105 46.142857 
1237.361572 66.058823 
1241.938721 33.0 
1255.023682 60.036289 
1261.462036 32.778847 
1305.988647 64.34375 
1312.334229 28.183823 
1342.723267 139.11911 
1353.919434 113.001984 
1355.245117 51.39674 
1383.222534 138.972977 
1400.127197 41.30682 
1429.361328 43.408333 
1437.981323 45.160713 
1447.675659 40.326923 
1454.928955 21.008333 
1473.97583 24.285715 
1506.476685 22.285715 
1515.814575 69.003052 
1528.887817 16.125 
1541.878296 29.78125 
1548.039673 146.760056 
1554.125854 25.048914 
1642.786499 46.102272 
1652.090454 30.242647 
1652.238281 27.339285 
1655.688965 35.100807 
1660.985596 39.557693 
1689.671631 57.728447 
END IONS

BEGIN IONS
RTINSECONDS=270.519989
CHARGE=1-
MSLEVEL=2
PRECURSORINTENSITY=5140306.500000
SMILES=Cc1c(c(c2c(c1)C(=O)c1cc(cc(c1C2=O)O)O)O)C(=O)O
INCHI=InChI=1S/C16H10O7/c1-5-2-7-12(14(20)10(5)16(22)23)15(21)11-8(13(7)19)3-6(17)4-9(11)18/h2-4,17-18,20H,1H3,(H,22,23)
INCHIKEY=UZOHDKGTYVTYDZ-UHFFFAOYSA-N
CLASS=Quinones
ADDUCT=[M-H]-
INSTRUMENT=Agilent Q-ToF 6530
PRECURSOR_MZ=313.0333
COMPOUND_NAME=Endocrocin
ION_MODE=negative
FORMULA=C16H10O7
105.034409 55992.941406 
181.065399 233468.640625 
182.044952 298655.9375 
197.06073 361774.1875 
225.055923 1252999.625 
241.050598 499061.84375 
269.045685 3412300.25 
270.048859 689324.5625 
369.102295 160.059204 
415.635895 163.801727 
427.684052 150.470749 
429.664886 134.756256 
454.287537 148.629761 
466.244507 159.905487 
481.884125 144.889084 
506.012512 118.958336 
520.373657 110.333336 
523.902405 117.002907 
535.970703 137.556244 
573.953125 132.142853 
605.846863 106.400002 
612.649719 151.1875 
624.04541 104.084457 
642.062195 156.507812 
669.268372 126.0 
672.170776 142.102844 
678.185242 112.972824 
687.64801 154.111267 
706.76123 186.56395 
746.944092 134.77594 
760.572083 125.716835 
783.093506 124.06649 
791.307556 112.521736 
795.479065 112.884804 
847.615906 247.273483 
888.129639 165.065216 
911.526978 114.640152 
916.58313 139.0 
971.397034 168.066666 
1037.432983 107.340912 
1037.97998 110.556816 
1045.417847 110.13636 
1069.489014 150.34375 
1085.931885 112.551468 
1088.988281 113.440002 
1121.706421 113.78125 
1133.08667 118.882462 
1161.465576 154.016663 
1175.642212 113.001808 
1232.361206 110.210526 
1420.919678 150.580612 
1482.870972 131.256363 
1508.664429 134.530655 
1549.379639 171.098831 
1551.509644 115.395164 
1647.662476 145.451538 
1650.336914 162.456894 
1668.998291 108.625 
END IONS

BEGIN IONS
RTINSECONDS=380.868988
CHARGE=1-
MSLEVEL=2
PRECURSORINTENSITY=186149.640625
SMILES=CC(=O)OC(CC1CC(C(C)C(O)C(C)C(=O)OC(CC(C(C(C(C(=O)O1)C)O)C)OC(=O)C)CC(OC(=O)C)C)OC(=O)C)C
INCHI=InChI=1S/C32H52O14/c1-15(41-21(7)33)11-25-13-27(43-23(9)35)17(3)29(37)20(6)32(40)46-26(12-16(2)42-22(8)34)14-28(44-24(10)36)18(4)30(38)19(5)31(39)45-25/h15-20,25-30,37-38H,11-14H2,1-10H3
INCHIKEY=CRDXHRLAQBVBTF-UHFFFAOYSA-N
CLASS=Aliphatic and Cycloaliphatic Compounds
ADDUCT=[M-H+HCOOH]-
INSTRUMENT=Agilent Q-ToF 6530
PRECURSOR_MZ=705.3264
COMPOUND_NAME=Lepranthin
ION_MODE=negative
FORMULA=C32H52O14
106.646545 104.740944 
112.983994 154.272202 
113.11467 136.013885 
115.013252 281.253021 
125.055321 111.844299 
139.168503 183.430847 
191.109253 167.060806 
209.208405 338.228455 
210.102432 316.17453 
213.112274 504.877289 
269.138336 4753.152832 
270.141357 2956.108643 
271.252991 422.728577 
273.102386 2995.707031 
274.139832 1683.537476 
325.135559 1214.909058 
326.178589 1499.891479 
329.196167 2332.161377 
330.165771 2075.93457 
343.179474 1764.701538 
344.187622 1784.892822 
403.1828 3962.622559 
404.201569 5146.274414 
405.212708 722.049866 
503.248474 77.476692 
504.247894 80.431122 
539.289062 233.657608 
540.285034 982.53064 
540.408875 95.5625 
541.285095 240.025635 
582.301758 378.225006 
599.340698 2049.426514 
600.309448 12141.203125 
600.538025 306.375 
601.296509 3051.293945 
602.318298 528.115723 
659.315308 1497.248657 
660.334717 15073.248047 
661.345886 3986.040283 
662.33252 773.031006 
761.555298 66.925926 
762.500244 48.083332 
763.499939 60.027439 
786.068542 34.148811 
813.525269 31.53125 
847.23761 31.666666 
848.083923 43.889286 
853.633911 46.140625 
903.537048 74.01786 
919.85614 52.01923 
921.097961 77.0 
945.072449 63.564026 
960.289612 87.265625 
977.215515 56.34375 
980.7229 132.556244 
1004.864685 48.010418 
1013.220764 38.842106 
1074.744263 50.960526 
1075.090332 45.197582 
1099.474243 95.034485 
1127.063843 52.185608 
1130.02356 45.779411 
1175.647461 51.291668 
1183.542114 54.56818 
1207.307617 41.066666 
1212.541748 89.055557 
1248.830811 96.787041 
1257.443848 53.337963 
1257.87085 58.39674 
1259.833374 75.256355 
1270.628662 71.449074 
1276.775513 46.150002 
1342.143188 80.875 
1344.659302 44.289288 
1354.907959 45.140625 
1367.537842 45.049999 
1378.792725 64.639999 
1392.627686 59.075001 
1405.72998 42.48077 
1430.782104 131.287338 
1459.376099 40.326923 
1461.060425 111.029411 
1481.119263 43.778847 
1488.998169 89.089287 
1489.621704 55.285713 
1503.903564 37.674999 
1519.04895 36.041668 
1547.17749 23.03125 
1564.25708 72.136108 
1614.444946 93.920456 
1614.547852 56.183823 
1617.262695 67.346153 
1632.164917 220.556824 
1642.045166 74.768616 
1647.478027 65.722221 
1677.285645 110.53186 
END IONS

BEGIN IONS
RTINSECONDS=448.859985
CHARGE=1-
MSLEVEL=2
PRECURSORINTENSITY=3821140.500000
SMILES=Oc1c(C(=O)O)c(CCC)cc(OC(=O)c2c(O)cc(OC)c(Cl)c2CCC)c1
INCHI=InChI=1S/C21H23ClO7/c1-4-6-11-8-12(9-14(23)17(11)20(25)26)29-21(27)18-13(7-5-2)19(22)16(28-3)10-15(18)24/h8-10,23-24H,4-7H2,1-3H3,(H,25,26)
INCHIKEY=OPCWRYYYOJWUDI-UHFFFAOYSA-N
CLASS=Depsides (Didepsides)
ADDUCT=[M-H]-
INSTRUMENT=Agilent Q-ToF 6530
PRECURSOR_MZ=421.1005
COMPOUND_NAME=5-chlorodivaricatic acid
ION_MODE=negative
FORMULA=C21H23ClO7
107.073868 99666.65625 
109.065254 118188.320312 
133.065445 381890.84375 
151.076141 920866.75 
177.055435 1331038.125 
178.058701 174424.421875 
195.066193 1038733.0625 
196.069183 131065.15625 
243.042007 9870.007812 
253.087433 5283.294922 
254.093918 8698.761719 
317.09436 28354.152344 
318.100739 12474.361328 
319.097382 12170.936523 
333.125488 23797.621094 
335.12265 9007.045898 
377.114166 12509.723633 
486.981842 157.011841 
490.161469 126.58036 
503.959686 121.852615 
527.205994 142.694443 
540.612244 111.0625 
544.521179 124.939392 
545.07196 109.245689 
563.883972 186.894913 
584.648926 108.083336 
635.994629 149.315216 
639.70752 118.0625 
653.364319 115.280304 
657.763 173.330887 
662.006775 141.326538 
728.622437 146.122665 
742.046936 91.036018 
747.377686 139.222977 
752.123413 145.980774 
796.327637 142.757568 
796.571838 109.125 
802.717224 180.004471 
809.877747 150.520569 
815.772339 98.816666 
852.087158 92.637192 
855.455994 94.960526 
871.800232 83.45153 
875.930176 120.086266 
920.618042 140.070206 
930.569336 153.009995 
950.279358 141.686646 
951.646729 133.314285 
955.979126 136.391312 
958.581116 152.223221 
984.032532 129.160721 
986.357422 109.001709 
1005.118896 94.346313 
1074.912109 214.877548 
1077.981079 84.315216 
1094.317627 108.330879 
1117.878052 101.309067 
1126.418945 113.323273 
1128.349609 77.026161 
1185.334351 84.408333 
1199.394043 76.78125 
1200.037354 69.458336 
1241.906982 75.880432 
1277.527344 63.368904 
1304.358521 127.272728 
1359.685913 71.019234 
1361.699097 93.136192 
1373.534546 134.686401 
1397.884033 83.080879 
1403.658691 84.321808 
1406.628784 85.662231 
1426.075928 75.764832 
1445.432007 75.578575 
1446.13269 77.125 
1499.342285 69.779411 
1512.745117 77.875 
1517.008911 81.470741 
1522.188477 100.0 
1524.076538 99.347221 
1587.451416 79.0 
1596.865112 90.015846 
1616.165771 64.532608 
1646.230957 82.022057 
END IONS

BEGIN IONS
RTINSECONDS=392.427002
CHARGE=1-
MSLEVEL=2
PRECURSORINTENSITY=4921535.000000
SMILES=CCCCCc1cc(cc(c1C(=O)Oc1c(cc(c(c1O)C(=O)O)CCCCC)O)OC)O
INCHI=InChI=1S/C25H32O8/c1-4-6-8-10-15-12-17(26)14-19(32-3)20(15)25(31)33-23-18(27)13-16(11-9-7-5-2)21(22(23)28)24(29)30/h12-14,26-28H,4-11H2,1-3H3,(H,29,30)
INCHIKEY=LPYVRTMCNJPGMF-UHFFFAOYSA-N
CLASS=Depsides (Didepsides)
ADDUCT=[M-H]-
INSTRUMENT=Agilent Q-ToF 6530
PRECURSOR_MZ=459.1967
COMPOUND_NAME=Cryptochlorophaeic acid
ION_MODE=negative
FORMULA=C25H32O8
107.068291 10903.490234 
121.069298 15261.981445 
138.031021 153035.390625 
139.073563 17562.220703 
177.091171 114788.820312 
195.101624 341575.625 
221.081558 902460.25 
222.084442 197011.921875 
239.09201 3553053.5 
239.228683 232787.09375 
240.095322 794335.8125 
294.756897 110.003204 
301.574005 147.889145 
335.762573 101.653847 
337.084564 97.008926 
365.414581 138.883469 
390.793182 115.029411 
397.525879 76.008926 
525.360413 90.625 
528.668884 92.007355 
560.120178 173.346268 
564.779236 160.680038 
576.406433 117.565216 
592.083252 121.558823 
614.395325 83.474998 
617.296204 103.129036 
650.708252 119.635201 
665.640198 68.17308 
686.128418 61.408783 
692.369751 96.006577 
695.421631 51.390625 
754.864319 70.160713 
770.577087 93.036293 
774.829895 71.195312 
776.572754 188.917175 
803.145142 88.041664 
863.427734 97.336113 
868.080688 78.960106 
883.498474 95.285713 
891.478149 113.291664 
892.212891 102.371216 
903.192383 100.461067 
924.477417 81.964287 
939.236389 91.125 
983.136963 60.136112 
987.805176 53.0 
988.974121 61.273647 
991.496216 44.076923 
1015.975769 61.570652 
1044.723877 44.388889 
1074.294312 54.0 
1075.580444 106.889153 
1077.903809 104.310349 
1093.901245 93.173782 
1107.086426 63.061275 
1135.463135 63.961956 
1137.841431 136.420456 
1153.943115 61.125 
1192.11853 38.004631 
1213.276733 52.625 
1217.990967 56.529411 
1251.347412 92.939651 
1257.343018 135.440414 
1263.827148 163.406647 
1289.948853 112.010872 
1293.478516 121.160255 
1314.69812 104.289284 
1315.316528 87.654411 
1345.330444 95.889999 
1346.856079 70.890625 
1366.255249 50.24662 
1368.596802 96.387817 
1385.678101 65.414215 
1424.330566 52.68145 
1429.856567 55.929878 
1431.295898 77.066666 
1447.12146 60.1875 
1462.252686 63.398586 
1483.693604 140.285446 
1487.73938 63.136112 
1493.217896 93.01667 
1518.738892 62.402779 
1523.417603 71.669121 
1565.028076 83.160713 
1580.71521 64.245689 
1587.849121 149.089279 
1594.548828 61.263157 
1626.498047 213.668655 
1633.526611 56.75 
1666.862427 81.157051 
1676.822998 127.0625 
1685.372437 58.047619 
1690.142334 65.157051 
1695.427856 50.657608 
END IONS

BEGIN IONS
RTINSECONDS=441.86499
CHARGE=1-
MSLEVEL=2
PRECURSORINTENSITY=6095247.500000
SMILES=O=C1c2c(CCCCC)cc(OC)c(O)c2Oc2c(O1)cc(c(c2CCCCC)C(=O)O)O
INCHI=InChI=1S/C25H30O8/c1-4-6-8-10-14-12-17(31-3)21(27)23-19(14)25(30)32-18-13-16(26)20(24(28)29)15(22(18)33-23)11-9-7-5-2/h12-13,26-27H,4-11H2,1-3H3,(H,28,29)
INCHIKEY=VZPSCITXDMDLDC-UHFFFAOYSA-N
CLASS=Depsidones
ADDUCT=[M-H]-
INSTRUMENT=Agilent Q-ToF 6530
PRECURSOR_MZ=457.1817
COMPOUND_NAME=3-Hydroxycolensoic acid
ION_MODE=negative
FORMULA=C25H30O8
122.03643 7509.227051 
133.070679 41034.40625 
179.106873 193065.484375 
180.109756 37866.167969 
205.086258 66993.398438 
207.101501 41660.390625 
221.080597 31948.517578 
222.086319 18074.066406 
297.112061 138184.546875 
298.117035 81499.421875 
311.127197 145330.4375 
327.086487 210662.90625 
342.108124 367369.8125 
354.181732 916601.0625 
355.18457 405013.8125 
369.198273 403730.71875 
413.191895 336182.15625 
521.349792 161.8125 
526.101685 156.600006 
531.012817 115.131493 
559.519226 112.247948 
567.024109 165.757568 
571.631104 155.052322 
619.763672 146.023804 
623.927979 147.606659 
638.036377 141.25 
655.892395 138.074997 
659.402283 139.666672 
682.758606 142.986938 
695.835876 135.406525 
699.697083 125.198769 
779.28363 122.817566 
794.404114 102.633774 
802.486267 116.33654 
823.3927 135.160263 
829.735901 107.510414 
844.074402 136.098831 
869.943176 133.892853 
886.300293 169.680084 
969.634583 116.889709 
974.323547 107.16346 
1005.170959 129.034485 
1067.883179 238.0 
1098.724243 174.205002 
1116.369995 111.445312 
1120.595215 109.678574 
1157.471558 212.044998 
1183.123291 111.015625 
1210.840088 106.01461 
1217.477905 102.644997 
1224.321411 158.801727 
1269.600342 120.632812 
1361.952637 112.837685 
1381.133301 133.189194 
1395.713135 116.444672 
1424.825684 113.209999 
1556.815674 114.360077 
1558.237549 107.325706 
1561.635742 110.778572 
1571.350586 108.25 
1601.390869 119.470589 
1660.341919 105.5 
1676.418213 111.875 
END IONS

BEGIN IONS
RTINSECONDS=315.162994
CHARGE=1-
MSLEVEL=2
PRECURSORINTENSITY=356940.718750
SMILES=O=C(O)c1c(CCC)cc(OC)cc1O
INCHI=InChI=1S/C11H14O4/c1-3-4-7-5-8(15-2)6-9(12)10(7)11(13)14/h5-6,12H,3-4H2,1-2H3,(H,13,14)
INCHIKEY=INFZQUVBGYTJCV-UHFFFAOYSA-N
CLASS=Cleavage Products of Depsides and Depsidones
ADDUCT=[M-H]-
INSTRUMENT=Agilent Q-ToF 6530
PRECURSOR_MZ=209.0816
COMPOUND_NAME=Divaricatinic acid
ION_MODE=negative
FORMULA=C11H14O4
108.020912 1632.119141 
122.037064 75603.796875 
122.96833 6469.59375 
150.068115 39047.789062 
150.890366 4662.529785 
165.076294 96461.164062 
166.421692 12616.894531 
236.067627 159.368423 
276.916504 100.640152 
289.557556 63.737244 
295.21225 61.232143 
304.760559 72.690002 
329.102448 96.506943 
344.395996 76.264709 
350.756317 61.047619 
361.403625 65.941177 
381.93811 54.470589 
384.233307 124.92308 
438.743652 77.025002 
440.640015 72.889282 
460.232971 75.939514 
482.520172 178.820953 
486.184052 61.185608 
509.1297 72.00338 
560.171021 121.939392 
562.979614 154.129028 
576.339722 55.1875 
602.810974 86.349998 
622.576294 103.592216 
629.669373 95.911362 
634.141479 55.961956 
642.369446 45.57143 
691.045837 108.859695 
703.807556 111.03125 
725.098083 35.30682 
743.314758 47.125 
744.986267 93.716835 
753.33313 49.0 
791.855347 41.322369 
794.77124 49.570946 
801.068604 36.670456 
812.704102 43.080128 
852.173584 46.038792 
860.740173 69.199997 
875.534241 91.042809 
889.769531 82.320122 
906.721375 103.30867 
917.350098 67.440475 
920.17395 83.520836 
940.192566 60.449467 
944.65033 68.941177 
959.021851 44.976353 
971.388611 36.322369 
989.459167 59.680557 
1010.004517 34.25 
1058.363281 56.33654 
1067.933838 49.532894 
1088.272705 118.26535 
1092.097046 47.017857 
1100.011841 77.842102 
1111.46875 42.81818 
1138.442261 50.226852 
1164.787354 41.816666 
1164.967163 95.107452 
1170.104614 54.289288 
1174.380371 68.737244 
1224.042236 32.694443 
1235.668091 29.041666 
1238.225342 39.333332 
1257.919922 70.175003 
1258.777344 50.25 
1289.44873 58.09375 
1318.511719 49.375 
1318.824707 37.117645 
1320.394653 44.05357 
1358.849243 89.322578 
1375.407715 59.644737 
1375.78479 29.25 
1387.371338 62.185608 
1417.224121 41.595589 
1431.589966 52.349136 
1441.962036 48.25 
1476.641846 96.942307 
1477.564941 93.211205 
1482.019165 51.375 
1498.228271 58.0 
1501.240601 86.013885 
1519.609253 55.005951 
1564.870605 73.653984 
1572.112793 74.171608 
1572.240845 28.142857 
1611.968506 75.720589 
1618.6427 37.333332 
1624.861206 39.785713 
1645.386841 54.695515 
1669.70874 134.006577 
1670.994873 36.694443 
1696.451782 31.875 
END IONS

BEGIN IONS
RTINSECONDS=408.173004
CHARGE=1-
MSLEVEL=2
PRECURSORINTENSITY=77527.148438
SMILES=Oc1c2c(oc3c(c(C)cc(OC)c3)c2=O)c(Cl)c(O)c1Cl
INCHI=InChI=1S/C15H10Cl2O5/c1-5-3-6(21-2)4-7-8(5)12(18)9-13(19)10(16)14(20)11(17)15(9)22-7/h3-4,19-20H,1-2H3
INCHIKEY=PCGGYLLGIFFWCT-UHFFFAOYSA-N
CLASS=Xanthones and bis-Xanthones
ADDUCT=[M-H]-
INSTRUMENT=Agilent Q-ToF 6530
PRECURSOR_MZ=338.9809
COMPOUND_NAME=Thiophaninic acid
ION_MODE=negative
FORMULA=C15H10Cl2O5
103.983574 122.382935 
106.092987 274.451599 
140.085251 351.413361 
162.935104 1449.064087 
168.016907 650.125 
203.996368 3719.274902 
231.992233 5884.63916 
233.010529 817.257874 
259.987091 2110.160889 
294.919098 3033.847656 
295.96225 4343.317871 
421.630341 82.578949 
425.867676 74.728447 
433.361938 71.846153 
436.251373 77.625 
443.800446 141.446426 
487.807434 45.204544 
511.839539 40.75 
542.125061 52.080883 
557.915955 75.368904 
562.841675 59.654068 
568.033997 51.875 
572.900085 64.720238 
587.80426 49.280174 
650.99408 41.035713 
651.119141 48.284092 
672.461548 40.185608 
673.817017 43.0 
680.830872 69.416664 
711.225464 39.805 
738.457581 46.625 
792.584595 45.78125 
795.440857 54.003788 
797.508606 46.0 
810.285034 47.224998 
831.745728 106.911362 
846.865112 53.03125 
856.838684 37.515625 
871.324768 47.291668 
878.426453 25.625 
905.292603 24.183823 
951.309326 27.017857 
951.687927 45.027439 
955.862 35.56818 
956.448669 55.172871 
992.0401 43.132355 
1001.593933 132.814819 
1026.603027 60.285713 
1054.265991 134.512497 
1058.526245 88.375 
1058.624268 28.125 
1072.635742 63.779411 
1075.547852 52.599998 
1113.676025 42.693966 
1127.910156 52.242645 
1131.813721 46.020832 
1139.935059 39.32143 
1188.580322 60.669445 
1193.682617 48.680557 
1201.61377 47.840115 
1211.532104 125.125 
1231.784302 51.805 
1232.459595 60.028847 
1271.67688 54.612499 
1278.095825 114.064285 
1297.161499 128.837021 
1297.275146 43.349136 
1308.03064 112.519234 
1317.490479 55.003788 
1349.560059 105.526642 
1374.046387 38.224998 
1392.840332 42.482143 
1407.088867 43.0 
1414.325439 80.034485 
1425.844971 171.53125 
1465.506226 49.223682 
1477.662842 100.694229 
1488.469604 52.458332 
1498.248657 85.26535 
1507.4375 97.595589 
1557.411011 24.446428 
1566.682495 23.375 
1581.346924 35.148811 
1592.700439 30.39674 
1594.792603 21.53125 
1624.627075 27.242647 
1663.359009 36.0 
1680.952148 78.716835 
1681.105469 28.076923 
1688.9646 42.012501 
1691.819824 25.889706 
END IONS

BEGIN IONS
RTINSECONDS=416.759003
CHARGE=1-
MSLEVEL=2
PRECURSORINTENSITY=5128062.500000
SMILES=O=C1c2c(CC(=O)CCCCC)cc(OC)c(O)c2Oc2c(O1)cc(c(c2CCCCC)C(=O)O)O
INCHI=InChI=1S/C27H32O9/c1-4-6-8-10-16(28)12-15-13-19(34-3)23(30)25-21(15)27(33)35-20-14-18(29)22(26(31)32)17(24(20)36-25)11-9-7-5-2/h13-14,29-30H,4-12H2,1-3H3,(H,31,32)
INCHIKEY=YFNNJORBJZUGCV-UHFFFAOYSA-N
CLASS=Depsidones
ADDUCT=[M-H]-
INSTRUMENT=Agilent Q-ToF 6530
PRECURSOR_MZ=499.191
COMPOUND_NAME=Lividic acid
ION_MODE=negative
FORMULA=C27H32O9
122.036736 11346.955078 
135.079697 12623.817383 
136.016251 26302.884766 
137.096283 18288.269531 
150.061401 15788.533203 
179.107483 266917.4375 
180.110931 59407.996094 
241.051178 43432.816406 
249.113174 282560.34375 
250.116165 83934.9375 
275.094055 119856.765625 
297.113434 274087.28125 
298.118744 162401.015625 
327.088806 115568.632812 
341.106628 83734.9375 
342.110474 188408.84375 
353.140259 80001.6875 
396.194763 342881.03125 
397.197784 206086.8125 
411.217072 266710.625 
412.220734 187924.34375 
413.20108 137362.25 
455.223541 185905.96875 
557.490723 233.65625 
571.277588 172.755142 
580.628967 224.976624 
611.504089 165.10228 
659.227051 268.903229 
858.653442 171.441177 
892.177856 166.733917 
1008.467957 191.46312 
1076.816772 170.92453 
1081.383667 164.007355 
1297.983276 204.004715 
1337.727051 185.001343 
1381.665527 190.020004 
1399.350586 222.053574 
1410.33313 166.463715 
1581.426758 157.331421 
END IONS

BEGIN IONS
RTINSECONDS=451.95401
CHARGE=1-
MSLEVEL=2
PRECURSORINTENSITY=58571.914062
SMILES=O=c1c2c(c(Cl)c(OC)c(Cl)c2O)oc2c1c(cc(c2)OC)C
INCHI=InChI=1S/C16H12Cl2O5/c1-6-4-7(21-2)5-8-9(6)13(19)10-14(20)11(17)16(22-3)12(18)15(10)23-8/h4-5,20H,1-3H3
INCHIKEY=ZPLILIOXZHNNLY-UHFFFAOYSA-N
CLASS=Xanthones and bis-Xanthones
ADDUCT=[M-H]-
INSTRUMENT=Agilent Q-ToF 6530
PRECURSOR_MZ=352.99
COMPOUND_NAME="N 2,4-Dichlor-3,6-di-O-methylnorlichexanthone"
ION_MODE=negative
FORMULA=C16H12Cl2O5
107.702606 88.155769 
116.908279 123.694443 
117.195297 61.266304 
121.118301 68.453705 
126.379044 70.004311 
157.925964 137.964279 
170.291229 85.050003 
171.492737 65.138512 
181.463043 60.0 
203.062408 153.006104 
208.643112 93.3629 
271.985565 550.919067 
294.956757 1881.327026 
309.978851 1098.982666 
435.871002 102.168922 
436.8974 63.905487 
438.011963 103.130432 
449.343811 113.686646 
456.782013 106.120094 
471.054443 76.03125 
499.917511 66.003204 
539.188843 35.520832 
542.482239 39.640152 
544.973877 61.625 
549.467102 29.025 
573.116577 39.009617 
611.141846 39.693966 
615.971008 80.0 
618.429199 39.049999 
625.114868 134.0 
629.998901 60.25 
684.160767 73.080132 
692.740784 82.396126 
711.503296 65.28125 
716.584778 76.445 
729.625793 107.816666 
729.731689 75.5 
779.138672 104.360001 
779.277222 32.799999 
791.2146 32.133064 
804.590515 36.680557 
827.19928 53.36842 
834.261719 87.473686 
894.35553 81.391129 
896.314575 165.145355 
905.893494 41.666668 
920.07489 64.16346 
922.886292 73.720589 
962.936462 42.560184 
981.958984 53.920456 
998.925049 52.5 
1019.58429 43.68145 
1019.659363 35.625 
1026.304443 63.030407 
1080.031372 48.205002 
1083.722168 31.321428 
1085.500488 53.075001 
1090.72876 38.764706 
1145.593506 41.408333 
1147.85083 49.100807 
1158.476929 43.135868 
1183.353516 43.560184 
1186.852539 82.635567 
1188.965454 76.0 
1214.245605 53.404999 
1216.81189 67.375 
1246.476196 116.512497 
1256.1698 38.557693 
1283.823975 49.0 
1285.42627 51.5 
1313.613281 28.5 
1330.188232 25.048914 
1348.332397 31.692308 
1384.974609 138.728531 
1385.480469 50.00658 
1394.709229 41.00338 
1406.703247 32.102272 
1430.890137 33.375 
1434.117065 30.961956 
1499.509399 171.130432 
1520.004639 65.75 
1524.945068 51.107758 
1538.188354 36.048912 
1543.378296 36.640625 
1544.441162 47.489864 
1630.072021 62.888889 
1634.800781 63.50893 
1638.518677 58.842106 
1658.770264 44.416668 
1676.465332 70.894737 
1680.114502 98.942307 
END IONS

BEGIN IONS
RTINSECONDS=240.587006
CHARGE=1-
MSLEVEL=2
PRECURSORINTENSITY=4418888.000000
SMILES=O=C(O)c1c(C)c(Cl)c(O)cc1O
INCHI=InChI=1S/C8H7ClO4/c1-3-6(8(12)13)4(10)2-5(11)7(3)9/h2,10-11H,1H3,(H,12,13)
INCHIKEY=GZQRFGTYUAPOOM-UHFFFAOYSA-N
CLASS=Cleavage Products of Depsides and Depsidones
ADDUCT=[M-H]-
INSTRUMENT=Agilent Q-ToF 6530
PRECURSOR_MZ=200.9942
COMPOUND_NAME=5-Chloroorsellinic acid
ION_MODE=negative
FORMULA=C8H7ClO4
121.029114 467801.0 
122.032829 34620.097656 
122.289307 944.345337 
157.01387 1769487.125 
157.912476 154423.9375 
277.847534 174.881668 
280.668915 105.157051 
305.270752 126.041664 
326.938599 91.138512 
348.94986 88.199997 
363.866486 61.015625 
369.813477 75.382812 
386.861145 86.227272 
424.952515 90.926285 
442.107941 174.166672 
443.28775 65.259613 
464.398804 122.371216 
472.3703 77.695656 
475.380432 73.056816 
494.736237 175.07843 
532.847351 136.775635 
550.64856 85.038795 
552.27478 89.929878 
585.015259 216.615158 
595.106445 135.321426 
608.489014 81.190475 
624.892456 85.846153 
660.528198 100.022957 
678.0896 95.132248 
683.138123 101.027779 
697.798645 85.0 
717.140991 84.080132 
742.743591 167.977936 
765.919983 109.007812 
771.909668 58.320122 
790.560913 110.111298 
808.837524 110.903229 
817.931152 59.692307 
832.590637 61.166668 
850.5802 73.26667 
870.381042 65.235291 
885.690857 72.449997 
900.204468 171.769608 
920.044617 60.011364 
932.871948 57.115742 
947.762939 83.006577 
977.635254 116.020454 
996.583923 71.409088 
998.835266 102.633331 
1022.743958 88.555557 
1044.363281 76.0 
1069.208252 114.894234 
1086.470093 63.003571 
1095.48877 91.669441 
1099.266479 59.625 
1100.695801 84.610001 
1143.259521 71.08654 
1157.45874 57.23077 
1160.161621 109.457146 
1181.600952 188.796875 
1210.037354 63.455647 
1212.459106 119.0 
1239.777344 66.720589 
1242.07019 103.703705 
1260.978516 75.382812 
1272.802734 78.094696 
1289.747559 72.900002 
1304.776489 85.449997 
1335.903198 105.472061 
1342.433472 59.969826 
1347.214478 101.75 
1361.699707 96.068184 
1394.32959 65.91848 
1413.788208 55.56818 
1421.408325 121.89286 
1426.274292 61.473682 
1454.629028 86.111115 
1455.321045 64.917557 
1487.274048 80.556816 
1494.723511 85.391304 
1499.995239 62.0 
1531.748047 77.760414 
1565.01062 72.25 
1581.435547 67.5 
1586.619141 53.785713 
1595.795532 53.083332 
1640.860596 48.375 
1648.334839 47.173077 
1648.494751 42.017857 
1675.580078 59.017857 
1675.750854 42.017857 
1683.080444 60.240383 
1696.565308 69.449471 
END IONS

BEGIN IONS
RTINSECONDS=447.074005
CHARGE=1-
MSLEVEL=2
PRECURSORINTENSITY=5237957.500000
SMILES=O=C(O)C(CCCCCCCCCCCC)C(C)C(=O)O
INCHI=InChI=1S/C17H32O4/c1-3-4-5-6-7-8-9-10-11-12-13-15(17(20)21)14(2)16(18)19/h14-15H,3-13H2,1-2H3,(H,18,19)(H,20,21)
INCHIKEY=CADNMISJDLVPCK-UHFFFAOYSA-N
CLASS=Acids
ADDUCT=[M-H]-
INSTRUMENT=Agilent Q-ToF 6530
PRECURSOR_MZ=299.2146
COMPOUND_NAME=Roccellic acid
ION_MODE=negative
FORMULA=C17H32O4
111.113205 7647.956055 
112.0158 3823.149414 
112.181374 151.926285 
113.042603 159.125 
116.931488 135.041672 
169.511017 110.172874 
195.175781 194.10527 
199.853592 174.804871 
237.220154 14777.617188 
238.226089 4239.137207 
255.2314 657294.5 
256.234467 140250.9375 
281.221497 61420.945312 
391.397156 54.882355 
391.984497 56.322369 
393.266541 48.265625 
408.547852 82.728447 
419.453125 61.142242 
423.717072 49.720589 
466.456726 77.005951 
468.467712 46.125 
484.460144 41.5 
519.049927 53.654068 
523.369019 60.227272 
541.145447 36.094696 
553.401855 125.344513 
570.118286 93.215515 
585.860779 40.160713 
614.166809 69.089996 
615.339783 51.076923 
619.929016 57.680557 
655.432007 45.375 
669.472168 68.160713 
677.896667 46.032143 
734.439209 87.603569 
752.46106 48.204544 
762.642212 34.083332 
780.761536 56.132355 
783.730835 25.003204 
793.83606 55.138512 
834.015564 63.779411 
858.630554 54.816666 
862.482849 30.125 
865.349487 27.449074 
884.549927 30.557692 
890.190552 31.211206 
924.345886 50.026161 
942.227905 30.183823 
965.430786 87.894737 
972.123291 31.405001 
989.211914 47.68145 
1002.879578 84.010414 
1035.555786 70.25 
1038.619629 23.13587 
1054.973145 32.5625 
1107.197998 26.595589 
1128.762085 31.291666 
1141.222534 47.017857 
1145.271118 132.266663 
1161.813599 43.041668 
1172.131958 48.595589 
1197.0177 55.445 
1206.399658 49.165539 
1223.994995 33.454544 
1230.784058 41.339287 
1246.696167 48.44643 
1287.19519 68.044998 
1291.193237 45.387821 
1316.476074 27.005434 
1328.220581 42.0 
1339.625122 35.570652 
1348.845093 29.225 
1382.281616 40.5 
1399.001953 125.777985 
1412.472168 73.197578 
1414.701538 52.044998 
1428.365723 42.796051 
1433.36377 84.052963 
1478.063232 31.375 
1479.42041 27.200001 
1497.99353 31.84091 
1525.814941 48.91848 
1531.185181 26.446428 
1534.786865 42.25 
1568.088135 30.918478 
1583.870239 43.875 
1607.071777 32.285713 
1618.446045 33.244999 
1627.045654 51.942307 
1627.14502 35.022728 
1641.025024 77.071426 
1680.851685 25.0 
1690.945557 33.471153 
1691.04541 42.777779 
1698.197388 23.360294 
END IONS

BEGIN IONS
RTINSECONDS=436.311005
CHARGE=1-
MSLEVEL=2
PRECURSORINTENSITY=1077320.375000
SMILES=CC12C(=O)C(=C(C=C1Oc1c2c(O)c(C)c(O)c1C(=O)C)O)C(=O)C
INCHI=InChI=1S/C18H16O7/c1-6-14(22)12(8(3)20)16-13(15(6)23)18(4)10(25-16)5-9(21)11(7(2)19)17(18)24/h5,21-23H,1-4H3
INCHIKEY=WEYVVCKOOFYHRW-UHFFFAOYSA-N
CLASS=Dibenzofuranes
ADDUCT=[M-H]-
INSTRUMENT=Agilent Q-ToF 6530
PRECURSOR_MZ=343.076
COMPOUND_NAME=Usnic acid
ION_MODE=negative
FORMULA=C18H16O7
143.084778 444.42392 
145.136673 1019.167297 
171.050247 899.482056 
189.05336 2588.588379 
215.047607 3200.833984 
229.051392 4051.27832 
231.062302 15722.446289 
257.059021 6987.885254 
259.056763 66098.609375 
260.062683 12755.654297 
299.074524 16794.705078 
313.029388 14087.447266 
435.550568 75.112068 
442.217438 100.160713 
455.903015 82.0 
485.262207 80.111115 
501.531311 77.145409 
504.138611 86.41346 
519.079834 80.064514 
536.768494 114.145348 
565.834778 99.0 
566.462952 83.570656 
577.411987 100.094696 
620.727112 100.846153 
630.616211 135.230774 
638.083557 83.142441 
638.459473 102.161293 
653.922607 159.942963 
691.904114 75.190475 
715.130188 95.030403 
720.450134 73.764709 
735.784302 71.449471 
761.672607 107.005951 
769.907593 49.150002 
791.757751 59.657608 
822.94104 68.934319 
857.32196 94.29657 
873.588684 76.568184 
879.452332 66.925926 
904.277466 85.964287 
904.413025 147.148804 
904.490479 66.245689 
961.086548 34.322369 
970.146973 63.041668 
1013.628174 31.022728 
1014.454773 33.326614 
1014.819275 49.083332 
1025.716675 30.923077 
1036.943726 66.125 
1050.98645 32.044998 
1076.219849 73.215515 
1086.157104 70.208336 
1108.556519 55.165321 
1140.096558 120.006409 
1155.131226 59.032143 
1155.395508 72.080132 
1173.646851 67.75 
1184.665894 77.004036 
1194.108276 54.289288 
1226.224487 202.721771 
1227.049438 54.003571 
1236.222412 43.44643 
1242.11792 49.670456 
1288.872803 48.125 
1302.702881 77.290001 
1304.112671 47.333332 
1315.88916 37.25 
1325.359985 32.013889 
1373.791748 92.469444 
1380.285645 39.75 
1382.646118 67.537788 
1398.755493 46.142857 
1401.735352 207.053268 
1429.900391 102.160713 
1460.530518 90.284088 
1462.488525 72.640152 
1471.314697 79.421509 
1476.153076 65.48214 
1499.992188 95.900864 
1537.884766 34.25 
1537.958008 50.1875 
1538.836426 89.137932 
1561.522461 39.048912 
1569.813477 21.125 
1643.217773 66.387817 
1645.745483 75.240387 
1647.958374 64.035713 
1648.242188 42.440216 
1665.231079 130.837204 
1688.413086 41.113636 
1697.712158 35.066666 
1698.403809 20.242647 
END IONS

BEGIN IONS
RTINSECONDS=239.608002
CHARGE=1-
MSLEVEL=2
PRECURSORINTENSITY=127372.484375
SMILES=Cc1c(O)c(C(=O)O)c(C)cc1O
INCHI=InChI=1S/C9H10O4/c1-4-3-6(10)5(2)8(11)7(4)9(12)13/h3,10-11H,1-2H3,(H,12,13)
INCHIKEY=VHNLJRRECIZZPX-UHFFFAOYSA-N
CLASS=Cleavage Products of Depsides and Depsidones
ADDUCT=[M-H]-
INSTRUMENT=Agilent Q-ToF 6530
PRECURSOR_MZ=181.0489
COMPOUND_NAME=b-Orcinolcarboxylic acid
ION_MODE=negative
FORMULA=C9H10O4
107.049706 810.908691 
119.049133 3369.786865 
121.977036 6931.780273 
134.97316 7400.310547 
136.949234 281155.90625 
137.864487 24400.595703 
163.034805 26273.464844 
243.77153 137.011902 
252.014099 127.30616 
264.388062 118.469154 
275.081909 119.040001 
330.754517 86.25 
333.235809 104.274353 
336.773987 89.45153 
337.245728 88.321426 
365.033234 75.78241 
381.622437 89.125 
389.606049 71.297623 
428.301331 82.929878 
447.068481 67.909088 
447.709717 147.011368 
475.765411 94.695511 
493.239075 79.557693 
497.137329 93.691902 
517.974548 88.041664 
547.078674 85.657608 
554.085938 105.617645 
584.752991 73.100807 
596.214111 126.260414 
604.718384 105.209999 
631.457703 169.0 
647.002747 162.132248 
661.246765 56.440475 
669.410583 62.592106 
672.302368 63.00338 
710.06012 85.960106 
711.443542 74.529411 
758.619446 133.039993 
761.007141 75.703705 
764.918945 70.125 
784.86554 110.090912 
797.522766 66.587265 
836.175293 66.142441 
851.726196 90.884804 
865.030945 65.625 
871.679077 138.242813 
895.852539 121.027779 
896.205811 133.391312 
919.513611 62.515244 
923.97998 71.289284 
968.844849 89.011902 
985.092407 67.375 
1012.492432 57.166668 
1029.277588 61.025002 
1038.302368 56.512501 
1055.969116 57.0 
1057.453125 80.199997 
1077.277222 61.363636 
1107.163696 88.107452 
1113.336182 77.120094 
1131.359131 71.344513 
1139.874268 71.223213 
1151.387207 256.018433 
1164.776245 108.25 
1191.674561 75.976349 
1214.212402 100.349998 
1228.391113 92.0625 
1256.084229 206.481339 
1256.513428 144.001373 
1286.129395 135.024994 
1300.843018 112.146736 
1333.564575 107.382812 
1341.248535 165.10228 
1365.535889 107.564026 
1393.854736 95.117645 
1432.278931 58.400002 
1457.401611 127.881027 
1460.6875 91.160713 
1467.836182 89.347221 
1484.07312 98.388161 
1492.738647 174.134995 
1514.371338 84.925926 
1524.739624 99.022057 
1569.050171 88.25 
1583.335815 62.266666 
1589.115356 51.888889 
1598.778564 75.686401 
1599.973267 118.019737 
1608.034912 151.769226 
1665.531494 50.5625 
1683.452393 64.149391 
1683.994507 76.401924 
1686.430054 61.242645 
1697.55188 104.455643 
1697.665039 55.532894 
END IONS

BEGIN IONS
RTINSECONDS=409.315002
CHARGE=1-
MSLEVEL=2
PRECURSORINTENSITY=19738.750000
SMILES=CC(C)C[C@H](NC(=O)c1ccccc1)C(=O)OC[C@@H](NC(=O)c1ccccc1)Cc1ccccc1
INCHI=InChI=1S/C29H32N2O4/c1-21(2)18-26(31-28(33)24-16-10-5-11-17-24)29(34)35-20-25(19-22-12-6-3-7-13-22)30-27(32)23-14-8-4-9-15-23/h3-17,21,25-26H,18-20H2,1-2H3,(H,30,32)(H,31,33)/t25-,26-/m0/s1
INCHIKEY=JOOSAYNHLJGJCN-UIOOFZCWSA-N
CLASS=N-Containing Compounds
ADDUCT=[M-H]-
INSTRUMENT=Agilent Q-ToF 6530
PRECURSOR_MZ=471.2189
COMPOUND_NAME=Hypothallin
ION_MODE=negative
FORMULA=C29H32N2O4
104.198563 71.094696 
107.000397 153.02272 
118.932693 89.734848 
120.048965 1205.711792 
121.050186 135.382812 
190.122665 9123.541992 
191.124283 2742.932373 
234.111893 435848.90625 
235.117493 115454.03125 
236.116348 9073.086914 
254.119522 9813.554688 
255.239365 3797.440674 
324.868378 421.753235 
326.862396 610.409668 
328.862793 469.049988 
334.328339 151.980774 
335.877686 140.322372 
336.891846 733.162903 
404.881714 302.227844 
527.409607 76.125 
568.323364 72.306816 
622.614502 125.476692 
633.66394 75.489868 
640.465332 104.245689 
659.190369 96.515244 
675.174927 81.574997 
683.329163 90.146736 
696.143555 86.778229 
737.498962 64.796051 
738.606812 63.520832 
745.902405 66.446426 
746.501343 72.177635 
761.342896 70.266304 
796.1828 88.508926 
797.666077 92.92308 
825.505432 84.173782 
843.425964 99.150002 
845.565674 110.020836 
848.752747 104.040321 
892.803833 100.864723 
897.056946 126.0 
923.444702 112.431122 
948.286865 69.013161 
967.498352 168.532898 
970.401245 122.384094 
998.081604 264.5 
1004.624146 86.228775 
1013.641357 87.80278 
1019.407471 92.010002 
1061.143188 97.384613 
1066.003784 90.166664 
1086.731445 130.791672 
1119.730103 54.044998 
1143.248291 89.013885 
1143.788086 94.102272 
1145.264038 60.633335 
1174.397705 66.321808 
1179.144287 68.480766 
1195.477173 126.61364 
1221.49231 74.204544 
1241.062134 76.208336 
1245.678101 111.086266 
1246.431641 71.084457 
1278.429932 172.818176 
1295.704224 76.206635 
1304.215576 62.5 
1328.296509 75.055557 
1368.500854 61.657608 
1370.247437 80.083336 
1370.579712 65.224998 
1400.700073 74.080132 
1424.063965 191.063141 
1437.220459 63.42857 
1456.859985 146.051132 
1477.124023 58.100807 
1482.83313 51.48077 
1505.002075 56.174999 
1546.278564 90.019066 
1548.374023 70.515625 
1563.855347 63.308823 
1570.204346 115.002777 
1605.629272 100.708336 
1626.63916 57.307693 
1627.736694 52.5 
1657.232056 84.644737 
1682.626465 50.224998 
1686.385742 51.836956 
1689.320312 43.224998 
1691.052246 62.013889 
END IONS

BEGIN IONS
RTINSECONDS=303.466003
CHARGE=1-
MSLEVEL=2
PRECURSORINTENSITY=3742272.750000
SMILES=Cc1cc(c(c(c1Cl)O)C=O)O
INCHI=InChI=1S/C8H7ClO3/c1-4-2-6(11)5(3-10)8(12)7(4)9/h2-3,11-12H,1H3
INCHIKEY=IOTAGSGSURFFDS-UHFFFAOYSA-N
CLASS=Cleavage Products of Depsides and Depsidones
ADDUCT=[M-H]-
INSTRUMENT=Agilent Q-ToF 6530
PRECURSOR_MZ=185.0002
COMPOUND_NAME=Chloratranol
ION_MODE=negative
FORMULA=C8H7ClO3
121.02951 73125.40625 
157.007599 1174473.25 
158.009445 89743.195312 
281.837799 66.367424 
282.456879 82.925003 
284.874268 48.099998 
297.545471 44.75 
310.31958 195.457138 
346.825745 71.172874 
356.212494 50.455647 
361.569733 85.976349 
382.19809 48.004032 
392.221466 54.480263 
429.790558 77.410004 
433.810516 47.785713 
448.68689 56.636364 
450.742615 58.796051 
476.238647 78.13636 
492.735474 70.197578 
530.116516 145.666672 
530.876465 122.61364 
536.215881 66.941177 
537.081482 110.889282 
548.15625 75.0 
590.411194 82.058823 
593.151794 64.032143 
594.833374 89.346313 
610.405518 72.032143 
638.579285 79.063774 
644.971436 55.570946 
669.496826 52.0625 
681.007996 51.005436 
714.868713 54.5625 
728.182068 81.778847 
744.393433 279.730133 
748.715027 71.333336 
756.682678 91.328949 
787.895081 77.25 
826.232666 122.013885 
836.735474 94.400002 
876.335571 88.231483 
881.355103 62.449074 
894.326721 77.778847 
911.237915 60.004032 
918.931152 71.027435 
935.507263 52.44643 
956.120605 60.75 
981.321045 85.926285 
994.084106 79.097824 
1017.736145 122.00338 
1049.480225 42.083332 
1053.638672 42.0 
1058.237427 54.44643 
1064.457397 44.680557 
1105.52771 169.287338 
1111.537231 82.440475 
1135.213623 82.440216 
1138.135986 42.339287 
1151.863525 50.367424 
1184.717773 44.570946 
1190.093384 61.625 
1237.140869 90.470589 
1255.796875 53.08654 
1282.18335 53.347221 
1287.081055 94.037041 
1288.908936 54.349998 
1296.339966 70.92308 
1334.347046 74.881096 
1356.793945 123.025002 
1374.504028 214.111603 
1385.412476 43.041668 
1401.874756 44.816666 
1407.156128 43.048912 
1419.992432 48.125 
1436.106445 38.520832 
1447.864258 40.014706 
1458.279419 69.625 
1459.993896 34.01923 
1517.197021 50.5 
1517.861328 51.485294 
1523.899292 50.222221 
1525.218628 56.080128 
1573.218628 193.005951 
1581.50647 92.240387 
1581.601318 52.445 
1609.731689 41.532894 
1626.062744 127.545456 
1690.225586 40.0 
1696.204956 36.005436 
END IONS

BEGIN IONS
RTINSECONDS=439.76001
CHARGE=1-
MSLEVEL=2
PRECURSORINTENSITY=8986888.000000
SMILES=CCCc1cc(cc(c1C(=O)Oc1cc(c(c(c1)CCC)C(=O)O)O)O)OC
INCHI=InChI=1S/C21H24O7/c1-4-6-12-9-15(11-16(22)18(12)20(24)25)28-21(26)19-13(7-5-2)8-14(27-3)10-17(19)23/h8-11,22-23H,4-7H2,1-3H3,(H,24,25)
INCHIKEY=FSRDIJIAQPSMMR-UHFFFAOYSA-N
CLASS=Depsides (Didepsides)
ADDUCT=[M-H]-
INSTRUMENT=Agilent Q-ToF 6530
PRECURSOR_MZ=387.1405
COMPOUND_NAME=Divaricatic acid
ION_MODE=negative
FORMULA=C21H24O7
107.076286 240975.53125 
109.065582 298964.375 
133.06517 782917.625 
151.076233 1851479.875 
177.055603 3949188.5 
177.865753 540454.1875 
195.066116 3586284.0 
196.069458 533516.0625 
254.094543 7402.671387 
283.130432 38618.386719 
284.138428 11669.81543 
299.164734 43759.589844 
300.166138 12651.074219 
448.555634 142.321426 
451.527649 125.15625 
506.240265 99.945312 
511.08606 125.388161 
527.874084 110.818184 
545.821411 117.166664 
576.234619 100.30616 
587.037415 102.090912 
589.892456 101.769234 
600.746033 282.385498 
656.258606 70.458336 
658.863525 40.075001 
663.156433 40.432144 
690.851746 123.489868 
699.935181 79.840912 
723.178284 52.349491 
731.985535 97.446426 
762.976379 128.132248 
769.963684 77.0 
792.258423 46.04348 
811.621033 115.0 
834.101501 39.432144 
847.061096 51.011906 
862.579651 175.002197 
884.814087 55.41346 
900.470276 69.125 
942.545349 106.493423 
947.289734 70.0 
949.427429 213.761902 
971.494751 278.977936 
989.89624 65.900002 
997.958496 45.408333 
1002.894043 58.406914 
1005.55542 79.041664 
1050.07959 55.03125 
1126.331055 79.149391 
1161.186401 128.19104 
1172.060791 147.1362 
1172.260498 39.347221 
1212.975586 49.18182 
1231.283569 53.173077 
1243.620117 61.375 
1260.570435 45.5625 
1265.145386 87.375 
1270.824829 41.0 
1295.870117 54.004032 
1334.166016 58.125 
1388.828369 50.875 
1437.995117 57.025002 
1446.043945 49.007355 
1456.787598 53.036289 
1463.127197 108.34375 
1468.258911 54.025002 
1496.470703 64.881096 
1554.081665 57.907257 
1560.417358 50.022728 
1607.263794 80.840912 
1655.463379 49.165321 
1687.206665 94.002274 
END IONS

BEGIN IONS
RTINSECONDS=447.382996
CHARGE=1-
MSLEVEL=2
PRECURSORINTENSITY=2387660.500000
SMILES=O=C1c2c(C)c(Cl)c(O)c(Cl)c2Oc2c(O1)c(c(c(c2C)Cl)OC)Cl
INCHI=InChI=1S/C16H10Cl4O5/c1-4-6-13(9(19)11(21)7(4)17)24-12-5(2)8(18)14(23-3)10(20)15(12)25-16(6)22/h21H,1-3H3
INCHIKEY=AXZCNBVMHHTPKA-UHFFFAOYSA-N
CLASS=Depsidones
ADDUCT=[M-H]-
INSTRUMENT=Agilent Q-ToF 6530
PRECURSOR_MZ=420.9081
COMPOUND_NAME=Diploicin
ION_MODE=negative
FORMULA=C16H10Cl4O5
104.684662 145.645157 
116.962601 175.69606 
221.97493 6069.073242 
277.953064 28846.173828 
278.96051 12668.385742 
279.953918 14430.523438 
290.970856 19264.882812 
305.947998 18915.265625 
361.905487 70790.351562 
363.902435 80799.09375 
378.917633 77745.1875 
384.942047 72716.515625 
517.701782 104.206635 
525.963013 43.91848 
541.508179 111.579224 
578.481934 109.008926 
586.664429 110.972824 
588.030396 103.675003 
604.561829 210.180557 
613.333008 125.432144 
653.497925 126.097824 
667.400879 97.003052 
667.660767 62.25 
669.86261 85.322365 
695.347412 144.653839 
711.365723 129.682434 
729.691101 64.199997 
747.916565 115.160713 
753.789673 148.242477 
793.985657 69.816864 
821.225891 78.17308 
827.10376 68.125 
834.764282 138.653992 
875.421814 97.08696 
897.138733 129.375 
905.262207 55.336113 
912.361938 114.875 
941.30542 126.0 
944.980408 113.791664 
975.901245 157.03334 
989.074768 105.515244 
1000.58313 104.735291 
1002.732178 139.112076 
1049.95166 89.842102 
1066.760864 127.0 
1067.326294 217.543671 
1086.730103 80.125 
1118.636719 47.084461 
1125.043823 49.805 
1143.03186 78.003204 
1153.191284 117.111366 
1192.351562 130.091415 
1197.781738 193.029419 
1199.112183 113.0 
1229.285889 81.315788 
1253.025146 147.518677 
1267.041748 50.368904 
1270.063477 81.875 
1290.062622 65.25 
1352.749023 57.761906 
1353.006836 93.45153 
1365.856445 162.48761 
1414.682129 109.0 
1418.85498 78.197578 
1436.769653 65.013885 
1464.769531 79.136108 
1470.662109 57.150002 
1488.56311 126.022057 
1495.858765 148.430557 
1506.083374 54.210526 
1544.660767 61.326614 
1557.287109 51.695515 
1562.404419 49.778847 
1562.865967 258.515198 
1596.048096 54.30682 
1637.751099 125.610001 
1653.7146 101.398582 
1655.850952 49.901318 
1656.242798 85.432144 
1657.139893 179.680557 
END IONS

BEGIN IONS
RTINSECONDS=493.846985
CHARGE=1-
MSLEVEL=2
PRECURSORINTENSITY=302119.062500
SMILES=CCCCCCCCCCCCCCC(C(=O)O)C(CC(=O)OC)(C(=O)O)O
INCHI=InChI=1S/C21H38O7/c1-3-4-5-6-7-8-9-10-11-12-13-14-15-17(19(23)24)21(27,20(25)26)16-18(22)28-2/h17,27H,3-16H2,1-2H3,(H,23,24)(H,25,26)
INCHIKEY=HMJJWFFZRCLIDN-UHFFFAOYSA-N
CLASS=Acids
ADDUCT=[M-H]-
INSTRUMENT=Agilent Q-ToF 6530
PRECURSOR_MZ=401.2508
COMPOUND_NAME=Caperatic acid
ION_MODE=negative
FORMULA=C21H38O7
109.987022 1201.524048 
112.987564 5568.104004 
124.025795 41965.308594 
124.131409 1201.671509 
125.019363 4066.050293 
145.014114 6404.530273 
221.237122 6312.828125 
237.219986 14758.797852 
253.252716 24532.193359 
254.256393 8459.619141 
263.236298 16132.674805 
283.22702 43358.078125 
307.226532 91759.890625 
308.230072 28164.386719 
339.257385 7022.858887 
340.255127 2807.023438 
369.180145 9241.460938 
370.227417 3681.928467 
468.208588 46.003788 
477.550812 43.013157 
482.702332 64.003204 
487.950317 48.307693 
521.233337 49.111843 
528.550903 89.444672 
543.866882 66.960106 
567.600952 91.929878 
590.061584 117.900002 
613.289429 52.16 
616.98645 61.041668 
618.144592 59.160713 
632.716919 55.961956 
670.361755 112.768616 
701.554565 54.482143 
704.293457 57.44643 
721.044189 56.041668 
725.890625 98.721153 
732.744995 55.25 
778.575012 58.125 
798.822388 102.344513 
809.687439 53.5625 
811.255981 50.224998 
820.423096 53.01923 
836.197144 60.68182 
876.252136 65.027435 
879.659546 95.072578 
898.529419 52.592106 
923.094299 52.032143 
945.437134 79.34375 
949.34375 49.91848 
966.803711 51.259617 
967.688232 104.066177 
993.852478 74.29657 
1009.480713 47.521553 
1049.846313 38.5 
1055.325317 53.142242 
1071.954956 86.035713 
1101.011719 58.532894 
1104.712891 110.207146 
1123.7854 59.125 
1124.506958 73.0 
1163.90332 52.78125 
1169.488892 52.25 
1176.724609 48.482143 
1189.61377 73.367424 
1195.44043 51.842106 
1208.71521 44.603573 
1238.561279 43.333332 
1275.975098 77.027435 
1276.247192 81.235466 
1295.30957 57.003204 
1298.252197 55.625 
1305.976807 90.441177 
1340.072754 46.016666 
1371.33667 99.002907 
1388.11377 64.284088 
1388.281738 42.25 
1413.235474 46.25 
1416.099365 70.907257 
1445.963013 57.512501 
1463.734009 45.404999 
1475.096558 47.245689 
1488.580322 108.522728 
1490.730957 70.053574 
1539.997437 39.020832 
1543.843384 43.032143 
1557.600708 35.680557 
1563.623413 96.210526 
1606.191284 38.44643 
1606.74939 35.165539 
1639.416748 101.716835 
1647.845459 43.028847 
1660.851562 86.445656 
1682.628906 63.009617 
1690.2677 36.211208 
1694.193604 42.036289 
1696.950195 75.028847 
END IONS

BEGIN IONS
RTINSECONDS=414.347992
CHARGE=1-
MSLEVEL=2
PRECURSORINTENSITY=2988636.500000
SMILES=O=C1Oc2c(c(C)c(Cl)c(OC)c2)Oc2c(Cl)c(O)c(Cl)c(C)c12
INCHI=InChI=1S/C16H11Cl3O5/c1-5-9-15(12(19)13(20)11(5)18)24-14-6(2)10(17)7(22-3)4-8(14)23-16(9)21/h4,20H,1-3H3
INCHIKEY=XEDMLQPKKYHCKK-UHFFFAOYSA-N
CLASS=Depsidones
ADDUCT=[M-H]-
INSTRUMENT=Agilent Q-ToF 6530
PRECURSOR_MZ=386.9484
COMPOUND_NAME=Dechlorodiploicin
ION_MODE=negative
FORMULA=C16H11Cl3O5
119.068832 975.68573 
188.001694 11145.319336 
215.997299 12276.418945 
243.992371 49799.542969 
244.997589 23757.777344 
256.998718 27563.035156 
271.985748 23629.939453 
307.963135 39865.273438 
327.943939 121174.304688 
329.940704 76170.539062 
350.980255 97357.203125 
496.573975 74.737244 
497.393646 123.471153 
534.484741 172.006409 
538.191711 126.778061 
583.781555 133.111481 
585.770447 140.148804 
588.33606 126.141891 
590.524292 157.564819 
623.357971 124.836761 
623.546753 135.160721 
649.223022 81.064514 
664.252197 70.041664 
689.297668 131.003204 
713.992432 60.431122 
721.3479 151.11792 
771.747009 93.148148 
779.315857 173.306244 
782.229126 57.083332 
809.003052 71.285713 
835.490784 75.246948 
836.439209 56.0 
851.166199 64.015625 
874.584534 49.787163 
893.679749 51.142242 
900.911438 65.300003 
926.677368 127.681664 
936.428162 55.816666 
949.489136 87.011902 
957.625854 168.480072 
980.460083 131.387817 
993.070312 81.01136 
1015.231873 125.382042 
1039.268677 72.782608 
1042.360474 117.493423 
1050.386719 133.893524 
1086.131104 125.561043 
1100.668823 91.0 
1119.509399 153.824997 
1134.28479 118.334999 
1156.676514 117.902435 
1157.807129 73.157051 
1176.002075 122.583336 
1183.515503 148.430557 
1207.848633 123.033333 
1219.482422 130.361115 
1231.725098 146.814819 
1236.202637 155.032257 
1245.033813 153.290253 
1259.609253 133.166672 
1296.672119 64.5625 
1329.789673 69.657608 
1333.969482 68.246948 
1358.882568 53.599998 
1366.838867 128.355392 
1405.500854 86.01844 
1410.746948 120.265625 
1413.871948 71.840118 
1434.211914 71.375 
1439.05603 79.890625 
1439.122559 65.297623 
1495.937134 112.4375 
1496.723999 171.086273 
1512.26355 69.16346 
1516.475098 91.695511 
1552.596191 69.148811 
1560.229492 119.959999 
1580.203003 59.111843 
1596.718018 119.006248 
1598.564209 59.266666 
1624.176147 78.694443 
1681.848877 78.491379 
1694.815063 126.921051 
1697.916626 84.3629 
END IONS

BEGIN IONS
RTINSECONDS=336.815002
CHARGE=1-
MSLEVEL=2
PRECURSORINTENSITY=2346048.250000
SMILES=Cc1cc(c(c(c1OC(=O)c1c(c(c(cc1C)OC)C(=O)O)O)O)C=O)O
INCHI=InChI=1S/C18H16O9/c1-7-5-11(26-3)13(17(23)24)15(22)12(7)18(25)27-16-8(2)4-10(20)9(6-19)14(16)21/h4-6,20-22H,1-3H3,(H,23,24)
INCHIKEY=JQHGZAGUFPJYDL-UHFFFAOYSA-N
CLASS=Depsides (Didepsides)
ADDUCT=[M-H]-
INSTRUMENT=Agilent Q-ToF 6530
PRECURSOR_MZ=375.0731
COMPOUND_NAME=Decarboxythamnolic acid
ION_MODE=negative
FORMULA=C18H16O9
111.072891 21442.263672 
121.123016 87945.382812 
124.037407 50518.558594 
139.048141 250596.859375 
165.019562 72843.148438 
167.034271 1572939.0 
168.384796 168410.65625 
193.014969 22727.773438 
211.060287 10761.675781 
225.0466 1088.27832 
281.58255 176.356018 
289.778168 88.004036 
313.089569 326.129028 
331.079407 1183.968506 
430.864166 103.025002 
488.259033 63.349998 
491.138428 251.36734 
515.975891 161.195129 
521.777344 129.642044 
523.946594 119.148811 
535.347168 122.595589 
548.059875 68.384094 
584.977539 72.157051 
631.354736 132.439026 
635.648743 139.256409 
655.067749 122.903229 
660.066467 166.213379 
669.42511 128.157898 
671.130859 216.646652 
703.64917 89.045456 
707.755005 100.008926 
724.942444 65.25 
750.292847 81.142242 
773.91925 71.141304 
778.561523 41.160713 
823.002686 111.169945 
823.920654 60.284092 
829.594299 48.796051 
846.926819 88.003571 
858.955322 165.818176 
898.148315 89.010872 
902.419067 104.489868 
910.444336 91.432693 
922.966431 168.0 
934.454895 92.003571 
955.27478 103.793106 
958.942444 106.008926 
991.348938 107.344513 
1007.682434 89.094696 
1017.81897 105.375 
1028.6604 96.329918 
1052.429565 83.740944 
1078.872803 85.80278 
1085.648804 78.960106 
1095.441406 75.242645 
1123.156982 189.222397 
1127.921387 94.288269 
1135.851685 73.852272 
1156.402832 62.375 
1179.940918 37.285713 
1190.181519 47.657608 
1199.482178 74.446426 
1212.331299 61.532894 
1239.908203 50.165321 
1263.270264 46.777779 
1289.733521 71.367424 
1296.469727 68.058823 
1306.875 64.260414 
1338.812988 103.050003 
1345.689697 84.002548 
1375.559692 89.351746 
1382.477417 83.066177 
1386.109619 82.408333 
1401.829224 72.173912 
1412.962402 74.802635 
1421.182617 82.041664 
1457.642822 103.848076 
1474.29126 82.675003 
1476.937744 106.006943 
1497.165527 141.290253 
1504.045654 86.578949 
1506.182129 256.041656 
1568.547607 59.115742 
1584.433228 123.280739 
1617.770264 71.75 
1642.819824 73.685974 
1643.536621 50.215427 
1647.887329 92.3125 
1684.643433 44.059212 
1684.709106 58.25 
1694.80542 114.635201 
END IONS

BEGIN IONS
RTINSECONDS=416.186005
CHARGE=1-
MSLEVEL=2
PRECURSORINTENSITY=2542375.750000
SMILES=Cc1c2c(c(c(c1Cl)O)Cl)oc1c(c2=O)c(c(c(c1Cl)O)Cl)O
INCHI=InChI=1S/C14H6Cl4O5/c1-2-3-9(19)4-10(20)6(16)12(22)8(18)14(4)23-13(3)7(17)11(21)5(2)15/h20-22H,1H3
INCHIKEY=MYBIAUJNAXMGTF-UHFFFAOYSA-N
CLASS=Xanthones and bis-Xanthones
ADDUCT=[M-H]-
INSTRUMENT=Agilent Q-ToF 6530
PRECURSOR_MZ=392.8771
COMPOUND_NAME=Thiophanic acid
ION_MODE=negative
FORMULA=C14H6Cl4O5
102.960213 141.960785 
128.975616 827.066284 
130.963516 240.199997 
172.966141 3432.783447 
200.973541 6306.399902 
208.955322 5549.376465 
216.944672 8456.138672 
236.950241 14505.482422 
264.944611 25198.322266 
265.951233 10353.958984 
292.938385 25151.441406 
300.921082 45679.105469 
302.917236 30594.253906 
320.933685 19032.191406 
328.91507 86872.5 
330.912567 51694.574219 
487.128113 131.088776 
499.563995 94.219513 
508.493164 82.490387 
513.29187 128.160095 
514.93512 78.875 
571.868713 148.128159 
595.552795 99.556816 
601.190186 101.360001 
605.172546 66.355392 
637.344849 78.107758 
639.864502 125.142242 
665.075745 80.881096 
679.349487 50.173077 
695.673584 128.889282 
713.873962 86.644997 
774.68866 59.400002 
774.925476 45.132355 
778.400574 62.142441 
803.986145 117.005814 
814.93396 102.094696 
815.049927 96.003784 
844.788452 46.032143 
846.248352 277.388428 
936.356934 178.120758 
943.01123 121.360077 
946.685059 100.006248 
950.471924 135.612289 
965.781555 132.25 
974.101624 196.574432 
1023.792969 92.884613 
1035.278198 58.764706 
1042.473511 59.5 
1061.072876 56.244999 
1089.435181 97.033333 
1103.47998 73.941177 
1114.649414 86.681602 
1115.638428 229.485214 
1123.24231 131.604446 
1146.41333 126.162636 
1162.762573 95.289383 
1167.539551 173.680237 
1209.435669 41.333332 
1229.484497 83.420456 
1232.029785 34.5625 
1295.436035 122.595589 
1298.03894 83.769234 
1303.7146 62.942307 
1336.344238 144.667923 
1345.276733 102.669441 
1352.240479 46.857143 
1388.281494 104.400002 
1393.203003 47.512501 
1401.073975 37.408333 
1413.187744 127.938828 
1451.190308 78.578575 
1467.651733 107.765625 
1485.955566 189.401672 
1503.026489 109.837685 
1512.442993 139.594131 
1535.889893 128.009995 
1541.314697 98.787163 
1572.333862 113.490387 
1592.584351 122.515244 
1598.141113 131.686401 
1599.087646 79.666664 
1614.986084 88.800003 
1623.639282 42.07143 
1650.922241 37.025002 
1659.085815 116.003204 
1667.532104 36.222221 
1678.190674 88.708336 
1691.439941 29.322369 
END IONS

BEGIN IONS
RTINSECONDS=303.498993
CHARGE=1-
MSLEVEL=2
PRECURSORINTENSITY=1213002.125000
SMILES=Cc1cc(=O)c2c(c(c(cc2o1)OC)COC(=O)/C=C(\C)/CC(=O)O)O
INCHI=InChI=1S/C18H18O8/c1-9(4-15(20)21)5-16(22)25-8-11-13(24-3)7-14-17(18(11)23)12(19)6-10(2)26-14/h5-7,23H,4,8H2,1-3H3,(H,20,21)/b9-5+
INCHIKEY=JSLBEJMNMZJONS-WEVVVXLNSA-N
CLASS=Chromanes and Chromones
ADDUCT=[2M-H]-
INSTRUMENT=Agilent Q-ToF 6530
PRECURSOR_MZ=723.1828
COMPOUND_NAME=Lepraric acid
ION_MODE=negative
FORMULA=C18H18O8
100.048187 76755.304688 
100.929741 6902.526855 
143.034592 864788.4375 
144.037689 176941.28125 
145.039551 24411.833984 
146.058243 1497.130371 
203.043945 434.338043 
205.050552 1018.046021 
206.053192 459.198029 
235.060608 6574.234863 
236.063507 2908.050537 
273.111816 1920.33728 
317.104584 17340.962891 
318.105835 14873.381836 
319.110107 2345.341309 
361.069275 5110.723633 
362.092529 5797.188477 
363.083679 667.545959 
415.89505 124.441177 
428.845703 126.512497 
505.125671 4006.543457 
505.327759 131.1875 
506.11438 7086.749023 
506.822144 143.0625 
507.137512 1937.557739 
508.143311 226.510422 
567.593201 89.84375 
580.430908 75.637192 
581.129211 146.064285 
586.826172 99.456894 
637.447266 111.8125 
643.106262 70.25 
649.118469 112.760132 
778.921082 69.10714 
813.12793 49.242645 
820.647461 54.090908 
831.898193 92.16346 
832.25946 78.800003 
835.302734 51.013157 
870.588257 75.215424 
879.080383 154.03334 
890.790588 69.185608 
925.334778 74.462837 
935.822998 116.054825 
947.357117 138.003784 
953.355103 59.695515 
976.359375 83.011902 
1017.832764 71.281975 
1025.762939 91.0 
1032.46582 84.551727 
1037.465332 62.08654 
1051.791748 94.003204 
1074.057739 94.100807 
1097.597412 77.520164 
1148.703613 92.190475 
1166.572876 127.586037 
1166.675415 79.041664 
1181.486084 152.344055 
1181.556152 104.315788 
1208.430542 128.35556 
1218.027954 67.515244 
1219.031494 135.545456 
1236.994385 76.894737 
1299.334961 104.635201 
1303.81311 54.266666 
1312.317993 87.471153 
1312.803101 118.198769 
1324.685547 141.213379 
1338.676758 106.890625 
1368.541382 83.089287 
1369.058838 65.666664 
1380.028076 54.035713 
1403.533936 62.260868 
1423.203003 41.272728 
1423.782471 43.183823 
1424.561035 154.238403 
1442.435303 151.789139 
1476.147705 54.416668 
1492.807739 59.041668 
1505.891479 48.515244 
1509.247437 126.165695 
1551.929932 129.125 
1555.931396 117.284088 
1566.050049 94.888885 
1567.904663 94.321426 
1594.909058 75.370369 
1606.593384 56.26535 
1624.558472 49.059212 
1658.724121 43.666668 
1675.865234 85.227272 
1693.262939 110.0 
1694.247192 45.026161 
END IONS

BEGIN IONS
RTINSECONDS=361.07901
CHARGE=1-
MSLEVEL=2
PRECURSORINTENSITY=441886.812500
SMILES=Cc1cc(c2c(c1)C(=O)C13C4C5C(C1C(=O)C1=C(c6c(cc(cc6C(=O)C51C(C4O)C(=O)C3=C2O)C)O)O)O)O
INCHI=InChI=1S/C30H22O10/c1-7-3-9-13(11(31)5-7)21(33)17-25(37)20-23(35)15-16-24(36)19(29(15,17)27(9)39)26(38)18-22(34)14-10(28(40)30(16,18)20)4-8(2)6-12(14)32/h3-6,15-16,19-20,23-24,31-36H,1-2H3
INCHIKEY=QFDPVUTXKUGISP-UHFFFAOYSA-N
CLASS=Quinones
ADDUCT=[M-H]-
INSTRUMENT=Agilent Q-ToF 6530
PRECURSOR_MZ=541.0985
COMPOUND_NAME=Rugulosin
ION_MODE=negative
FORMULA=C30H22O10
105.034073 106.489868 
107.286446 96.0625 
115.048798 152.070206 
181.066071 914.920227 
197.061066 2216.989014 
201.146729 1255.036865 
225.055481 23547.15625 
253.047897 23012.025391 
254.054657 12900.15625 
269.043427 151269.25 
270.046844 80474.234375 
271.053955 14187.413086 
435.086121 4180.793457 
436.080627 5819.228027 
437.089355 1921.17395 
438.06488 2649.07373 
439.094757 3819.168457 
454.129517 3110.401123 
599.712524 74.564026 
601.416809 41.75 
623.244751 67.240387 
641.040466 49.5625 
646.840576 90.917374 
662.084656 90.027435 
688.350525 69.112503 
691.244812 70.367424 
709.539856 50.941177 
710.243958 53.013889 
715.16571 217.08197 
742.801086 44.471153 
766.369995 51.272728 
815.016235 53.0625 
819.445251 90.115562 
844.529602 46.390625 
847.822693 54.573978 
884.24939 42.852272 
904.219482 54.205002 
908.186462 81.440475 
911.21759 105.881096 
946.795898 118.758621 
947.74762 187.13385 
955.931824 128.038574 
959.241516 72.199997 
971.129211 77.692307 
1004.30426 47.020832 
1011.968384 61.185608 
1054.633301 44.796051 
1060.992554 49.23077 
1070.271118 111.157898 
1082.533691 46.125 
1111.995728 37.449074 
1112.651733 35.654411 
1145.971436 99.445312 
1149.812378 34.920456 
1171.136963 59.125 
1183.498413 51.005951 
1225.001221 31.125 
1232.171753 34.816666 
1276.620239 40.005951 
1278.525269 62.942307 
1297.129761 83.414215 
1302.211182 43.482143 
1321.554688 53.768616 
1335.724487 35.840908 
1359.389893 40.926281 
1375.377563 90.45153 
1390.506836 26.125 
1391.917236 41.148811 
1407.637451 38.004032 
1448.08728 27.027779 
1449.877563 64.263161 
1494.944458 35.375 
1500.374634 25.022728 
1505.355225 34.57143 
1511.567749 60.107456 
1518.883423 70.222221 
1559.406128 38.720238 
1566.504272 74.390625 
1566.581299 38.920456 
1575.640869 44.777779 
1609.929565 51.135868 
1619.106079 61.014706 
1620.22229 29.1875 
1627.006348 41.07143 
1666.096558 79.420456 
1666.234009 27.0 
END IONS

BEGIN IONS
RTINSECONDS=314.527008
CHARGE=1-
MSLEVEL=2
PRECURSORINTENSITY=278467.718750
SMILES=Oc1c2c([C@@H](OC)[C@H](C)OC2=O)c(O)c2c1C(=O)C=C(OC)C2=O
INCHI=InChI=1S/C16H14O8/c1-5-15(23-3)10-11(16(21)24-5)13(19)8-6(17)4-7(22-2)12(18)9(8)14(10)20/h4-5,15,19-20H,1-3H3/t5-,15-/m0/s1
INCHIKEY=WPHIVUBMBWBSCK-SPHRHWQCSA-N
CLASS=Quinones
ADDUCT=[M-H]-
INSTRUMENT=Agilent Q-ToF 6530
PRECURSOR_MZ=333.0503
COMPOUND_NAME=Methoxyhaemoventosine
ION_MODE=negative
FORMULA=C16H14O8
103.169266 344.084503 
131.036407 840.646851 
143.048233 751.162659 
159.031509 1849.960449 
187.042084 2770.299316 
203.151993 3010.477783 
231.031128 5923.832031 
257.042572 6769.398926 
259.032318 16188.459961 
271.065491 8421.206055 
274.049438 12023.583984 
289.071564 10834.612305 
413.738495 99.171608 
417.300598 52.125 
442.495941 50.028847 
445.341675 96.041664 
447.504852 53.055557 
484.023499 48.025002 
495.372253 47.458332 
495.870667 65.004997 
496.726318 71.960106 
547.66687 56.235466 
549.543579 61.890625 
559.807068 58.0 
563.914429 67.375 
599.908813 74.344513 
614.49823 56.5 
618.388733 57.761906 
627.717896 75.358047 
653.91394 82.461067 
669.597534 62.75 
678.086548 51.25 
678.335388 52.375 
680.396973 68.01136 
734.684692 56.041668 
783.377136 52.5625 
785.848083 57.49128 
798.207336 51.173077 
814.886719 93.069443 
817.534668 69.888885 
839.661621 51.111111 
882.523132 90.007576 
883.779236 51.265625 
897.142883 36.307693 
903.132446 126.213028 
925.485535 47.694443 
947.277466 69.670456 
961.079468 111.864288 
980.869751 102.793106 
980.960938 46.349998 
1019.818359 60.227272 
1027.498657 51.244999 
1046.657349 95.80278 
1046.751953 53.265625 
1060.123657 49.816666 
1067.7229 63.125 
1096.235229 43.782406 
1128.461426 60.777779 
1150.740356 67.75 
1167.244629 166.188782 
1187.242676 96.097221 
1187.314209 66.571426 
1188.474609 72.375 
1211.746338 82.281975 
1237.166626 60.165321 
1256.163574 76.686401 
1257.996826 60.002117 
1281.950195 49.003204 
1307.596924 64.115562 
1318.798706 60.041668 
1343.648438 107.695656 
1370.098633 67.979652 
1406.070435 83.491379 
1406.820068 65.094696 
1414.675049 64.061272 
1452.114746 46.012501 
1455.603638 91.686401 
1460.422607 44.764706 
1480.948364 46.048912 
1529.285767 57.224998 
1539.046021 40.645 
1541.249146 43.560184 
1543.246216 68.0 
1582.187622 90.148811 
1590.821899 67.052635 
1606.737549 38.107758 
1636.085693 57.408333 
1638.553589 50.094696 
1657.026855 54.657608 
1661.081665 62.130436 
1686.635864 38.135868 
1689.763428 38.444443 
1693.314087 69.040001 
END IONS

BEGIN IONS
RTINSECONDS=271.023987
CHARGE=1-
MSLEVEL=2
PRECURSORINTENSITY=3181986.750000
SMILES=Cc1cc(=O)c2c(c(c(cc2o1)O)C)O
INCHI=InChI=1S/C11H10O4/c1-5-3-8(13)10-9(15-5)4-7(12)6(2)11(10)14/h3-4,12,14H,1-2H3
INCHIKEY=HMAUJNAGOIPKDG-UHFFFAOYSA-N
CLASS=Chromanes and Chromones
ADDUCT=[M-H]-
INSTRUMENT=Agilent Q-ToF 6530
PRECURSOR_MZ=205.049
COMPOUND_NAME=Eugenitol
ION_MODE=negative
FORMULA=C11H10O4
105.051674 78483.5625 
119.040497 463923.71875 
121.028534 77413.140625 
134.485016 194727.609375 
161.049377 273564.53125 
163.022842 139407.6875 
273.603333 148.777985 
315.070099 136.782608 
322.357819 171.952698 
322.427338 187.94223 
347.060028 123.077583 
356.429443 157.07753 
401.257996 227.027405 
443.321716 217.739761 
444.993591 156.201614 
446.425415 130.020462 
467.464691 136.635559 
468.661133 154.25 
523.28009 133.006256 
554.978455 108.844299 
573.498413 98.349487 
583.125244 93.532608 
597.515747 101.63269 
627.61145 115.120369 
642.55542 133.128525 
658.209229 118.926285 
663.423096 152.570312 
680.010986 148.284882 
699.864868 133.942307 
722.984192 107.796051 
769.633911 118.786766 
770.089172 120.361115 
789.365356 120.408333 
793.050781 260.309204 
817.598022 122.001663 
821.758606 123.666664 
876.008545 169.193802 
876.580444 113.723358 
887.740173 84.728447 
921.243469 127.128525 
930.290771 99.925926 
932.773315 98.25 
982.223572 108.5 
983.406006 108.008064 
999.557495 166.375 
1009.606812 142.677811 
1033.049438 116.125 
1048.762695 120.120766 
1064.365234 100.157051 
1075.451538 132.002457 
1083.657471 90.297623 
1084.564453 122.929878 
1114.290894 133.862076 
1144.535645 100.952705 
1148.61853 107.008621 
1169.485596 95.025002 
1180.704468 129.858521 
1183.890015 69.021225 
1200.999634 60.02206 
1217.565918 90.322365 
1254.449707 87.59259 
1268.756104 97.181816 
1283.080811 244.605621 
1303.356323 133.120758 
1309.46875 106.005951 
1311.44873 113.074997 
1336.44043 166.796234 
1336.533813 66.090912 
1354.690674 160.939514 
1378.673706 64.047623 
1387.805664 46.066177 
1389.70874 61.273647 
1428.852905 64.015625 
1435.45459 46.490383 
1449.818726 90.01844 
1465.27478 111.135002 
1468.718018 124.595337 
1488.993774 92.30867 
1518.887329 103.002449 
1541.085327 151.023941 
1558.92688 122.133331 
1562.895508 219.142853 
1586.383179 144.181824 
1596.052124 118.284088 
1603.986084 136.675003 
1631.451416 83.259262 
1653.888184 78.083336 
1671.638794 94.686401 
1677.561157 74.53846 
1683.180298 156.009995 
1689.868774 99.349998 
END IONS

BEGIN IONS
RTINSECONDS=317.837006
CHARGE=1-
MSLEVEL=2
PRECURSORINTENSITY=12141158.000000
SMILES=Oc1c(C(=O)Oc2cc(C)c(C(=O)O)c(O)c2)c(C)cc(O)c1
INCHI=InChI=1S/C16H14O7/c1-7-3-9(17)5-11(18)14(7)16(22)23-10-4-8(2)13(15(20)21)12(19)6-10/h3-6,17-19H,1-2H3,(H,20,21)
INCHIKEY=HEMSJKZDHNSSEW-UHFFFAOYSA-N
CLASS=Depsides (Didepsides)
ADDUCT=[M-H]-
INSTRUMENT=Agilent Q-ToF 6530
PRECURSOR_MZ=317.0617
COMPOUND_NAME=Lecanoric acid
ION_MODE=negative
FORMULA=C16H14O7
105.028076 671805.125 
123.044792 2531177.0 
149.017868 1218720.25 
167.034607 9281173.0 
167.149521 688074.9375 
168.038116 931829.125 
229.111511 7403.015625 
230.087448 1405.546387 
255.076035 3178.263672 
256.074432 415.308685 
299.081909 1137.110596 
381.087189 45.901318 
381.396576 36.0 
432.940643 153.926407 
433.437866 96.125 
454.748871 61.08654 
469.100098 87.556816 
469.297333 96.444771 
494.918396 70.246948 
520.473145 30.160715 
545.340271 79.551727 
549.347168 222.928574 
572.668335 43.375 
573.544373 58.680557 
574.301086 46.160713 
608.365723 40.125 
622.52356 77.06649 
643.547119 41.014706 
668.187927 40.720589 
685.827637 67.480263 
687.31189 33.454544 
688.546021 63.657608 
736.200134 30.0 
742.976807 26.11574 
745.861877 30.570652 
762.44281 37.035713 
777.954712 33.375 
797.835205 37.030407 
813.108826 32.0 
815.602112 38.272728 
832.37616 79.695511 
853.325195 29.408333 
857.428772 38.440216 
872.591187 27.920454 
895.59375 75.032143 
928.147949 29.375 
945.044556 36.055557 
948.905273 31.0 
964.843323 35.23077 
970.302551 39.016666 
1004.418335 42.900002 
1011.204285 56.307693 
1019.895691 33.32143 
1029.354248 40.328949 
1050.668579 36.266304 
1073.279541 324.000671 
1085.18103 50.003788 
1098.112061 32.0 
1108.391357 46.25 
1110.887695 26.25 
1151.671265 28.036291 
1172.751587 82.008621 
1177.891357 38.041668 
1192.676758 72.556816 
1205.070557 31.045 
1216.155396 56.003204 
1238.594116 33.013889 
1255.268555 44.041668 
1261.762329 32.333332 
1263.873291 27.111841 
1290.220459 26.875 
1305.083984 25.113636 
1314.327148 18.148809 
1316.817871 30.111111 
1347.554565 17.035715 
1369.621094 23.568182 
1430.566528 60.529411 
1435.127686 83.859695 
1452.848511 93.358047 
1471.337402 63.68182 
1481.073242 70.446426 
1516.89856 54.349136 
1517.567261 121.160088 
1539.046875 58.487904 
1566.202759 38.0 
1578.946655 27.041666 
1601.487671 55.799999 
1607.516602 35.0 
1609.159058 29.071428 
1647.186768 31.125 
1649.283813 45.761364 
1659.894287 77.041664 
1690.312012 42.25 
END IONS

BEGIN IONS
RTINSECONDS=283.372986
CHARGE=1-
MSLEVEL=2
PRECURSORINTENSITY=162098.656250
SMILES=O=C1OCc2c1c(cc1c2c2c(C)cc(O)cc2o1)O
INCHI=InChI=1S/C15H10O5/c1-6-2-7(16)3-10-12(6)14-8-5-19-15(18)13(8)9(17)4-11(14)20-10/h2-4,16-17H,5H2,1H3
INCHIKEY=OOXFLIUVCWLPKE-UHFFFAOYSA-N
CLASS=Dibenzofuranes
ADDUCT=[M-H]-
INSTRUMENT=Agilent Q-ToF 6530
PRECURSOR_MZ=269.0444
COMPOUND_NAME=Strepsilin
ION_MODE=negative
FORMULA=C15H10O5
101.110054 820.136047 
141.071304 10382.506836 
167.050049 11014.083008 
168.056305 8906.476562 
169.052063 13394.213867 
196.053329 11977.977539 
197.059753 33120.507812 
225.054428 12689.133789 
325.725952 60.666668 
340.304901 86.136192 
346.16864 69.030403 
349.783234 62.003048 
377.053192 60.57143 
393.159698 60.011906 
438.664001 62.002453 
454.852814 114.052963 
472.989532 49.005951 
494.09314 46.235294 
494.942871 50.040001 
512.264404 40.796051 
535.596924 45.094696 
556.429321 53.881096 
565.15979 49.693966 
611.855408 67.929878 
630.867798 153.446426 
635.000854 99.384094 
638.262756 54.339287 
663.103638 108.05896 
672.979126 59.0 
701.982666 93.6129 
708.191528 61.575001 
733.806335 52.125 
748.177551 77.764832 
751.781494 99.007812 
761.359558 76.026161 
790.371094 85.132812 
801.773438 111.19104 
826.459229 61.263157 
830.62439 224.091217 
839.783997 59.291668 
877.466492 53.183823 
889.422485 76.005432 
903.279175 31.4 
917.434326 38.799999 
920.817932 34.333332 
944.971863 29.005434 
983.46167 44.125 
999.995117 70.10714 
1003.856018 61.04348 
1005.020325 33.720238 
1023.334656 77.654068 
1061.946289 50.222221 
1068.651367 48.125 
1072.48938 47.0 
1110.610107 220.764709 
1130.416138 184.321609 
1135.635864 46.224998 
1137.455811 35.099998 
1142.633667 49.028847 
1181.398438 31.969828 
1201.831909 71.778061 
1205.710571 31.125 
1217.280151 61.107758 
1252.064941 29.444445 
1264.953369 29.6 
1268.042969 31.969828 
1275.976685 47.694443 
1276.106323 27.892857 
1336.329346 29.291666 
1336.494507 36.076923 
1349.825439 39.017857 
1361.388062 48.004311 
1365.057007 50.400002 
1394.182617 68.669441 
1396.096924 78.224998 
1432.101196 51.041668 
1446.699219 79.728447 
1452.484253 34.075001 
1458.195435 37.008335 
1473.236938 101.08036 
1491.342773 77.002548 
1505.596313 42.100807 
1523.311157 62.246952 
1549.497681 71.344513 
1556.86084 137.285446 
1576.363281 49.240383 
1583.213623 37.333332 
1602.322388 80.245689 
1620.897949 24.041666 
1632.629639 133.520264 
1648.906128 31.273649 
1680.633789 41.666668 
1691.1698 20.405001 
1695.743042 95.911362 
1695.899414 38.44643 
END IONS

BEGIN IONS
RTINSECONDS=361.722992
CHARGE=1-
MSLEVEL=2
PRECURSORINTENSITY=602084.250000
SMILES=CCCCCC(=O)Cc1cc(cc(c1C(=O)Oc1cc(c(c(c1)CC(=O)CCCCC)C(=O)O)OC)O)O
INCHI=InChI=1S/C29H36O9/c1-4-6-8-10-20(30)12-18-14-22(32)16-24(33)26(18)29(36)38-23-15-19(13-21(31)11-9-7-5-2)27(28(34)35)25(17-23)37-3/h14-17,32-33H,4-13H2,1-3H3,(H,34,35)
INCHIKEY=DGXLEDCXMIJNPJ-UHFFFAOYSA-N
CLASS=Depsides (Didepsides)
ADDUCT=[M-H]-
INSTRUMENT=Agilent Q-ToF 6530
PRECURSOR_MZ=527.2
COMPOUND_NAME=Arthoniaic acid
ION_MODE=negative
FORMULA=C29H36O9
105.46003 19215.125 
123.457832 34131.488281 
137.242935 14772.020508 
146.05069 16771.160156 
149.115753 93139.507812 
149.752838 17624.455078 
221.121674 14996.663086 
235.133179 16063.885742 
247.097137 149594.125 
248.101425 56187.503906 
265.107483 103139.289062 
266.11087 38107.730469 
279.123138 12050.792969 
326.153198 591.859009 
341.145752 1878.837646 
342.142883 1037.302979 
343.138153 262.162628 
425.758942 121.78125 
439.249542 2533.710938 
440.262756 3200.821777 
441.425018 400.843048 
586.398804 80.271736 
586.649048 112.107452 
599.112488 88.458336 
601.356689 102.003204 
608.091125 105.032143 
611.07489 88.792908 
653.409668 63.799999 
665.741638 60.041668 
718.24408 67.656815 
730.776855 64.0 
743.724915 106.198769 
750.25061 83.266304 
774.810791 144.601669 
775.754028 91.791664 
781.523315 84.878052 
794.140991 142.727936 
818.623291 137.775635 
859.820007 68.028847 
874.048523 109.08036 
882.570557 65.0 
911.072327 60.75 
927.194092 100.347221 
928.623291 59.30682 
942.277893 52.3125 
946.532654 81.781776 
997.463806 49.471153 
1000.625854 57.04348 
1003.035828 48.480263 
1003.200684 110.0 
1003.282104 51.778225 
1055.302124 56.266304 
1060.168945 62.482143 
1094.474609 52.210526 
1111.719238 79.625 
1136.492554 76.272728 
1137.537476 65.069443 
1159.385498 140.270264 
1166.950684 150.320007 
1178.745728 122.125 
1220.322998 106.042809 
1220.415283 59.521553 
1223.429077 54.520161 
1259.283936 160.684204 
1273.559082 81.9375 
1283.920166 141.147964 
1287.133667 84.515625 
1298.960938 87.530663 
1312.102051 85.25 
1327.990845 98.669441 
1359.14563 176.666672 
1369.573486 87.027435 
1379.120483 139.310349 
1402.198486 110.232689 
1408.452148 80.98349 
1410.209595 112.723213 
1462.105591 170.136368 
1466.181396 45.391129 
1471.275513 58.360294 
1474.168823 45.941177 
1474.322754 45.115742 
1509.469116 64.285713 
1536.581787 46.890625 
1555.091553 56.002274 
1557.063477 52.224998 
1563.597046 50.00338 
1575.661011 69.0 
1594.828125 52.845001 
1614.569702 104.820312 
1614.924438 66.038795 
1645.513672 78.050003 
1652.006958 122.587212 
1659.028564 54.431122 
1671.716797 58.336113 
1672.614502 48.185608 
END IONS

BEGIN IONS
RTINSECONDS=479.848999
CHARGE=1-
MSLEVEL=2
PRECURSORINTENSITY=1662406.875000
SMILES=CC(C)(C)CCCCCCCCCC1C(C(=O)O)C(C(=O)O1)C
INCHI=InChI=1S/C19H34O4/c1-14-16(17(20)21)15(23-18(14)22)12-10-8-6-5-7-9-11-13-19(2,3)4/h14-16H,5-13H2,1-4H3,(H,20,21)
INCHIKEY=NRFWTRPHJATQOB-UHFFFAOYSA-N
CLASS=Paraconic acids
ADDUCT=[M-H]-
INSTRUMENT=Agilent Q-ToF 6530
PRECURSOR_MZ=325.2304
COMPOUND_NAME=Neodihydroprotolichesterinic acid
ION_MODE=negative
FORMULA=C19H34O4
109.626389 121.131577 
113.023338 23216.884766 
113.347595 570.964355 
114.055351 1256.315308 
114.767136 132.072586 
148.804001 123.285378 
178.52066 75.333336 
199.679474 83.03846 
229.312973 84.102272 
281.245087 623481.3125 
282.21051 139110.5625 
283.246948 7020.71875 
404.883698 76.446426 
407.743683 74.714287 
413.705475 67.367645 
417.880463 99.202271 
469.835846 107.219513 
495.054016 87.757576 
537.993164 80.46154 
539.861633 101.16346 
552.429749 82.625 
560.105835 79.112503 
580.914062 113.134438 
644.138916 88.680557 
648.542053 86.149391 
678.889893 97.273651 
680.628418 147.315292 
682.768677 95.402779 
703.632935 105.694443 
722.915527 100.670456 
745.207397 90.064514 
752.867004 156.041672 
762.220764 145.903168 
768.731934 142.569031 
778.010193 89.367424 
832.59729 88.669441 
861.14856 102.236702 
861.898071 100.211205 
865.169922 114.08696 
867.257446 173.806458 
870.684814 100.603569 
918.993103 83.375 
936.101074 79.172417 
944.4599 100.013885 
965.998413 48.388889 
988.740723 79.172874 
1005.546448 72.802635 
1028.546509 93.003052 
1038.901001 48.5 
1040.664551 103.307693 
1042.938599 37.160713 
1071.634521 72.001808 
1097.94519 68.551727 
1099.181885 37.272728 
1112.844482 73.211205 
1116.660034 54.360001 
1122.852295 77.160713 
1157.348267 72.01136 
1193.652344 46.390625 
1198.364136 29.008333 
1213.545532 120.401924 
1228.992432 97.097603 
1233.458496 111.635201 
1266.235352 73.637192 
1279.718872 134.285721 
1306.995117 31.041666 
1307.17395 96.00338 
1318.980835 54.080128 
1354.115234 69.476692 
1357.495117 66.049416 
1365.894653 90.256355 
1371.981689 74.181816 
1398.206787 65.541664 
1413.846924 63.349136 
1436.231812 62.003571 
1471.009033 57.674999 
1494.832153 66.150002 
1497.8302 95.520164 
1509.831665 112.08654 
1517.432129 76.764709 
1552.179565 69.560188 
1560.990356 44.654411 
1563.792358 73.25 
1599.132812 50.360294 
1601.173096 118.010872 
1623.096313 39.205002 
1638.307251 84.028847 
1654.587769 121.704544 
1680.074951 25.086538 
1686.655884 30.692308 
1688.458862 21.020834 
1691.408936 21.111111 
END IONS

BEGIN IONS
RTINSECONDS=328.320007
CHARGE=1-
MSLEVEL=2
PRECURSORINTENSITY=24571.164062
SMILES=Oc1c(Cl)c(O)cc2c1c(=O)c1c(o2)cc(cc1C)O
INCHI=InChI=1S/C14H9ClO5/c1-5-2-6(16)3-8-10(5)13(18)11-9(20-8)4-7(17)12(15)14(11)19/h2-4,16-17,19H,1H3
INCHIKEY=VFXXISJCBGVCJF-UHFFFAOYSA-N
CLASS=Xanthones and bis-Xanthones
ADDUCT=[M-H]-
INSTRUMENT=Agilent Q-ToF 6530
PRECURSOR_MZ=290.9989
COMPOUND_NAME=2-Chloronorlichexanthone
ION_MODE=negative
FORMULA=C14H9ClO5
100.535744 109.939392 
110.905365 92.226852 
115.054855 240.5728 
117.047775 118.125 
118.066528 119.586037 
143.049591 356.252838 
171.040695 164.415237 
183.113739 267.221466 
199.038635 1464.496704 
200.042603 321.004028 
227.032654 2338.201416 
228.100189 341.975311 
256.029144 244.429764 
348.11676 55.375 
385.322876 46.048912 
399.896057 100.003204 
400.462311 63.595589 
403.432587 44.242645 
417.217834 52.520832 
446.145844 128.439026 
458.14978 77.089996 
468.066376 66.669441 
469.553802 61.75 
474.716461 52.722221 
503.277161 64.133064 
533.616089 37.08654 
541.209961 44.240383 
546.003784 51.75 
549.067932 40.083332 
605.434082 35.135868 
626.836426 47.0 
631.764465 64.901314 
640.657227 60.367645 
646.870605 44.003571 
662.59375 45.969826 
675.838318 165.858337 
705.778442 37.449074 
712.473816 74.492348 
757.870056 52.670456 
758.291748 107.881096 
770.193542 88.049606 
774.87085 80.027435 
800.751038 94.335526 
815.468567 49.191177 
833.66394 38.907257 
839.248047 34.083332 
857.366211 46.07143 
875.904358 69.599998 
878.071106 33.0 
897.710938 52.75 
910.351257 30.9 
926.312378 24.408333 
957.410706 53.816666 
976.989258 87.911362 
1000.023132 79.259613 
1013.735413 63.16 
1048.190918 66.449074 
1049.938477 44.482143 
1058.623779 43.041668 
1113.293335 61.842106 
1120.973267 66.490387 
1124.459961 104.125 
1126.021484 50.674999 
1135.564819 58.720589 
1148.585815 51.605 
1203.785034 53.402779 
1207.686401 43.244999 
1208.75769 50.160713 
1244.113892 36.022728 
1265.692871 63.471153 
1292.305054 56.55682 
1295.986694 103.53186 
1305.83252 83.5625 
1308.089966 42.326614 
1318.767822 54.07143 
1346.784058 35.449074 
1369.738281 29.901316 
1373.470093 70.118423 
1381.693115 30.0 
1433.356201 73.224998 
1460.168213 27.778847 
1462.249268 28.0 
1466.045776 28.011364 
1471.169556 30.322369 
1496.652954 69.041664 
1521.902954 64.384094 
1523.777832 61.289288 
1550.132935 26.654411 
1554.952881 24.285715 
1570.970093 61.347221 
1589.050293 39.599998 
1610.519043 39.004311 
1646.658081 30.777779 
1647.020752 26.1 
1652.265259 33.035713 
1656.650391 37.183823 
1668.249756 22.03125 
END IONS

BEGIN IONS
RTINSECONDS=426.471985
CHARGE=1-
MSLEVEL=2
PRECURSORINTENSITY=6162060.500000
SMILES=Oc1c(C(=O)Oc2c(O)cc(c(C(=O)OC)c2O)CCC)c(CCC)cc(OC)c1
INCHI=InChI=1S/C22H26O8/c1-5-7-12-9-14(28-3)11-15(23)17(12)22(27)30-20-16(24)10-13(8-6-2)18(19(20)25)21(26)29-4/h9-11,23-25H,5-8H2,1-4H3
INCHIKEY=CFXORXZRGPTGFD-UHFFFAOYSA-N
CLASS=Depsides (Didepsides)
ADDUCT=[M-H]-
INSTRUMENT=Agilent Q-ToF 6530
PRECURSOR_MZ=417.1498
COMPOUND_NAME=Scrobiculin
ION_MODE=negative
FORMULA=C22H26O8
107.016815 98859.398438 
109.037544 47922.996094 
137.040771 71571.179688 
149.060471 846492.125 
165.055237 1177114.875 
166.065536 155288.875 
193.050522 4349866.0 
193.214523 297425.4375 
194.053894 669899.8125 
225.077179 1591806.875 
226.082291 253451.875 
282.127167 4196.272461 
297.077179 4092.949463 
297.1474 5916.232422 
298.151184 2507.191406 
341.13855 23125.431641 
342.140442 6788.313965 
385.12912 182689.921875 
386.13092 64565.078125 
501.921722 31.225 
511.887024 94.89286 
522.279114 24.875 
523.816833 29.164474 
597.750061 26.28409 
604.579529 208.419998 
611.428223 26.208334 
613.366943 38.003788 
631.635986 89.571426 
638.209778 62.644737 
678.217285 87.320122 
683.748657 34.521553 
707.489136 47.892857 
716.657654 99.882355 
737.91571 21.09091 
754.422302 25.556818 
775.004517 51.017857 
775.093262 28.920454 
836.349854 28.778847 
849.031433 49.0 
849.097717 25.011364 
849.211182 21.242647 
888.898499 164.53334 
889.047607 32.16346 
903.591248 43.017857 
908.760681 204.333328 
926.734314 28.09091 
930.246338 166.040176 
994.009521 39.142857 
1018.121338 58.450001 
1034.024536 177.219513 
1035.532104 77.071426 
1041.95874 66.625 
1048.674927 39.013889 
1094.861572 34.150002 
1095.137939 52.555557 
1117.038452 55.450001 
1130.508301 18.674999 
1156.983032 18.0 
1190.210327 29.163462 
1202.727539 33.027779 
1206.960693 36.570652 
1211.406128 20.1875 
1233.509155 26.0 
1243.366089 17.5625 
1262.013184 18.007353 
1299.972534 163.290817 
1321.435913 24.680555 
1350.570068 81.760414 
1352.741943 83.271736 
1352.874023 29.083334 
1362.137695 22.008333 
1399.559937 36.016666 
1431.700684 16.027779 
1431.805298 23.9 
1444.660034 40.361111 
1463.345459 18.125 
1507.894897 45.211208 
1518.618286 198.191452 
1537.519287 53.032143 
1539.403442 31.6875 
1540.56958 177.405899 
1549.27478 45.625 
1588.644409 24.004032 
1593.913452 15.053572 
1598.442993 214.61734 
1648.442627 12.28125 
1653.098267 11.5625 
1657.301636 47.083332 
1674.540283 15.048913 
1685.249756 13.022727 
1689.102051 17.5 
END IONS

BEGIN IONS
RTINSECONDS=16.709
CHARGE=1-
MSLEVEL=2
PRECURSORINTENSITY=1525324.125000
SMILES=OC[C@@H](O)[C@@H](O)C(O)[C@H](O)[C@H](O)CO
INCHI=InChI=1S/C7H16O7/c8-1-3(10)5(12)7(14)6(13)4(11)2-9/h3-14H,1-2H2/t3-,4-,5-,6-/m1/s1
INCHIKEY=OXQKEKGBFMQTML-KVTDHHQDSA-N
CLASS="Polyols, Monosaccharides, Carbohydrates"
ADDUCT=[M-H]-
INSTRUMENT=Agilent Q-ToF 6530
PRECURSOR_MZ=211.0818
COMPOUND_NAME=Volemitol
ION_MODE=negative
FORMULA=C7H16O7
101.023842 219825.453125 
113.153572 33491.777344 
115.029633 19532.335938 
119.02314 100505.328125 
130.997742 37562.933594 
149.062042 29223.457031 
193.082703 149203.140625 
194.081192 15071.357422 
292.609741 93.260414 
302.558258 119.0625 
314.998199 80.840118 
315.605225 123.63269 
316.389221 90.787163 
334.108551 123.917168 
377.628693 148.689651 
377.73761 109.662231 
379.94986 110.653847 
387.429504 126.297836 
405.501373 129.005951 
435.536926 98.215424 
457.223999 162.938889 
464.424133 78.520836 
466.33313 110.375 
475.509735 78.041664 
484.482147 89.490387 
518.812073 49.320122 
519.581665 55.0 
551.028137 73.100609 
573.195435 108.654411 
583.564026 75.08696 
592.467468 108.133331 
595.357178 81.841217 
602.633972 131.160721 
607.585571 111.920921 
634.833069 149.365265 
656.296204 103.565216 
673.296631 91.30867 
675.196472 91.111115 
699.946411 99.578575 
704.012024 139.114288 
745.64978 75.644997 
773.886047 54.78125 
806.440247 107.241379 
812.263 76.125 
825.715027 111.796051 
827.511475 264.024994 
861.599609 94.271736 
870.440918 99.351746 
882.255737 77.181816 
888.848938 91.409088 
928.411377 50.022728 
946.200134 63.347221 
950.403198 102.009262 
966.842224 182.964508 
984.970093 107.088768 
1005.015442 105.967102 
1011.01593 98.002907 
1041.940918 99.402779 
1043.992676 186.526321 
1062.448608 141.014618 
1095.286987 83.410004 
1113.192139 63.26535 
1119.083008 45.0 
1122.790771 43.25 
1137.505981 90.040092 
1175.476685 82.414215 
1177.270996 51.075001 
1181.921997 98.321426 
1192.895142 97.040001 
1222.251587 90.227272 
1250.990234 74.035713 
1252.298096 95.002907 
1283.199463 210.014999 
1285.653809 72.285713 
1293.333008 74.782608 
1368.255981 56.280174 
1376.496948 52.490383 
1377.425537 141.29657 
1381.189575 77.640152 
1405.93457 79.006577 
1407.807495 112.972977 
1429.17749 41.289288 
1453.509644 70.583336 
1482.203735 54.455647 
1495.313354 49.845001 
1520.102295 135.001465 
1522.20813 81.25 
1527.438843 69.574997 
1552.791138 53.23077 
1554.396606 47.022728 
1594.037109 100.058823 
1604.906982 66.0 
1608.114746 103.756248 
1608.64917 53.888889 
1609.613281 118.214996 
1635.579102 64.125 
1692.641357 161.011368 
1692.698242 27.211206 
1698.550293 32.083332 
END IONS

BEGIN IONS
RTINSECONDS=391.987
CHARGE=1-
MSLEVEL=2
PRECURSORINTENSITY=713007.312500
SMILES=Cc1c(c(O)cc(O)c1)C(=O)Oc1cc(O)c(C(=O)Oc2cc(O)c(C(=O)O)c(C)c2)c(C)c1
INCHI=InChI=1S/C24H20O10/c1-10-4-13(25)7-16(26)20(10)23(31)34-15-6-12(3)21(18(28)9-15)24(32)33-14-5-11(2)19(22(29)30)17(27)8-14/h4-9,25-28H,1-3H3,(H,29,30)
INCHIKEY=ATQPZSQVWCPVGV-UHFFFAOYSA-N
CLASS=Depsides (Tridepsides)
ADDUCT=[M-H]-
INSTRUMENT=Agilent Q-ToF 6530
PRECURSOR_MZ=467.0851
COMPOUND_NAME=Gyrophoric acid
ION_MODE=negative
FORMULA=C24H20O10
105.033997 15204.363281 
106.083946 1737.601685 
123.044701 78199.890625 
124.19503 9355.345703 
149.023666 66909.179688 
167.034088 403149.53125 
168.037231 61463.203125 
229.087677 516.031433 
255.063416 2018.296997 
256.064972 404.74292 
299.056366 2135.071045 
300.05658 608.100159 
317.063324 283292.6875 
318.066345 94975.007812 
319.069031 11521.490234 
384.657471 62.785713 
387.755341 156.40834 
414.625122 110.034485 
521.435669 74.979652 
560.83728 69.022728 
579.551697 65.006577 
594.041321 73.787163 
597.153137 61.532894 
639.90448 164.405899 
663.819031 87.094231 
664.872009 101.346313 
676.942871 89.675003 
680.821411 90.480766 
718.586548 115.977943 
766.230591 60.012501 
768.163635 64.842102 
784.529724 101.761902 
793.881287 65.888885 
795.9823 80.132355 
870.302856 51.003788 
872.987427 81.400002 
877.580627 52.432144 
903.3125 79.679054 
906.838745 80.063774 
943.231323 80.926285 
944.124939 150.125 
946.615784 97.817307 
985.823486 100.0 
997.588684 81.052635 
999.744507 79.820312 
1003.390015 80.142441 
1024.745972 81.49128 
1073.322144 128.422409 
1099.59314 50.027779 
1110.920898 63.190475 
1121.85083 60.222221 
1148.165161 121.00676 
1153.771118 91.355392 
1162.021729 56.222221 
1173.626587 98.102272 
1205.044922 77.157051 
1208.043579 54.842106 
1225.499634 42.778847 
1226.481567 59.03125 
1233.14978 80.26667 
1283.639038 98.480072 
1291.9552 154.15921 
1299.578369 58.640152 
1316.741821 67.063774 
1341.07605 79.803574 
1351.411133 79.185608 
1376.504883 61.485294 
1405.083008 104.232689 
1415.657715 71.315216 
1424.951904 180.072052 
1437.954834 74.671295 
1474.436157 104.111366 
1480.828125 82.561043 
1491.26001 69.01667 
1532.341553 93.26651 
1543.829834 87.47406 
1570.086426 138.481674 
1592.048096 77.01136 
1603.194702 83.040001 
1608.254028 100.049416 
1621.444336 92.074997 
1632.084106 58.907257 
1683.930786 70.694443 
1683.991455 59.222828 
1686.723999 68.708336 
1696.280273 81.920456 
END IONS

BEGIN IONS
RTINSECONDS=480.287994
CHARGE=1-
MSLEVEL=2
PRECURSORINTENSITY=1735282.125000
SMILES=CCCCCCCCCCCCC[C@@H]1[C@@H](C(=O)O)[C@H](C)C(=O)O1
INCHI=InChI=1S/C19H34O4/c1-3-4-5-6-7-8-9-10-11-12-13-14-16-17(18(20)21)15(2)19(22)23-16/h15-17H,3-14H2,1-2H3,(H,20,21)/t15-,16+,17-/m0/s1
INCHIKEY=WLGALFYTFVOQPY-BBWFWOEESA-N
CLASS=Paraconic acids
ADDUCT=[M-H]-
INSTRUMENT=Agilent Q-ToF 6530
PRECURSOR_MZ=325.2295
COMPOUND_NAME=Roccellaric acid
ION_MODE=negative
FORMULA=C19H34O4
110.75798 234.063049 
113.012947 32998.464844 
113.14019 847.9375 
114.003166 2011.248779 
115.034653 221.025635 
177.69928 205.449631 
182.710419 115.25 
183.286606 112.778847 
214.425705 108.625 
281.248779 631928.3125 
282.251099 140602.046875 
283.25592 5780.246094 
401.240662 85.032143 
422.206421 79.145409 
445.521637 82.208336 
447.421631 92.063774 
458.47464 117.639999 
476.836945 84.025002 
489.150665 92.336113 
505.135834 105.271736 
511.153381 109.336113 
526.906738 90.926285 
528.152832 82.406914 
571.095398 187.080353 
575.196838 80.003571 
585.230469 106.656609 
611.278687 121.416664 
625.862549 81.3629 
642.300659 132.0 
654.479797 79.41346 
683.08783 84.721153 
697.494385 72.939514 
706.09906 70.1875 
706.83136 70.17794 
712.460999 82.013161 
717.144775 74.003571 
764.275146 84.23214 
764.89679 106.321426 
797.217407 102.061272 
807.487671 249.421051 
815.846619 153.911362 
818.983276 83.288269 
822.934326 147.1875 
832.760315 90.64286 
866.396301 74.025002 
879.813477 50.39674 
892.781921 39.76923 
904.419434 83.111366 
932.23584 41.289288 
936.044373 74.25 
956.14325 40.148811 
986.913452 90.315788 
988.268188 79.224998 
997.312134 53.578949 
1028.478516 148.36171 
1030.820801 54.375 
1041.234131 62.023937 
1085.15564 27.408333 
1107.679077 81.49128 
1126.850098 22.208334 
1132.394287 62.27174 
1157.427124 98.63636 
1171.485596 24.053572 
1201.548462 42.640152 
1223.680786 32.048912 
1223.882812 86.71627 
1245.422485 73.246948 
1269.949585 36.307693 
1289.188477 32.570652 
1301.658081 38.004631 
1338.250854 77.355766 
1344.225464 43.058823 
1356.335205 37.889706 
1357.274414 77.185608 
1389.645508 105.007576 
1424.780518 24.694445 
1429.012451 28.020834 
1429.066162 21.666666 
1466.438965 81.041664 
1483.807251 74.63636 
1485.147827 48.81818 
1538.558105 82.685974 
1541.98291 55.75 
1542.183472 83.595589 
1542.625977 45.066177 
1603.415039 83.160088 
1605.200195 60.185608 
1605.4823 71.489998 
1620.88916 115.80645 
1652.845093 80.68145 
1678.655762 19.005953 
1686.519775 57.125 
1686.5979 25.5 
1686.919434 17.889706 
END IONS

BEGIN IONS
RTINSECONDS=425.175995
CHARGE=1-
MSLEVEL=2
PRECURSORINTENSITY=878351.250000
SMILES=O=C1c2c(C)cc(O)c(C=O)c2Oc2c(O1)c(c(c(c2C)C(=O)O)O)C
INCHI=InChI=1S/C18H14O8/c1-6-4-10(20)9(5-19)16-11(6)18(24)26-15-8(3)13(21)12(17(22)23)7(2)14(15)25-16/h4-5,20-21H,1-3H3,(H,22,23)
INCHIKEY=FOKAHYDSEWGOHN-UHFFFAOYSA-N
CLASS=Depsidones
ADDUCT=[M-H]-
INSTRUMENT=Agilent Q-ToF 6530
PRECURSOR_MZ=357.0578
COMPOUND_NAME=Virensic acid
ION_MODE=negative
FORMULA=C18H14O8
107.025124 3757.918945 
123.042717 2754.13623 
150.020599 3942.401123 
151.03894 5330.023926 
213.057068 22522.611328 
229.050339 37389.511719 
241.086288 14671.373047 
257.048248 11015.850586 
269.080536 102802.226562 
270.087524 24072.652344 
313.071411 77878.523438 
314.060059 17508.773438 
339.052246 8861.308594 
441.89798 90.0839 
448.884491 103.214996 
463.586731 69.669441 
465.680237 83.19104 
494.57959 96.911362 
518.242432 71.890625 
547.516296 127.959213 
555.131958 70.800003 
592.170227 85.723213 
603.854736 70.537788 
606.699341 76.003784 
612.938904 107.026161 
628.205811 68.094696 
630.159119 86.470589 
652.635742 66.227272 
703.143921 89.408783 
714.711426 68.83696 
732.80127 87.355392 
747.683899 83.011902 
777.509094 54.125 
786.408936 72.041664 
854.399048 54.25 
858.25647 69.195312 
861.694702 59.816666 
874.461121 60.084461 
879.524719 70.644737 
896.020691 58.157051 
935.670654 56.367645 
936.724731 54.680557 
951.675842 61.112499 
964.503174 65.685974 
974.797363 60.222221 
1024.581543 103.382355 
1027.616211 52.036289 
1043.895752 57.541668 
1048.775757 197.1875 
1050.308105 54.400002 
1089.50647 59.245689 
1097.883057 58.816666 
1106.508179 60.692307 
1115.807373 57.923077 
1116.29834 79.599998 
1116.553955 72.040001 
1166.220947 44.012501 
1168.103638 54.375 
1199.220215 61.640152 
1232.382568 50.6875 
1233.547729 47.211208 
1242.130005 50.016666 
1281.340088 56.245689 
1320.15979 82.967102 
1320.62793 57.714287 
1333.020264 60.185608 
1348.891724 60.760136 
1355.492065 58.017857 
1369.302856 93.0 
1383.297119 51.322369 
1413.023193 54.0625 
1423.980225 59.164474 
1447.787598 75.0 
1466.561157 40.337963 
1481.085083 56.489864 
1482.708618 42.197582 
1485.596191 42.125 
1539.970459 57.08654 
1552.81604 52.560184 
1567.397949 76.0 
1582.93811 69.728447 
1589.369141 64.761902 
1620.555664 78.125 
1621.773438 109.964622 
1643.838745 60.142242 
1656.60144 64.289284 
1670.83374 60.135868 
1671.505615 76.25 
1676.999512 44.003788 
END IONS

BEGIN IONS
RTINSECONDS=317.440002
CHARGE=1-
MSLEVEL=2
PRECURSORINTENSITY=67765.476562
SMILES=Cc1cc(O)c2c(c1)C(=O)c1c(C2=O)c(cc(c1)OC)O
INCHI=InChI=1S/C16H12O5/c1-7-3-9-13(11(17)4-7)16(20)14-10(15(9)19)5-8(21-2)6-12(14)18/h3-6,17-18H,1-2H3
INCHIKEY=FFWOKTFYGVYKIR-UHFFFAOYSA-N
CLASS=Quinones
ADDUCT=[M-H]-
INSTRUMENT=Agilent Q-ToF 6530
PRECURSOR_MZ=283.06
COMPOUND_NAME=Parietin
ION_MODE=negative
FORMULA=C16H12O5
129.048645 68.881096 
171.073151 215.920456 
182.020813 429.032135 
183.047073 714.459229 
199.050934 735.502625 
238.996902 1328.204224 
240.043274 2435.017822 
254.0103 614.094971 
255.009354 1854.051025 
344.734009 79.118423 
351.952057 55.778061 
366.986084 89.595337 
379.215179 54.173912 
407.526062 59.0 
411.338745 68.289284 
454.59079 38.5 
461.708588 47.894737 
472.685425 38.125 
475.943176 43.0 
492.731659 59.390625 
518.280396 46.529411 
546.851746 83.361115 
547.342896 86.469444 
556.568359 45.004311 
561.422974 40.445 
571.593445 54.100807 
612.310852 129.960617 
630.679077 30.272728 
657.355774 32.5 
671.500122 30.013889 
673.89209 45.400002 
685.023804 44.090908 
709.992615 29.799999 
713.178711 91.595337 
751.150085 29.84091 
773.784119 41.39674 
781.465454 20.066668 
798.333984 43.222221 
821.389893 77.723213 
835.050598 25.13587 
839.156372 24.1 
853.789551 31.005434 
876.720093 82.145409 
915.737854 31.0 
917.302979 28.440218 
922.554993 30.041666 
931.326477 42.532894 
983.159058 24.027779 
992.518921 25.285715 
995.631348 46.671295 
1000.682617 32.361111 
1002.677002 77.375 
1002.757019 26.0 
1039.829834 93.45153 
1047.761475 25.022728 
1076.433716 22.0 
1087.952637 42.285713 
1106.851196 88.133064 
1139.631592 19.160715 
1172.61499 30.25 
1180.416016 26.053572 
1196.941162 58.058823 
1202.758057 28.111111 
1221.579834 29.805 
1224.321777 49.529411 
1237.746948 48.882355 
1268.7854 40.599998 
1291.815796 27.520834 
1298.433228 29.918478 
1332.010742 24.961956 
1343.022583 49.779411 
1354.811279 40.265625 
1378.943237 28.892857 
1395.274048 29.0 
1405.483032 38.625 
1424.395996 87.061272 
1452.110596 33.599998 
1456.042725 131.456818 
1463.301025 40.816666 
1465.365112 47.020832 
1502.171265 22.570652 
1536.492432 33.25 
1568.930786 69.160713 
1573.017822 43.005951 
1588.596924 81.28125 
1598.948608 93.879036 
1603.632202 59.025002 
1605.818604 59.003204 
1663.5354 37.059212 
1677.282471 30.020834 
1681.154175 29.160715 
1691.741577 32.625 
END IONS

BEGIN IONS
RTINSECONDS=425.196014
CHARGE=1-
MSLEVEL=2
PRECURSORINTENSITY=6316882.000000
SMILES=CC(=O)CCCCCCCCCCCCC[C@@H]1OC(=O)C(=C)[C@@H]1C(=O)O
INCHI=InChI=1S/C21H34O5/c1-16(22)14-12-10-8-6-4-3-5-7-9-11-13-15-18-19(20(23)24)17(2)21(25)26-18/h18-19H,2-15H2,1H3,(H,23,24)/t18-,19-/m0/s1
INCHIKEY=SKQHRBRVCRUFSX-OALUTQOASA-N
CLASS=Paraconic acids
ADDUCT=[M-H]-
INSTRUMENT=Agilent Q-ToF 6530
PRECURSOR_MZ=365.2256
COMPOUND_NAME=allo-Pertusaric acid
ION_MODE=negative
FORMULA=C21H34O5
109.054726 2164.313477 
113.133102 1290.673462 
123.099159 3141.814453 
169.15863 32623.613281 
170.149857 4217.375 
183.175293 15347.272461 
195.173141 4897.309082 
207.20694 12530.573242 
209.190231 8455.49707 
223.205139 11497.019531 
261.220337 11592.81543 
277.25235 1510407.25 
278.255157 425894.40625 
279.256287 22310.933594 
321.240448 1045810.5625 
322.243713 278982.90625 
448.306152 98.720238 
456.39856 92.917557 
490.287964 48.005951 
498.613617 48.785713 
518.005188 107.173851 
525.392578 136.431961 
544.485352 121.941177 
563.016357 204.120102 
580.938965 78.223686 
582.669434 56.640152 
591.327454 96.875 
592.986938 57.5 
635.640015 51.083332 
658.674805 65.080132 
659.733276 48.720238 
702.888123 114.445312 
719.554077 57.346153 
721.861755 102.088768 
737.713074 164.678757 
754.210205 40.280174 
755.294067 61.002907 
803.807251 99.16346 
814.624573 50.75 
848.721375 100.129036 
855.861511 30.01923 
872.084595 55.115742 
896.651245 43.842106 
898.535034 32.440216 
912.278442 28.004032 
926.219604 49.603573 
966.952576 87.0 
998.265259 123.041664 
1001.817322 54.636364 
1003.660522 116.020454 
1014.867432 116.340279 
1023.392822 144.578568 
1054.040161 119.453766 
1068.234619 36.111111 
1094.557739 289.753113 
1115.419189 53.224998 
1124.484863 181.02063 
1130.442993 40.0 
1165.575806 83.671295 
1168.811768 248.1362 
1192.845825 55.693966 
1216.880737 47.005951 
1227.024048 46.185608 
1262.301636 30.113636 
1266.269897 96.146736 
1280.924072 38.307693 
1290.995239 29.487904 
1316.186768 29.923077 
1348.660156 36.640152 
1352.20459 42.245689 
1356.367188 41.923077 
1387.489502 49.408783 
1409.078491 126.177635 
1438.467651 64.272728 
1440.481934 64.066666 
1481.351074 35.471153 
1502.151001 100.29657 
1502.360229 39.671295 
1533.333008 57.777779 
1540.018433 52.173077 
1550.943848 109.029411 
1561.599121 50.200001 
1573.828369 58.692307 
1583.640625 76.0 
1612.641113 26.5 
1635.615112 34.432144 
1640.937378 25.487904 
1666.797729 55.802631 
1683.516602 25.242647 
1698.18689 24.5 
END IONS

BEGIN IONS
RTINSECONDS=438.316986
CHARGE=1-
MSLEVEL=2
PRECURSORINTENSITY=2642457.750000
SMILES=Oc1cc(OC(=O)c2c(O)cc(OC)cc2CCC(=O)CC)cc(CCCCC)c1C(=O)O
INCHI=InChI=1S/C25H30O8/c1-4-6-7-8-15-12-19(14-20(27)22(15)24(29)30)33-25(31)23-16(9-10-17(26)5-2)11-18(32-3)13-21(23)28/h11-14,27-28H,4-10H2,1-3H3,(H,29,30)
INCHIKEY=UCYIOAVHQGSYLP-UHFFFAOYSA-N
CLASS=Depsides (Didepsides)
ADDUCT=[M-H]-
INSTRUMENT=Agilent Q-ToF 6530
PRECURSOR_MZ=457.1809
COMPOUND_NAME=Miriquidic acid
ION_MODE=negative
FORMULA=C25H30O8
105.067902 12423.385742 
135.12085 37417.078125 
137.098923 53922.988281 
161.174622 158698.453125 
179.108017 476060.25 
205.087158 1157001.625 
206.09021 247784.203125 
223.097748 1224217.5 
224.100952 243227.859375 
251.168091 61350.53125 
297.151917 5882.476562 
298.158875 2760.843018 
353.144562 4074.570557 
354.18576 1470.422607 
369.207001 11156.140625 
370.212219 4527.507324 
526.80896 60.657608 
543.141418 60.291668 
556.283997 90.595337 
587.08844 71.25798 
590.997803 97.440216 
594.723572 184.524078 
600.802734 117.008331 
611.743042 57.845001 
643.149597 59.969826 
670.367737 111.179794 
678.285339 47.025002 
696.274597 43.055557 
700.004761 77.360847 
748.400818 46.004032 
754.813538 34.5 
767.566345 45.160713 
782.207825 47.041668 
805.136108 64.796051 
817.11261 111.219597 
817.883606 126.476692 
856.683228 65.458336 
872.07489 49.24662 
873.49884 111.063774 
881.86615 125.520569 
921.947937 58.939518 
944.732727 33.900002 
963.030579 139.879028 
984.081543 56.80357 
996.528687 106.551727 
1006.952148 62.367424 
1023.297852 122.059212 
1026.52771 57.778847 
1044.782837 79.640152 
1078.559814 195.314133 
1104.307251 43.012501 
1111.445068 48.432144 
1118.628784 63.390625 
1137.608887 48.645 
1161.447021 40.367424 
1162.067627 40.075001 
1198.007935 60.208332 
1207.750732 84.175003 
1235.967041 61.450001 
1236.259399 118.816864 
1248.680298 100.451614 
1275.200562 55.551472 
1287.912964 52.765625 
1301.33728 118.08654 
1317.90271 44.150002 
1337.902344 63.049999 
1360.049561 38.454544 
1376.678711 131.013229 
1411.332642 54.454544 
1426.447998 59.011906 
1434.572876 64.375 
1438.64624 154.892853 
1458.882812 121.25 
1497.187744 60.174999 
1516.648682 115.760056 
1530.876831 53.34375 
1531.900879 60.0 
1534.128906 47.265625 
1568.513062 45.400002 
1594.347412 126.070404 
1617.747681 48.391304 
1635.134644 58.326614 
1642.87085 109.079544 
1647.861084 48.375 
1666.210815 42.090908 
1680.444458 62.00658 
1684.735229 30.148809 
END IONS

BEGIN IONS
RTINSECONDS=473.320007
CHARGE=1-
MSLEVEL=2
PRECURSORINTENSITY=195224.421875
SMILES=CC12CCC(O)C(C)(C)C1CCC1(C)C2CC=C2[C@@]1(C)CCC1(CC[C@@H](C)C(C)C21)C(=O)O
INCHI=InChI=1S/C30H48O3/c1-18-10-15-30(25(32)33)17-16-28(6)20(24(30)19(18)2)8-9-22-27(5)13-12-23(31)26(3,4)21(27)11-14-29(22,28)7/h8,18-19,21-24,31H,9-17H2,1-7H3,(H,32,33)/t18-,19?,21?,22?,23?,24?,27?,28-,29?,30?/m1/s1
INCHIKEY=WCGUUGGRBIKTOS-JHRHMJACSA-N
CLASS=Terpenoids : Triterpenes
ADDUCT=[M-H]-
INSTRUMENT=Agilent Q-ToF 6530
PRECURSOR_MZ=455.339
COMPOUND_NAME=Ursolic acid
ION_MODE=negative
FORMULA=C30H48O3
107.803101 81.969261 
138.758896 54.232143 
160.343674 59.297619 
171.45575 83.0 
171.621902 73.45153 
200.073196 101.083336 
201.182938 120.166664 
217.771118 79.367424 
226.966309 79.05896 
239.655487 76.842102 
251.5336 63.003048 
275.011566 160.213379 
303.575104 57.041668 
323.436096 59.048912 
329.961395 57.603573 
349.534607 75.489868 
392.283997 85.964622 
401.081909 60.112499 
407.316437 622.886414 
540.907104 52.032143 
550.801025 80.002777 
581.857117 113.845001 
591.299438 121.510414 
628.866577 65.01667 
641.031616 105.440002 
650.112427 66.030403 
660.700928 68.01136 
692.380432 49.728447 
705.180542 81.851418 
737.742798 62.336113 
764.317322 84.675926 
775.778564 72.14286 
797.167358 79.769234 
806.548279 75.556816 
827.890564 108.727943 
832.81134 129.715912 
855.294983 51.125 
866.331543 57.0 
875.161133 53.347221 
882.315491 50.875 
929.767883 65.055557 
939.088989 50.016666 
962.974182 100.793106 
980.585571 82.449074 
986.214172 40.473682 
1016.80658 56.014706 
1038.042114 94.625 
1049.253906 163.911362 
1055.702271 55.881096 
1093.244629 101.510414 
1096.110962 51.657608 
1137.190796 46.48077 
1137.341431 55.025002 
1171.118774 49.361111 
1171.180542 35.208332 
1206.814941 47.485294 
1213.173706 89.445312 
1244.126831 95.941177 
1271.016235 43.032143 
1281.51001 62.875 
1295.114136 55.778225 
1312.10376 94.484848 
1333.937988 97.449997 
1335.886841 91.225807 
1335.960938 48.044998 
1354.100342 56.284092 
1387.601807 69.530663 
1408.541382 72.023933 
1409.024414 49.779411 
1437.226685 40.645 
1448.464478 47.485294 
1478.089355 35.011364 
1531.334961 33.333332 
1544.243286 59.263157 
1560.052734 66.889709 
1572.761963 43.009617 
1576.54187 42.1875 
1590.689697 46.5 
1592.3302 42.400002 
1626.765869 98.086266 
1661.534424 37.361111 
1663.361328 98.395164 
1681.234253 81.04808 
1691.900513 56.560184 
1697.436157 29.450001 
END IONS

BEGIN IONS
RTINSECONDS=380.709015
CHARGE=1-
MSLEVEL=2
PRECURSORINTENSITY=5514138.500000
SMILES=Cc1cc(c(c(c1C(=O)O)O)C)OC(=O)c1c(c(c(cc1C)OC)C=O)O
INCHI=InChI=1S/C19H18O8/c1-8-5-12(10(3)16(21)14(8)18(23)24)27-19(25)15-9(2)6-13(26-4)11(7-20)17(15)22/h5-7,21-22H,1-4H3,(H,23,24)
INCHIKEY=DUIBXZLCROUOFD-UHFFFAOYSA-N
CLASS=Depsides (Didepsides)
ADDUCT=[M-H]-
INSTRUMENT=Agilent Q-ToF 6530
PRECURSOR_MZ=373.0833
COMPOUND_NAME=Baeomycesic acid
ION_MODE=negative
FORMULA=C19H18O8
119.050209 396672.8125 
120.053055 41189.175781 
137.060547 890302.4375 
163.039795 1086710.875 
181.050323 3661085.5 
181.169586 240326.421875 
182.053604 442573.59375 
209.044922 148360.984375 
242.092651 1919.042603 
257.116272 1837.568604 
267.094238 1247.682373 
285.111389 9873.338867 
286.115051 1707.115479 
311.090149 1039.668701 
329.101959 30701.925781 
453.085876 94.654068 
484.192749 129.5 
505.547821 116.669441 
545.263855 129.371918 
549.525696 212.17308 
550.596313 112.881668 
566.604675 106.666664 
585.745789 188.889282 
611.681396 67.679054 
618.067322 105.610001 
667.557861 95.530663 
670.37561 160.0 
689.13855 107.583336 
706.188904 90.456894 
718.842041 88.142441 
789.506592 108.100349 
814.992554 114.941177 
846.582703 143.777939 
862.554199 90.020836 
881.671631 105.210526 
914.255371 58.102272 
922.290039 58.190475 
926.448303 61.25 
944.875549 79.976349 
949.918274 114.920082 
966.121216 98.481483 
991.338562 83.875 
1002.149231 72.0625 
1043.109863 59.778225 
1051.735718 125.007576 
1084.826416 61.038792 
1142.387451 81.26667 
1172.640869 106.165543 
1180.142822 93.034485 
1192.055298 77.01786 
1317.258911 126.432144 
1340.883057 74.08696 
1347.507935 116.920456 
1358.364014 146.375 
1412.572998 106.235466 
1423.0979 88.281975 
1426.494995 133.53186 
1481.230713 281.888245 
1488.243164 95.030304 
1494.271118 147.064514 
1518.383667 114.142242 
1548.959839 88.314285 
1629.491821 57.721153 
1641.634277 180.736847 
1650.136353 89.882355 
1657.215942 89.911362 
1680.629883 95.166046 
END IONS

BEGIN IONS
RTINSECONDS=350.345001
CHARGE=1-
MSLEVEL=2
PRECURSORINTENSITY=23361.337891
SMILES=CC1C(OC2(C(C3C(C(=O)C2(C(=O)O3)C)C)C)C(C1OC(=O)C)C)C
INCHI=InChI=1S/C19H28O6/c1-8-12(5)25-19(10(3)14(8)23-13(6)20)11(4)15-9(2)16(21)18(19,7)17(22)24-15/h8-12,14-15H,1-7H3
INCHIKEY=CMTSHPFXBUQFIX-UHFFFAOYSA-N
CLASS=Aliphatic and Cycloaliphatic Compounds
ADDUCT=[M-H+HCOOH]-
INSTRUMENT=Agilent Q-ToF 6530
PRECURSOR_MZ=397.184
COMPOUND_NAME=Acetylportentol
ION_MODE=negative
FORMULA=C19H28O6
113.141083 1101.988403 
113.984009 69.065788 
116.947151 115.793602 
135.690109 121.117645 
163.10704 167.013229 
187.105698 101.201668 
192.036041 96.281975 
208.92099 141.571198 
210.930817 443.994141 
248.940063 91.508926 
271.791443 111.228775 
302.900513 235.183441 
303.871796 219.451538 
304.899261 932.125 
315.204956 96.080132 
342.954132 99.449471 
485.356812 93.165695 
495.866699 56.25 
501.424652 43.076923 
502.471832 119.896278 
502.528625 55.148811 
546.066772 36.520832 
546.250061 49.003048 
584.611389 88.0 
600.256409 110.009613 
612.816711 44.408783 
615.929932 58.470589 
649.162537 106.53125 
686.389771 60.68145 
688.445557 38.285713 
699.96582 60.555557 
722.724915 33.048912 
749.699341 41.961956 
756.766968 48.157051 
778.891907 32.272728 
783.823425 32.666668 
801.489807 25.75 
820.530701 26.571428 
848.720581 117.39698 
854.514648 29.360294 
865.760437 38.326614 
888.072571 40.6875 
892.375 41.041668 
915.890198 39.482143 
935.273499 44.208332 
951.167053 79.005951 
963.033142 37.004311 
986.927795 41.142857 
987.135681 44.0 
1018.516907 61.036289 
1020.765625 37.041668 
1034.200684 138.222366 
1069.619019 51.080128 
1076.089111 66.351746 
1093.163208 47.003571 
1120.859253 62.375 
1154.126953 43.004311 
1174.022461 61.003048 
1181.316772 33.75 
1192.633911 33.016666 
1196.532593 68.142242 
1251.696777 80.211205 
1260.851929 82.0 
1269.674683 40.011364 
1299.297119 94.032257 
1310.789307 128.449631 
1320.170288 82.010414 
1342.109619 71.760002 
1371.569702 51.416668 
1371.794434 41.570652 
1379.468628 166.625 
1381.139526 73.515625 
1427.964355 28.125 
1467.473877 50.636364 
1477.329956 57.0 
1481.210449 38.016666 
1492.154663 42.211208 
1496.074219 37.090908 
1540.850342 29.035715 
1542.003418 28.017857 
1566.520508 35.165321 
1580.787231 31.674999 
1597.842773 41.923077 
1598.262817 52.720238 
1617.702393 27.05921 
1656.483398 34.200001 
1664.644775 26.6 
1664.783203 31.148809 
1674.077271 75.640152 
1674.244751 22.471153 
1680.966675 27.075001 
END IONS

BEGIN IONS
RTINSECONDS=447.291992
CHARGE=1-
MSLEVEL=2
PRECURSORINTENSITY=2448701.500000
SMILES=Cc1c(c(C(=O)C)c(c2c1OC1=CC(=C(C(=O)C21C)C(=O)C)O)O)O
INCHI=InChI=1S/C18H16O7/c1-6-14(22)12(8(3)20)15(23)13-16(6)25-10-5-9(21)11(7(2)19)17(24)18(10,13)4/h5,21-23H,1-4H3
INCHIKEY=GRIDHCOCFJSWSY-UHFFFAOYSA-N
CLASS=Dibenzofuranes
ADDUCT=[M-H]-
INSTRUMENT=Agilent Q-ToF 6530
PRECURSOR_MZ=343.0795
COMPOUND_NAME=Isousnic acid
ION_MODE=negative
FORMULA=C18H16O7
145.032089 5920.222168 
189.05304 21590.308594 
215.047775 29367.4375 
229.050552 41419.675781 
231.062759 56688.191406 
257.050262 120741.6875 
259.05603 31998.449219 
285.036163 81154.507812 
313.029816 201527.671875 
404.925873 74.335526 
418.639282 62.02206 
430.056519 79.390625 
447.883148 83.903687 
489.408966 114.045212 
490.141174 59.00338 
498.877472 67.0 
526.629639 87.034485 
538.512878 102.53125 
546.635925 94.603569 
569.92627 85.507812 
589.589478 102.852615 
612.060608 64.408333 
614.025879 94.686401 
614.095764 59.375 
652.85553 67.875 
677.268677 88.573982 
680.307861 151.021744 
691.213135 75.003571 
724.859131 178.845871 
735.080811 177.75 
735.157837 72.11364 
746.187439 134.14975 
747.28894 68.520836 
781.116272 96.36364 
784.078613 65.03846 
844.877563 61.224998 
849.879944 92.768616 
852.799988 129.598679 
857.127441 75.469444 
868.405579 165.333328 
880.838867 78.245003 
951.204468 58.760418 
953.299133 66.256355 
976.336243 109.71627 
1008.583008 51.205002 
1021.446045 91.79348 
1037.995117 51.779411 
1052.550293 63.639999 
1064.950439 89.022057 
1100.02124 81.010414 
1102.478149 81.119186 
1110.978271 62.900864 
1129.834351 234.262299 
1144.961426 101.75 
1165.771484 54.391304 
1169.622559 84.515625 
1184.930542 74.019234 
1224.652466 61.01923 
1237.182373 138.371948 
1243.372559 48.015625 
1254.479248 101.173912 
1280.945557 47.0 
1309.953491 45.080128 
1338.381348 75.025002 
1349.235107 72.485291 
1361.098511 78.555557 
1378.779785 53.603573 
1381.696777 165.228775 
1397.848145 46.083332 
1434.830078 114.880432 
1484.126953 51.010418 
1535.655762 96.246948 
1538.157471 132.10228 
1553.260376 106.125 
1582.144043 55.449074 
1583.230957 157.445648 
1610.048828 57.695515 
1654.121338 58.032143 
1668.013306 104.779411 
1669.820557 182.038559 
1683.982666 44.84375 
1687.938354 48.125 
1690.814209 72.782608 
END IONS

BEGIN IONS
RTINSECONDS=347.532013
CHARGE=1-
MSLEVEL=2
PRECURSORINTENSITY=14030284.000000
SMILES=Cc1cc(O)c2c(C(=O)c3cc(O)cc(O)c3C2=O)c1
INCHI=InChI=1S/C15H10O5/c1-6-2-8-12(10(17)3-6)15(20)13-9(14(8)19)4-7(16)5-11(13)18/h2-5,16-18H,1H3
INCHIKEY=RHMXXJGYXNZAPX-UHFFFAOYSA-N
CLASS=Quinones
ADDUCT=[M-H]-
INSTRUMENT=Agilent Q-ToF 6530
PRECURSOR_MZ=269.0451
COMPOUND_NAME=Emodin
ION_MODE=negative
FORMULA=C15H10O5
105.03466 137763.0 
115.054955 41307.15625 
171.044434 203466.40625 
182.040833 441181.125 
185.060394 317545.625 
197.060349 339230.4375 
225.055313 2630291.0 
226.058411 499074.09375 
241.050018 839002.8125 
360.958618 122.125 
362.90097 111.031715 
365.372803 171.657791 
386.880219 112.515244 
421.088989 143.183441 
422.607666 154.880432 
437.135925 126.173851 
486.521545 126.958336 
486.675751 121.051231 
494.937378 117.2192 
526.304382 123.145409 
528.106445 114.133331 
572.289978 125.410255 
599.078918 141.111115 
604.338074 122.002449 
622.186584 92.565216 
629.791443 120.592216 
670.510742 109.25 
695.472046 104.347221 
704.848022 137.777771 
707.316101 117.382355 
707.687256 133.600006 
738.369263 129.024994 
753.524231 229.893524 
759.633484 122.905487 
760.714478 112.384613 
806.778076 112.111366 
815.063416 109.469444 
844.413208 94.406914 
863.047852 118.370613 
864.654724 213.038788 
889.351257 122.817566 
897.412415 144.333328 
920.390564 103.881096 
925.928406 177.10257 
969.798828 111.132355 
978.247192 178.464279 
986.529358 119.801666 
1010.46875 115.059212 
1029.325806 139.841217 
1033.755615 113.23214 
1088.037109 90.761902 
1112.191284 104.814812 
1113.249146 191.248077 
1128.478149 99.360001 
1131.909668 104.884804 
1160.929565 140.633331 
1176.4729 150.260635 
1213.53772 116.551727 
1233.638306 143.840515 
1234.399292 109.140625 
1260.154297 124.89286 
1267.405884 145.782532 
1276.692139 122.625 
1293.927856 127.979652 
1328.03833 135.719345 
1333.511108 119.115738 
1341.967651 131.072052 
1351.922485 98.96154 
1373.447998 98.336113 
1388.247192 98.34375 
1434.021362 121.471153 
1437.681396 123.599998 
1439.745361 97.198532 
1458.794678 128.792908 
1462.615845 151.596909 
1490.069946 143.097595 
1531.588989 101.26667 
1556.611694 92.112503 
1559.119995 80.13636 
1562.638794 84.333336 
1589.7323 84.615387 
1619.395996 99.151123 
1639.856689 120.306252 
1640.460327 89.840912 
1641.478149 88.583336 
1655.167969 87.0 
1668.39563 97.01667 
END IONS

BEGIN IONS
RTINSECONDS=316.247009
CHARGE=1-
MSLEVEL=2
PRECURSORINTENSITY=3516892.750000
SMILES=O=C1c2c(C)cc(O)c(C)c2Oc2c(O1)cc(c(c2C)C(=O)O)O
INCHI=InChI=1S/C17H14O7/c1-6-4-9(18)7(2)15-12(6)17(22)23-11-5-10(19)13(16(20)21)8(3)14(11)24-15/h4-5,18-19H,1-3H3,(H,20,21)
INCHIKEY=HETZRHDDRHBPKX-UHFFFAOYSA-N
CLASS=Depsidones
ADDUCT=[M-H]-
INSTRUMENT=Agilent Q-ToF 6530
PRECURSOR_MZ=329.0643
COMPOUND_NAME=Nornotatic acid
ION_MODE=negative
FORMULA=C17H14O7
119.069389 121450.679688 
120.084244 63792.410156 
173.070847 88153.84375 
175.0392 144573.78125 
197.076096 103299.828125 
201.054276 548304.1875 
202.059296 107401.0 
217.085342 98981.429688 
226.061768 97584.53125 
241.085358 201288.203125 
285.073547 44352.546875 
311.067596 2714.111084 
404.258514 139.8125 
408.940948 156.089279 
421.719391 145.5625 
426.464172 116.125 
455.258514 99.26651 
468.695374 103.573982 
474.389099 93.25 
475.036682 103.009613 
522.276428 120.570312 
538.900818 90.0 
549.038818 94.80278 
558.294434 97.969826 
576.484131 156.195312 
578.555908 127.445312 
590.724365 108.160088 
621.423462 88.280304 
661.712891 85.083336 
663.812805 136.281662 
686.168518 99.657898 
698.2099 100.017311 
719.535339 103.0 
724.243347 97.133064 
731.882507 117.761902 
772.243164 148.801468 
799.797791 91.165543 
825.226624 98.017311 
846.555969 86.905487 
847.67688 101.59375 
860.866577 79.160713 
897.628723 91.760132 
911.390747 107.08696 
926.356018 126.18409 
926.761719 84.072678 
956.042725 183.0 
956.162781 88.555557 
980.535522 81.336113 
982.777649 107.632812 
1006.816406 83.574997 
1009.094849 87.125 
1037.15918 97.340912 
1057.637207 180.323273 
1066.468506 88.735291 
1084.467529 103.80645 
1087.845093 96.371216 
1100.880371 82.89286 
1116.724243 192.781601 
1176.126099 107.551727 
1176.229858 101.003204 
1176.648071 102.132355 
1176.946289 86.125 
1179.636597 95.884613 
1236.658691 158.530701 
1242.165771 99.240669 
1252.195557 137.133331 
1262.482422 108.601669 
1265.137817 219.036758 
1297.345215 102.01136 
1331.682739 168.537231 
1354.770874 86.551727 
1356.001953 114.131493 
1365.866699 97.485291 
1379.617676 134.074997 
1387.54126 106.471153 
1395.071167 86.473686 
1426.688965 80.571426 
1447.918823 115.030304 
1451.227295 75.339287 
1483.170044 113.224998 
1483.297974 88.654411 
1503.666748 103.210526 
1508.07312 123.086266 
1538.21875 101.440475 
1545.953491 101.25 
1549.631714 93.223686 
1570.437744 157.692307 
1582.977173 80.063774 
1603.796631 77.120369 
1604.689331 84.727272 
1618.558594 74.47406 
1662.061279 66.160713 
1667.046143 90.324997 
1672.977173 102.640152 
1679.415039 83.960106 
1684.340576 86.080132 
END IONS

BEGIN IONS
RTINSECONDS=460.983002
CHARGE=1-
MSLEVEL=2
PRECURSORINTENSITY=34060.027344
SMILES=c1ccc(cc1)C1=C(C(=C2c3ccccc3OC2=O)OC1=O)O
INCHI=InChI=1S/C18H10O5/c19-15-13(10-6-2-1-3-7-10)17(20)23-16(15)14-11-8-4-5-9-12(11)22-18(14)21/h1-9,19H
INCHIKEY=CGRCGRBHNKRILW-UHFFFAOYSA-N
CLASS=Pulvinic Acid Derivatives
ADDUCT=[M-H]-
INSTRUMENT=Agilent Q-ToF 6530
PRECURSOR_MZ=305.0449
COMPOUND_NAME=Calycin
ION_MODE=negative
FORMULA=C18H10O5
102.946526 80.75 
117.050644 319.128754 
125.050011 1599.55835 
126.108429 146.485291 
177.108032 1129.549072 
178.079407 215.246628 
205.06459 2091.323486 
206.07225 251.654419 
233.059982 9793.730469 
233.43573 216.755142 
234.06369 1840.657837 
277.046417 194.055176 
373.50531 60.859695 
410.671692 78.235291 
419.116791 144.350006 
422.931366 98.002777 
432.66806 144.28125 
449.340393 79.875 
486.86087 82.721153 
493.737732 186.326553 
508.611053 52.440475 
555.410339 48.666668 
564.422058 75.396736 
590.781372 51.695515 
595.230591 59.27174 
611.291931 43.816666 
634.53717 50.322369 
648.805481 113.202271 
648.866516 35.013889 
661.44812 44.5 
665.406555 43.901318 
699.742188 37.049999 
717.029053 37.68145 
736.19928 72.0 
736.317139 62.03125 
752.99707 65.888885 
762.130737 52.142857 
768.898438 33.654411 
800.77356 125.920082 
820.610168 38.150002 
836.618774 26.720238 
853.288147 23.778847 
866.860535 34.57143 
901.983215 38.349998 
902.18457 39.125 
907.732666 70.0 
958.248535 32.048912 
964.256958 32.244999 
994.903442 82.289284 
1004.458618 87.96154 
1006.493042 73.003784 
1010.45697 41.125 
1011.488708 51.066666 
1084.5354 74.889282 
1092.251953 39.489864 
1110.12561 41.197582 
1112.935913 40.025002 
1115.654541 44.165321 
1173.363647 59.041668 
1173.996826 49.640152 
1185.973389 49.777779 
1211.688599 84.721153 
1218.516846 45.404999 
1268.62793 38.367645 
1276.515137 50.666668 
1277.393799 36.049999 
1278.491455 36.339287 
1322.132935 39.224998 
1331.152222 40.778847 
1339.698853 36.099998 
1363.091919 143.938782 
1391.015381 44.349136 
1408.045288 61.010868 
1418.94812 52.720589 
1423.550415 39.816666 
1444.273682 62.469444 
1479.222778 97.367645 
1479.321655 43.78125 
1501.345947 58.0 
1514.717041 57.003204 
1523.432007 64.015625 
1546.380859 32.16346 
1589.838623 80.013161 
1596.422852 15.532895 
1603.631104 139.681671 
1614.42688 22.560184 
1642.196899 87.09375 
1642.380493 43.111111 
1667.577515 39.595589 
1677.609741 39.009617 
1688.924194 197.171616 
1692.741821 40.0 
END IONS

BEGIN IONS
RTINSECONDS=447.402008
CHARGE=1-
MSLEVEL=2
PRECURSORINTENSITY=4475751.500000
SMILES=CCCCCCCCCCCCCC[C@H](C(=O)O)[C@H](C(=O)O)CC(=O)O
INCHI=InChI=1S/C20H36O6/c1-2-3-4-5-6-7-8-9-10-11-12-13-14-16(19(23)24)17(20(25)26)15-18(21)22/h16-17H,2-15H2,1H3,(H,21,22)(H,23,24)(H,25,26)/t16-,17+/m0/s1
INCHIKEY=YBZIIVKQVVKTTD-DLBZAZTESA-N
CLASS=Acids
ADDUCT=[M-H]-
INSTRUMENT=Agilent Q-ToF 6530
PRECURSOR_MZ=371.2345
COMPOUND_NAME=Norrangiformic acid
ION_MODE=negative
FORMULA=C20H36O6
109.069183 938.070312 
111.00708 1245.728394 
112.015953 1240.046753 
115.00293 2975.473877 
124.016373 17993.234375 
125.244789 1623.050171 
237.226624 6427.526855 
249.220505 9804.461914 
255.230545 19396.570312 
265.251862 193993.953125 
266.255035 50640.148438 
293.209503 35618.097656 
309.241211 59438.539062 
353.230316 1778655.5 
354.229584 536548.0 
442.491547 51.002552 
459.675507 70.191177 
493.752838 95.125 
509.54538 237.070801 
518.721069 64.920456 
524.388611 92.923912 
525.092529 99.408897 
540.757446 107.519234 
569.509949 72.002777 
593.17511 55.782406 
623.337158 51.449074 
628.168396 62.002659 
642.76355 126.53186 
664.644958 94.964622 
682.863098 59.315788 
685.014465 59.097828 
702.572998 77.695656 
745.674866 76.002449 
747.818787 38.036289 
766.37915 81.489868 
799.188721 108.878426 
821.472961 60.076923 
827.921692 61.881096 
839.725342 46.5 
848.917114 97.420456 
874.202515 61.375 
899.339111 41.400002 
901.045593 153.165695 
904.110229 77.515244 
910.424683 52.227272 
951.351135 40.030407 
975.130249 78.686401 
986.015442 49.0 
993.402771 57.132355 
1014.360718 52.510418 
1016.568481 194.289383 
1049.906006 88.08036 
1064.316284 78.138512 
1070.350708 88.08036 
1094.896606 69.3125 
1101.046143 49.076923 
1106.325317 49.841217 
1117.095825 43.796051 
1167.940063 63.612499 
1171.504761 85.694443 
1178.527222 104.05896 
1216.34668 52.027779 
1217.896851 85.333336 
1222.448486 48.197582 
1245.995239 52.113636 
1269.963745 46.57143 
1276.839111 46.68145 
1306.128174 59.16346 
1320.567871 115.136108 
1323.825684 68.246948 
1382.631958 56.0 
1386.101562 69.925926 
1394.725342 52.349491 
1416.947632 79.680557 
1420.450562 61.68145 
1424.89563 63.75 
1452.807007 44.076923 
1492.820557 57.347221 
1495.184326 87.432144 
1502.86377 30.166666 
1544.955811 44.25 
1557.398193 126.25798 
1558.863037 127.117645 
1561.843506 111.0 
1619.168335 55.197582 
1628.383301 35.005951 
1635.489502 56.612804 
1654.289917 72.063774 
1676.016846 75.032257 
1678.682617 50.150002 
1678.736694 36.224998 
END IONS

BEGIN IONS
RTINSECONDS=447.973999
CHARGE=1-
MSLEVEL=2
PRECURSORINTENSITY=1280634.625000
SMILES=Oc1c(C(=O)Oc2cc(CCC)c(C(=O)O)c(O)c2)c(CCCCC)cc(OC)c1
INCHI=InChI=1S/C23H28O7/c1-4-6-7-9-15-10-16(29-3)12-19(25)21(15)23(28)30-17-11-14(8-5-2)20(22(26)27)18(24)13-17/h10-13,24-25H,4-9H2,1-3H3,(H,26,27)
INCHIKEY=QXDIHIOKSGGXLD-UHFFFAOYSA-N
CLASS=Depsides (Didepsides)
ADDUCT=[M-H]-
INSTRUMENT=Agilent Q-ToF 6530
PRECURSOR_MZ=415.1779
COMPOUND_NAME=Imbricaric acid
ION_MODE=negative
FORMULA=C23H28O7
107.06517 22813.917969 
109.311264 25347.861328 
133.065674 83335.148438 
151.07605 179038.625 
177.056168 609289.875 
178.05069 90007.5625 
195.065872 309207.90625 
196.069687 52389.113281 
254.13179 603.247681 
255.104935 1154.052979 
256.10968 1194.347168 
311.165863 5363.560547 
312.177216 1889.726929 
327.194153 9895.291016 
328.267548 3470.614502 
329.238922 486.502228 
504.928406 148.642044 
505.334991 113.791664 
542.729797 140.122086 
546.689148 86.065788 
571.476257 103.367424 
593.860107 119.069443 
624.454407 161.675003 
629.543091 91.490387 
634.678833 101.284088 
638.273071 103.440475 
672.914795 120.80278 
674.742737 87.020454 
685.417603 84.165695 
726.862183 84.764709 
744.007751 90.175003 
766.373657 79.310349 
774.135681 79.150002 
811.279663 75.160713 
819.492432 82.153847 
828.417358 83.375 
862.71582 79.0 
866.100464 101.79348 
883.019531 82.125 
892.87561 66.800003 
894.982666 115.032257 
926.854309 58.016666 
942.484558 64.889282 
992.218994 60.130318 
1007.278076 76.165695 
1013.656311 59.25 
1016.908813 113.903229 
1052.786011 80.556816 
1079.333252 71.097824 
1096.315918 150.263153 
1107.151001 96.53125 
1126.033203 77.065788 
1145.144531 164.208328 
1165.005249 53.150002 
1208.432617 54.337963 
1213.327637 75.032143 
1222.587402 60.326923 
1229.387695 73.089287 
1248.737793 55.49128 
1283.78772 69.125 
1285.749146 53.765625 
1290.820435 74.722221 
1312.546265 50.640152 
1326.968018 100.125 
1338.314453 62.666668 
1362.828613 50.326614 
1365.954102 74.640961 
1378.350586 57.047619 
1384.476196 67.805 
1420.104736 91.002907 
1429.028687 51.089287 
1430.875977 95.30867 
1464.520386 59.875 
1468.304443 106.5 
1481.642578 66.0 
1492.329468 88.846153 
1517.310669 129.49324 
1519.503052 88.333336 
1540.023315 140.310349 
1546.515869 93.049606 
1567.307617 89.760414 
1613.275391 95.969261 
1622.256348 97.036293 
1648.189697 88.160713 
1648.37146 82.00338 
1680.493774 78.010872 
1681.217773 75.08654 
1693.735229 90.328949 
END IONS

BEGIN IONS
RTINSECONDS=436.279999
CHARGE=1-
MSLEVEL=2
PRECURSORINTENSITY=384034.562500
SMILES=O=C1c2c(C)c(Cl)c(O)c(C=O)c2Oc2c(O1)c(c(cc2C)OC)C
INCHI=InChI=1S/C18H15ClO6/c1-7-5-11(23-4)8(2)16-15(7)24-17-10(6-20)14(21)13(19)9(3)12(17)18(22)25-16/h5-6,21H,1-4H3
INCHIKEY=LVGKNESDSKGROR-UHFFFAOYSA-N
CLASS=Depsidones
ADDUCT=[M-H]-
INSTRUMENT=Agilent Q-ToF 6530
PRECURSOR_MZ=361.0367
COMPOUND_NAME=Pannarin
ION_MODE=negative
FORMULA=C18H15ClO6
136.044769 1249.859497 
138.994995 1564.321411 
182.984604 2834.960938 
200.048935 2462.529541 
238.062256 4277.5 
242.056381 5070.200684 
257.077698 5691.007324 
274.03775 19015.509766 
282.053558 6550.34668 
302.034058 17985.779297 
303.034241 4669.520996 
317.048431 13732.199219 
418.369873 64.92308 
443.211914 51.005951 
469.324707 54.16 
482.627472 94.787163 
510.300171 70.449471 
510.489563 60.066666 
538.251709 80.222824 
552.491516 90.893517 
561.370605 74.532608 
577.519897 161.225006 
586.88269 106.242645 
609.727539 85.360291 
631.106812 111.179794 
632.144714 96.78125 
635.717346 82.727272 
641.991577 147.600006 
693.952576 153.190216 
701.528442 70.564812 
710.379028 61.223213 
744.037109 138.006256 
763.07196 53.003204 
793.991821 76.072678 
798.990784 58.284092 
810.662842 134.138519 
863.233093 86.013161 
879.032959 43.482143 
889.708862 51.5625 
904.634644 76.893517 
906.417725 52.894737 
947.794617 49.450001 
951.423279 132.779327 
968.159058 71.776405 
975.070251 49.125 
1010.27417 42.75 
1021.942505 45.111111 
1047.903564 49.57143 
1057.918701 54.489864 
1062.582153 51.226852 
1083.793945 77.765625 
1094.203979 86.349998 
1117.300659 52.375 
1119.152222 125.041664 
1153.260986 61.099998 
1194.340576 33.5 
1198.571045 40.89352 
1218.654053 31.333334 
1224.525391 47.532894 
1261.573242 59.5 
1280.964355 75.644737 
1291.36853 63.449467 
1305.078857 57.408333 
1314.296997 52.679054 
1326.956665 85.375 
1340.447144 64.307693 
1374.439453 75.889999 
1382.184937 41.529411 
1392.600586 58.115742 
1427.067749 79.223213 
1430.539917 42.111843 
1464.489014 44.33654 
1490.552246 40.022728 
1495.009644 34.670456 
1504.568726 38.1875 
1505.463745 60.165539 
1562.805786 72.197578 
1563.167847 69.202271 
1570.757568 31.125 
1582.025879 47.117645 
1643.86377 86.0 
1644.235962 151.095245 
1675.613525 65.003571 
1679.411865 45.840115 
1680.549561 133.523804 
1693.368286 61.91848 
END IONS

BEGIN IONS
RTINSECONDS=381.415985
CHARGE=1-
MSLEVEL=2
PRECURSORINTENSITY=1384488.375000
SMILES=C[C@H]1CC(=O)C2=C(c3c(ccc(c3O)c3c(c4c(cc3)O[C@]3([C@@H]([C@H](CC(=O)C3=C4O)C)O)C(=O)OC)O)O[C@]2([C@@H]1O)C(=O)OC)O
INCHI=InChI=1S/C32H30O14/c1-11-9-15(33)21-25(37)19-17(45-31(21,27(11)39)29(41)43-3)7-5-13(23(19)35)14-6-8-18-20(24(14)36)26(38)22-16(34)10-12(2)28(40)32(22,46-18)30(42)44-4/h5-8,11-12,27-28,35-40H,9-10H2,1-4H3/t11-,12-,27+,28+,31+,32+/m0/s1
INCHIKEY=NFZJAYYORNVZNI-OCHURCMPSA-N
CLASS=Xanthones and bis-Xanthones
ADDUCT=[M-H]-
INSTRUMENT=Agilent Q-ToF 6530
PRECURSOR_MZ=637.1613
COMPOUND_NAME=Secalonic acid D
ION_MODE=negative
FORMULA=C32H30O14
111.118011 3083.621338 
123.039444 1211.619263 
141.125534 1687.149658 
149.049805 1818.243286 
198.035538 2342.456787 
199.038513 6957.148438 
200.044861 3149.349609 
225.026794 2762.918945 
226.039764 2797.668945 
241.061493 2481.49707 
305.080994 5124.625 
333.075623 6959.817383 
334.080475 7239.271484 
349.071198 9349.307617 
350.076324 9661.775391 
367.08429 5743.564941 
468.11795 2522.991943 
480.102783 2545.915771 
484.111847 4255.722168 
502.121063 3040.421631 
551.158386 6498.952637 
577.135803 30702.142578 
578.139954 26109.652344 
595.148193 78991.59375 
711.982849 104.240082 
729.653503 151.047409 
742.996277 157.086533 
753.835938 92.492348 
769.967529 105.259613 
801.381958 137.938828 
818.119629 108.670456 
819.403503 101.77594 
822.080811 112.578949 
841.189026 94.035713 
860.62323 108.054825 
877.383606 85.040092 
985.069336 97.074997 
998.290405 96.14286 
999.267517 84.141304 
1041.141113 112.003204 
1056.110718 83.816666 
1089.943726 144.511368 
1092.279663 93.398582 
1093.817017 104.08036 
1113.050903 100.011902 
1116.766846 87.133331 
1168.803467 94.41346 
1178.275635 102.336113 
1184.378418 96.375 
1194.774048 95.778847 
1197.21228 102.137932 
1249.990967 95.570946 
1253.740601 91.440216 
1260.423828 121.349136 
1268.162964 103.757812 
1287.539185 169.132248 
1288.030029 171.92453 
1306.578247 124.186729 
1349.969971 89.137932 
1408.119751 92.17308 
1513.825317 86.001808 
1529.141113 100.257812 
1534.637817 93.190475 
1547.160645 111.401665 
1553.872559 99.714287 
1606.668823 100.601669 
1658.781128 97.470589 
1678.47229 90.197578 
END IONS

BEGIN IONS
RTINSECONDS=255.102997
CHARGE=1-
MSLEVEL=2
PRECURSORINTENSITY=521818.750000
SMILES=O[C@H]1[C@H](O)[C@@H](O)[C@H](Oc2c(C)c3oc(C)cc(=O)c3c(O)c2C)O[C@@H]1COC(=O)C
INCHI=InChI=1S/C20H24O10/c1-7-5-11(22)13-14(23)8(2)18(9(3)19(13)28-7)30-20-17(26)16(25)15(24)12(29-20)6-27-10(4)21/h5,12,15-17,20,23-26H,6H2,1-4H3/t12-,15-,16+,17-,20+/m1/s1
INCHIKEY=NJRLDXGREKHXGV-IVABAYMNSA-N
CLASS=Chromanes and Chromones
ADDUCT=[M-H+HCOOH]-
INSTRUMENT=Agilent Q-ToF 6530
PRECURSOR_MZ=469.1288
COMPOUND_NAME=Galapagin
ION_MODE=negative
FORMULA=C20H24O10
101.043274 189.586044 
119.05484 413.508484 
133.123398 516.865051 
149.035324 670.433228 
153.237991 891.801331 
175.066162 1939.927612 
203.066986 1952.10437 
218.056747 41596.0 
219.065247 266647.1875 
220.068695 73557.390625 
221.071442 7841.32959 
261.0755 6857.271484 
262.08017 2042.163696 
273.078583 346.027649 
285.075623 281.644989 
291.081909 545.57312 
317.095856 121.066666 
345.10434 90.530663 
363.064026 270.416656 
364.112793 110.08696 
423.137726 71023.796875 
424.141296 41274.3125 
425.13678 7630.827637 
524.525391 66.529411 
542.912598 61.03125 
564.3302 78.384094 
569.619507 75.656815 
571.084961 72.0 
623.38324 95.041664 
631.512268 62.107758 
687.112244 49.235294 
696.603821 41.285713 
707.338928 100.851418 
710.17511 46.094696 
755.302917 74.449074 
758.7854 38.210526 
778.109192 63.841217 
782.131714 74.83696 
783.454712 44.599998 
834.731384 44.00658 
835.484314 48.727272 
858.522217 52.541668 
870.131104 51.625 
906.514038 48.515244 
943.339355 89.5 
943.531738 55.259617 
962.805481 60.414215 
969.183838 51.003204 
1010.841064 53.5 
1012.355652 57.069443 
1054.713867 99.469444 
1062.69397 67.041664 
1066.720093 174.097885 
1072.283447 64.703705 
1125.841309 52.003788 
1133.242798 62.470745 
1142.861328 83.08696 
1144.644409 88.570946 
1155.521606 55.045212 
1165.986938 221.926468 
1201.453857 50.284092 
1235.978638 85.474998 
1257.409302 36.454544 
1261.296631 80.349998 
1264.613159 56.333332 
1273.677124 68.0 
1328.740967 41.799999 
1335.408203 64.191177 
1341.673706 60.84375 
1356.7146 51.657608 
1361.141357 53.400002 
1379.011353 64.654068 
1385.720459 57.355392 
1405.145386 49.964287 
1441.082031 55.266666 
1441.180908 38.444443 
1453.843018 48.011906 
1466.667969 84.489868 
1469.045898 87.064514 
1504.396729 63.470589 
1517.672607 92.431122 
1523.691895 38.160713 
1575.535278 165.520828 
1580.478882 72.347221 
1580.885864 145.632812 
1602.010986 75.68145 
1624.142578 63.041668 
1671.587891 68.133331 
1675.36377 69.668648 
1691.742798 41.041668 
1695.530518 59.211208 
END IONS

BEGIN IONS
RTINSECONDS=413.787994
CHARGE=1-
MSLEVEL=2
PRECURSORINTENSITY=2422158.000000
SMILES=CC(=O)CCCCCCCCCCCCC[C@H]1OC(=O)C(=C1C(=O)O)C
INCHI=InChI=1S/C21H34O5/c1-16(22)14-12-10-8-6-4-3-5-7-9-11-13-15-18-19(20(23)24)17(2)21(25)26-18/h18H,3-15H2,1-2H3,(H,23,24)/t18-/m1/s1
INCHIKEY=KYSXDEQQOVVLIN-GOSISDBHSA-N
CLASS=Paraconic acids
ADDUCT=[M-H]-
INSTRUMENT=Agilent Q-ToF 6530
PRECURSOR_MZ=365.2306
COMPOUND_NAME=Isomuronic acid
ION_MODE=negative
FORMULA=C21H34O5
109.139046 273.742981 
113.093857 549.339539 
155.175186 560.73407 
169.163788 5040.029297 
170.145065 727.072083 
183.183472 1968.843018 
207.210754 1705.07251 
209.276764 684.395142 
223.205643 660.109131 
261.221405 862.65564 
277.25351 614377.8125 
278.256866 165584.84375 
279.314148 8932.316406 
321.239716 373039.40625 
322.244568 116300.398438 
435.282501 97.01786 
465.757385 114.29657 
467.215454 111.903229 
480.576599 131.79892 
487.026978 114.222221 
505.954498 114.297836 
522.393066 142.925003 
534.179443 128.1362 
590.683167 92.398582 
595.710205 88.967102 
605.166016 103.01136 
607.178589 94.391304 
623.855347 95.801727 
648.862915 129.089279 
650.606384 93.721153 
671.07373 104.4944 
699.860046 60.360294 
714.523132 86.100609 
717.272278 98.25 
731.647339 110.736115 
754.516846 107.041664 
769.064514 97.257141 
796.470398 130.61734 
820.019226 88.471153 
823.324707 162.256256 
832.772766 113.008331 
834.04718 97.08654 
876.307739 45.875 
905.115417 96.290001 
909.330627 50.625 
909.48053 102.791664 
922.055664 43.142857 
950.442383 111.822762 
987.71936 103.603569 
998.662231 46.004311 
1015.925354 40.080128 
1017.368835 82.888885 
1019.192322 83.014709 
1039.728516 95.57341 
1076.91626 40.0 
1079.494629 92.333336 
1086.128906 36.666668 
1087.342651 52.39674 
1096.080811 101.061272 
1141.213379 94.422417 
1162.428833 50.926281 
1162.49292 38.211208 
1170.620239 55.003048 
1199.061646 148.723358 
1211.96814 98.428574 
1213.612915 37.482143 
1223.632812 130.779419 
1237.919067 81.18409 
1287.880249 84.679054 
1308.390381 75.446426 
1321.813599 86.734848 
1348.483765 72.14286 
1352.549194 81.911362 
1356.286133 105.34964 
1407.445923 88.100807 
1414.346802 34.125 
1427.788086 92.820312 
1432.272705 116.2192 
1468.625732 95.121216 
1486.291748 54.041668 
1494.532104 99.570946 
1498.617188 82.958336 
1500.195068 106.48214 
1517.828491 83.0 
1545.242676 53.174999 
1547.662231 59.761906 
1563.312134 43.135868 
1602.117432 105.612808 
1621.386108 81.081665 
1622.042358 114.133331 
1646.204224 80.445656 
1664.389404 86.01786 
1666.82959 122.224998 
END IONS

BEGIN IONS
RTINSECONDS=380.440002
CHARGE=1-
MSLEVEL=2
PRECURSORINTENSITY=2415517.250000
SMILES=O=c1c2c(oc3c1c(C)cc(O)c3)cc(C)cc2O
INCHI=InChI=1S/C15H12O4/c1-7-3-10(17)14-11(4-7)19-12-6-9(16)5-8(2)13(12)15(14)18/h3-6,16-17H,1-2H3
INCHIKEY=PQFJZPPNZJSEGH-UHFFFAOYSA-N
CLASS=Xanthones and bis-Xanthones
ADDUCT=[M-H]-
INSTRUMENT=Agilent Q-ToF 6530
PRECURSOR_MZ=255.0589
COMPOUND_NAME="N 1,6-Dihydroxy-3,8-dimethylxanthone"
ION_MODE=negative
FORMULA=C15H12O4
105.034531 123115.601562 
106.037788 10518.070312 
117.023064 13292.827148 
149.023636 57218.898438 
156.05687 12947.469727 
183.052612 27814.287109 
211.044617 28483.384766 
212.046402 49141.003906 
315.495605 149.060806 
350.925323 116.444443 
366.191528 57.038792 
370.490356 72.280174 
377.647369 147.026321 
422.387787 71.594391 
422.876617 99.107452 
435.483948 73.016304 
446.64682 63.125 
475.841125 47.148811 
477.698334 60.059212 
515.277405 55.148811 
530.572266 52.013889 
552.232056 61.009617 
558.277466 54.281979 
558.520569 65.76136 
591.825745 98.083336 
597.89032 89.003571 
614.21637 80.367424 
635.478333 112.199997 
668.103638 75.557693 
684.839355 109.120369 
699.509216 39.0 
700.651184 54.367645 
740.853821 47.592106 
755.286133 88.125 
766.157104 66.223686 
772.378235 82.224998 
788.256348 123.911293 
806.111694 76.387817 
820.473877 83.926285 
847.743408 74.315788 
851.316833 96.723213 
867.777405 117.89286 
898.204407 120.008926 
914.041809 60.515625 
922.738525 81.0 
926.925598 60.072674 
931.446594 83.063774 
951.55658 46.347221 
980.611572 32.760136 
985.924622 42.575001 
1003.19104 41.246952 
1027.396484 55.011906 
1035.277832 44.125 
1042.107056 62.89352 
1053.651123 71.259613 
1067.704834 68.880432 
1070.584106 141.881668 
1097.840942 65.130318 
1101.807007 128.444672 
1104.016479 152.92775 
1122.748535 48.055557 
1160.109375 139.084015 
1162.981445 57.561047 
1163.147339 47.44643 
1194.020386 60.016666 
1203.231567 127.413239 
1216.116089 57.013889 
1221.844238 49.521553 
1243.937378 43.280174 
1260.432495 41.235294 
1278.149902 39.099998 
1278.478271 57.005436 
1337.309814 80.136108 
1337.381836 45.038792 
1352.728516 177.584854 
1352.835327 58.049999 
1357.407593 65.603569 
1385.513672 54.595589 
1395.977051 57.204544 
1411.081299 42.005001 
1417.744751 47.25 
1417.842773 33.224998 
1473.556885 70.633774 
1474.780151 150.931335 
1486.876343 74.903229 
1497.686523 59.57143 
1517.122437 146.0 
1540.446167 57.003571 
1540.527344 46.224998 
1540.646729 136.884613 
1553.206543 99.080132 
1602.723511 72.976349 
1605.537109 55.028847 
1609.071045 118.290665 
1638.267456 86.005432 
1657.722046 31.066177 
1691.78772 38.173077 
END IONS

BEGIN IONS
RTINSECONDS=252.042999
CHARGE=1-
MSLEVEL=2
PRECURSORINTENSITY=1858711.750000
SMILES=CC(=O)c1c(c2c(o1)cc1c(c2O)C(=O)C(=O)C(=C1O)OC)O
INCHI=InChI=1S/C15H10O8/c1-4(16)14-12(20)8-6(23-14)3-5-7(10(8)18)11(19)13(21)15(22-2)9(5)17/h3,17-18,20H,1-2H3
INCHIKEY=XKWWCTISHMFHJB-UHFFFAOYSA-N
CLASS=Quinones
ADDUCT=[M-H]-
INSTRUMENT=Agilent Q-ToF 6530
PRECURSOR_MZ=317.0269
COMPOUND_NAME=Rhodocladonic acid
ION_MODE=negative
FORMULA=C15H10O8
106.005875 50768.71875 
134.000687 264011.46875 
147.009613 44141.648438 
160.987045 36782.648438 
189.01976 45863.703125 
190.027832 39950.851562 
218.010315 147802.0 
230.993851 153667.875 
245.00827 58348.015625 
246.015686 60132.054688 
274.011841 439337.09375 
275.015808 70048.890625 
374.658081 76.644997 
380.556976 94.80278 
387.82428 137.256256 
400.340149 99.007576 
416.010529 153.324997 
477.524078 86.561043 
478.556824 116.684212 
479.312622 96.240082 
527.203735 100.370613 
527.876282 81.307693 
538.671875 111.796051 
539.663757 102.00338 
598.078857 117.083336 
602.518188 83.440216 
615.312256 103.734756 
615.378357 106.130882 
626.529358 92.284088 
676.187439 97.256355 
680.247009 99.958336 
687.165405 80.602272 
737.743408 160.274994 
749.30658 106.75 
768.637939 146.516129 
769.237488 92.0 
770.874878 124.920921 
805.568787 134.710785 
837.485107 93.80645 
844.58252 96.105263 
868.627686 145.408981 
875.220459 118.814812 
889.09613 80.889153 
912.002686 103.555557 
926.273193 83.901314 
940.278809 92.92308 
949.088989 128.008926 
978.28064 72.222824 
1003.357422 92.583336 
1003.695068 89.570946 
1003.749634 66.571426 
1025.964844 192.148254 
1032.963623 74.308823 
1078.597168 200.512192 
1104.371216 58.640152 
1117.268677 68.190475 
1125.103271 58.55682 
1126.201538 83.190475 
1179.624756 96.049606 
1195.732544 98.17308 
1198.802368 57.080357 
1231.514038 61.16346 
1241.044189 205.431961 
1268.932007 212.245377 
1273.348755 65.875 
1284.089111 87.0 
1307.777466 106.349487 
1330.067017 71.934319 
1354.244995 87.133331 
1355.534424 86.777779 
1362.737915 151.419769 
1382.93689 77.020836 
1395.144653 85.6129 
1426.185547 105.657898 
1439.655029 87.004311 
1441.271729 67.002907 
1466.911377 165.960617 
1467.920898 101.240082 
1493.03125 91.375 
1496.916626 79.25 
1515.13501 84.959999 
1517.747681 122.008621 
1581.126587 55.570652 
1594.656616 67.240387 
1609.044678 71.025002 
1613.15564 66.215424 
1619.217407 67.0 
1620.53833 63.532608 
1669.002075 58.036289 
1681.349854 73.150002 
END IONS

BEGIN IONS
RTINSECONDS=19.854
CHARGE=1-
MSLEVEL=2
PRECURSORINTENSITY=99764.039062
SMILES=COC1=C(NC(CO)CCC(=N)O)CC(CO)(O)CC1=O
INCHI=InChI=1S/C13H22N2O6/c1-21-12-9(4-13(20,7-17)5-10(12)18)15-8(6-16)2-3-11(14)19/h8,15-17,20H,2-7H2,1H3,(H2,14,19)
INCHIKEY=BVWBDCIYHWDCRQ-UHFFFAOYSA-N
CLASS=Mycosporines
ADDUCT=[M-H]-
INSTRUMENT=Agilent Q-ToF 6530
PRECURSOR_MZ=301.14
COMPOUND_NAME=Mycosporine glutaminol
ION_MODE=negative
FORMULA=C13H22N2O6
136.250732 1425.05603 
153.021683 3036.835938 
154.045944 1367.607788 
162.130798 2010.336914 
180.026001 10321.671875 
181.226425 1457.271484 
237.087845 1647.30481 
238.091003 3964.446533 
251.077042 1468.789307 
266.103516 3161.119141 
283.135162 9342.587891 
284.108368 21099.712891 
359.407288 63.177631 
359.673279 42.400002 
399.691223 40.010868 
423.450928 51.326923 
445.678589 91.941177 
479.533051 79.010872 
488.820557 119.23156 
502.172668 116.125 
505.240662 78.01786 
506.974945 53.226852 
553.986328 39.482143 
562.815674 66.223686 
586.792603 120.001869 
593.708923 49.285713 
608.740356 43.289288 
615.69281 47.076923 
658.156982 74.013161 
675.485352 41.326614 
691.301025 53.174999 
694.653137 54.339287 
695.447876 63.148811 
730.205078 46.487904 
766.70752 29.625 
789.272827 31.816668 
802.000244 89.512497 
802.086792 37.16346 
820.321228 26.020834 
831.664673 42.148811 
855.183777 82.570946 
875.477966 28.204546 
875.677368 30.799999 
876.364075 46.670456 
928.402771 38.557693 
928.683044 37.778847 
930.576965 50.693966 
948.026978 53.645 
973.887024 43.0 
984.614502 50.799999 
986.340942 54.5625 
1009.683044 48.174999 
1024.1604 51.360294 
1044.279053 59.322369 
1052.675781 107.716835 
1068.674072 41.0 
1105.091064 53.173912 
1119.981445 28.595589 
1147.294312 40.16346 
1162.154419 55.91848 
1194.848511 107.0625 
1204.154053 31.008333 
1207.743286 69.894737 
1219.623413 40.367645 
1225.589355 35.875 
1261.212402 27.444445 
1287.504883 42.235294 
1321.032471 79.321808 
1321.800781 85.360001 
1348.94812 61.599998 
1349.024292 44.57143 
1369.634766 56.892857 
1387.975342 33.75 
1414.469971 82.074997 
1438.873413 47.125 
1447.668457 43.55682 
1470.191772 66.306816 
1475.118408 42.842106 
1478.685791 44.351746 
1507.526001 33.375 
1522.7146 122.371574 
1556.335083 29.48077 
1559.768921 24.339285 
1593.089478 25.892857 
1610.411011 34.048912 
1629.102051 53.308674 
1650.84436 31.183823 
1668.948853 30.446428 
1670.605591 37.200001 
1681.550415 53.097828 
1685.692993 46.111488 
END IONS

BEGIN IONS
RTINSECONDS=403.42099
CHARGE=1-
MSLEVEL=2
PRECURSORINTENSITY=293583.437500
SMILES=O=C1c2c(C)c(Cl)c(OC)cc2Oc2c(O1)cc(c(c2C)Cl)OC
INCHI=InChI=1S/C17H14Cl2O5/c1-7-13-9(5-10(21-3)14(7)18)23-16-8(2)15(19)11(22-4)6-12(16)24-17(13)20/h5-6H,1-4H3
INCHIKEY=AYDBBWJGHVYDQE-UHFFFAOYSA-N
CLASS=Depsidones
ADDUCT=[M-H+HCOOH]-
INSTRUMENT=Agilent Q-ToF 6530
PRECURSOR_MZ=399.0362
COMPOUND_NAME=Scensidin
ION_MODE=negative
FORMULA=C17H14Cl2O5
107.077896 681.00293 
135.007874 1587.877686 
142.988785 8961.790039 
144.917542 1832.469604 
170.983215 56706.804688 
172.339874 4817.314941 
172.981293 9508.664062 
228.998779 2395.289307 
230.970367 424.364227 
289.065063 325.101074 
292.970245 400.035706 
320.965912 581.888977 
325.003265 420.556824 
453.660034 111.852272 
472.358032 66.760132 
492.747986 71.695656 
492.890778 84.230766 
499.225677 49.013157 
517.559753 49.333332 
552.787048 74.721153 
577.067444 57.44643 
592.492065 169.011368 
594.90802 67.202271 
597.763123 135.964279 
597.861023 80.489998 
648.440552 64.787163 
669.596252 39.642857 
695.445007 89.045288 
711.118164 57.670456 
713.825684 52.570946 
731.165039 75.890625 
747.656372 49.5 
749.654785 91.920456 
794.610107 56.115742 
802.531189 98.685974 
807.085083 42.674999 
818.036865 64.13636 
842.629272 60.322369 
863.179626 73.322365 
878.108765 97.003571 
916.585266 54.160713 
922.863403 39.011364 
932.481079 77.339287 
949.005493 43.036289 
951.149048 64.903687 
978.818665 53.802631 
1002.110718 46.805 
1018.561157 62.48077 
1046.073608 66.779411 
1087.952393 80.699997 
1093.805542 128.900314 
1095.539429 83.025002 
1106.365479 57.223682 
1111.321045 85.444443 
1145.302246 106.015411 
1187.498535 117.026161 
1200.094727 90.010414 
1200.807495 76.117645 
1216.916626 49.640152 
1228.221558 67.008331 
1238.927246 107.801666 
1278.506958 53.36842 
1287.307983 68.117645 
1308.813477 44.008335 
1330.993896 40.333332 
1340.265991 52.845001 
1361.955811 88.761902 
1382.655762 38.017857 
1388.359863 53.875 
1430.032715 48.05357 
1437.048218 66.08654 
1445.20874 52.778847 
1451.583496 48.289288 
1473.676758 82.662231 
1489.508789 46.976353 
1499.929443 35.657608 
1503.851196 33.39674 
1551.329712 34.939518 
1578.237061 53.003048 
1588.105103 41.007355 
1593.498657 40.083332 
1613.103516 51.387821 
1624.584351 59.004032 
1638.665771 56.125 
1658.868408 60.013157 
1667.935669 54.041668 
1676.476685 61.23077 
1695.666504 28.027779 
END IONS

BEGIN IONS
RTINSECONDS=360.036011
CHARGE=1-
MSLEVEL=2
PRECURSORINTENSITY=15428758.000000
SMILES=Cc1cc(cc(c1C(=O)Oc1cc(c(c(c1)C)C(=O)O)O)O)OC
INCHI=InChI=1S/C17H16O7/c1-8-5-11(7-12(18)14(8)16(20)21)24-17(22)15-9(2)4-10(23-3)6-13(15)19/h4-7,18-19H,1-3H3,(H,20,21)
INCHIKEY=GODLCSLPZIBRMG-UHFFFAOYSA-N
CLASS=Depsides (Didepsides)
ADDUCT=[M-H]-
INSTRUMENT=Agilent Q-ToF 6530
PRECURSOR_MZ=331.0822
COMPOUND_NAME=Evernic acid
ION_MODE=negative
FORMULA=C17H16O7
105.034805 1890489.875 
123.045197 2791490.0 
148.996857 5772023.5 
150.027771 573369.3125 
167.035156 4478859.0 
168.038513 426406.21875 
227.072052 43040.347656 
228.086243 18813.917969 
243.10527 19752.419922 
244.10289 4343.45459 
405.617004 87.679054 
410.767731 93.160713 
430.660675 94.013885 
451.398163 83.967102 
461.896973 75.16346 
475.65976 78.64286 
481.570618 87.223213 
512.193176 86.001923 
546.007202 127.142044 
551.207947 85.347221 
556.990967 84.881096 
562.005737 77.164474 
616.782654 58.111111 
635.111023 87.001869 
635.577637 60.0 
639.106567 119.111839 
643.591919 66.263161 
700.588013 74.816666 
721.469727 105.5625 
738.108032 76.473686 
747.912476 82.01667 
760.690674 74.285713 
769.706848 95.448273 
797.677368 71.841217 
803.519897 73.886627 
845.091064 119.533333 
850.716614 94.16346 
868.643311 68.414215 
904.387817 130.005951 
905.161011 82.941177 
910.780579 89.010002 
940.762695 113.285378 
957.175903 93.75 
967.337158 71.011902 
979.203735 90.008331 
981.773682 70.541664 
1012.524475 59.058823 
1017.431824 45.111111 
1042.040771 56.333332 
1094.372803 52.75 
1109.840088 84.602272 
1110.739502 90.523552 
1111.380005 186.715332 
1139.951782 82.125 
1145.925049 69.347221 
1181.218872 63.022961 
1193.785645 64.260414 
1210.088501 64.222565 
1234.600708 59.235466 
1249.518066 85.875 
1274.215698 74.072678 
1282.535156 136.438385 
1290.112061 61.595589 
1320.641602 160.198776 
1349.950806 57.49128 
1355.283081 84.63636 
1379.218872 44.400002 
1387.747437 58.409092 
1393.983398 105.19104 
1448.12854 63.191177 
1454.242554 77.75 
1458.258057 47.005436 
1483.479736 59.0 
1517.598633 50.036289 
1522.161987 54.011364 
1524.483398 64.112503 
1566.473999 55.204544 
1569.633667 96.346313 
1569.69873 56.011364 
1604.858521 80.002777 
1643.108398 79.827583 
1658.393188 90.0 
1659.811523 97.137932 
1662.733643 94.779411 
1662.90625 62.557693 
1688.986816 121.145409 
END IONS

BEGIN IONS
RTINSECONDS=305.647003
CHARGE=1-
MSLEVEL=2
PRECURSORINTENSITY=461336.406250
SMILES=O=C(O)c1c(C)cc(OC)c(C)c1O
INCHI=InChI=1S/C10H12O4/c1-5-4-7(14-3)6(2)9(11)8(5)10(12)13/h4,11H,1-3H3,(H,12,13)
INCHIKEY=BMRVNZZVDSVOQG-UHFFFAOYSA-N
CLASS=Cleavage Products of Depsides and Depsidones
ADDUCT=[M-H]-
INSTRUMENT=Agilent Q-ToF 6530
PRECURSOR_MZ=195.0689
COMPOUND_NAME=Rhizonic acid
ION_MODE=negative
FORMULA=C10H12O4
107.130951 15075.71875 
135.045349 357754.125 
136.052063 856838.25 
137.055832 66989.671875 
151.077438 1017086.625 
152.079529 93518.71875 
272.941925 185.729736 
292.335724 100.900421 
300.84964 127.6129 
339.737183 167.370621 
344.108551 144.02272 
356.056763 104.157051 
356.694672 91.5 
392.045929 131.335312 
392.100922 121.347221 
413.457397 126.074997 
438.788147 56.76923 
446.500458 57.0 
466.923065 71.820457 
489.772064 55.209999 
491.015381 87.120094 
502.031799 45.625 
522.143799 67.787163 
540.413208 69.765625 
562.66394 82.685974 
565.237122 81.04348 
580.719421 142.210526 
620.736938 89.375 
623.149841 157.560181 
640.792419 91.402779 
648.965698 170.756256 
660.080322 123.89286 
684.484741 117.80645 
702.998413 159.588242 
703.209351 181.0 
740.140808 94.16346 
751.785095 92.723213 
755.014282 74.440475 
796.217834 86.909088 
800.767578 121.145409 
804.473755 94.050003 
809.5495 160.846649 
832.794067 117.156693 
873.896851 126.044121 
882.309265 175.008331 
923.937805 138.882355 
933.289917 90.881096 
942.762207 52.017857 
949.360107 67.130318 
973.89093 77.45153 
1019.794556 100.720505 
1025.088257 91.080132 
1025.64209 83.008621 
1030.168091 94.16346 
1038.402954 148.461533 
1125.395386 63.894737 
1129.416138 71.010414 
1142.557129 182.510208 
1150.379639 105.346313 
1157.555664 126.64286 
1162.674194 80.675003 
1209.098999 61.308674 
1223.118408 63.669445 
1224.290405 104.064514 
1247.346191 145.445007 
1257.590088 88.716835 
1287.422607 72.816666 
1300.465942 43.153847 
1318.660278 164.048782 
1330.510864 58.017857 
1343.483154 127.53186 
1374.243042 45.291668 
1381.161011 49.041668 
1404.839722 65.685974 
1416.093018 75.541664 
1435.028564 78.185608 
1435.106201 49.142857 
1452.43335 104.13636 
1476.78064 67.05896 
1493.512207 58.33654 
1498.248535 43.595589 
1507.892334 66.047623 
1531.386108 57.926281 
1565.837036 66.191177 
1573.495239 72.91848 
1593.630859 80.520164 
1604.081909 176.165543 
1631.842163 73.119186 
1632.544312 148.979645 
1660.260132 107.125 
1680.067139 50.135868 
1683.859985 124.487808 
END IONS

BEGIN IONS
RTINSECONDS=361.342987
CHARGE=1-
MSLEVEL=2
PRECURSORINTENSITY=161727.203125
SMILES=O=c1c2c(oc3c1c(C)cc(O)c3)c(Cl)c(O)c(Cl)c2O
INCHI=InChI=1S/C14H8Cl2O5/c1-4-2-5(17)3-6-7(4)11(18)8-12(19)9(15)13(20)10(16)14(8)21-6/h2-3,17,19-20H,1H3
INCHIKEY=JPFFMNSHZHZAND-UHFFFAOYSA-N
CLASS=Xanthones and bis-Xanthones
ADDUCT=[M-H]-
INSTRUMENT=Agilent Q-ToF 6530
PRECURSOR_MZ=324.9629
COMPOUND_NAME="N 2,4-Dichloronorlichexanthone"
ION_MODE=negative
FORMULA=C14H8Cl2O5
105.034958 635.752136 
112.98468 1752.637451 
125.040878 1855.992554 
141.034836 2663.047607 
148.978989 3512.633301 
153.042435 2743.260498 
169.040588 6033.712891 
197.026733 11125.750977 
225.025406 8831.455078 
232.99968 23044.072266 
234.004074 3370.310059 
260.994873 5165.73291 
261.999939 1981.870728 
290.003296 1130.224731 
408.726868 68.63636 
420.082733 48.583332 
453.097412 46.560184 
461.048096 62.375 
474.201324 47.083332 
495.283325 66.529411 
534.961304 49.841217 
545.702637 41.570652 
548.320557 83.198532 
548.380493 40.01923 
550.551575 44.07143 
622.049927 48.557693 
623.356873 47.657608 
643.947876 96.396736 
645.141113 52.361111 
650.952393 59.27174 
673.352478 53.489864 
682.099609 51.760136 
719.638855 30.360294 
721.69519 54.003788 
726.039978 30.160715 
740.619263 30.78125 
768.889648 25.6 
785.923828 24.446428 
828.966492 42.0625 
836.912537 92.142441 
870.087952 116.400002 
889.408386 52.038792 
890.164001 48.045456 
891.9776 35.5 
917.425598 57.346153 
925.971008 64.020836 
965.905212 51.450001 
972.160645 35.036289 
981.860535 31.285715 
1037.451172 95.222565 
1040.553467 31.017857 
1040.706055 35.0 
1045.235352 42.235294 
1056.409058 58.432144 
1093.466309 30.416666 
1099.401978 28.918478 
1100.164429 36.666668 
1101.416016 30.011364 
1143.511719 67.115387 
1172.905029 40.720238 
1179.667236 24.657608 
1201.664673 34.445 
1213.15625 35.004032 
1219.915771 36.115742 
1249.584229 40.245689 
1255.046997 46.445 
1290.581177 45.224998 
1299.604004 98.344513 
1301.019165 121.100349 
1317.138794 45.307693 
1327.453247 88.19104 
1352.329346 60.076218 
1354.958252 42.022728 
1375.61499 99.880951 
1407.106445 67.25 
1422.814453 64.111839 
1426.079102 37.671295 
1445.709717 44.408333 
1451.12915 88.005951 
1451.743774 42.0625 
1484.327759 35.03125 
1506.034668 28.5625 
1519.567383 42.556034 
1534.709839 34.5625 
1539.216309 32.041668 
1551.570068 61.723213 
1570.281372 30.322369 
1596.373047 30.245001 
1598.310303 23.008333 
1616.330811 43.289288 
1624.82019 28.625 
1660.623657 63.761906 
1676.173218 57.440475 
1676.238892 50.004631 
1680.954346 28.375 
1692.315796 36.135868 
1698.217773 62.003571 
END IONS

BEGIN IONS
RTINSECONDS=527.869995
CHARGE=1-
MSLEVEL=2
PRECURSORINTENSITY=17878.927734
SMILES=COc1cc(O)c2c(C(=O)c3c(C2=O)c(O)c(C(=O)CCCCC)c(O)c3)c1
INCHI=InChI=1S/C21H20O7/c1-3-4-5-6-13(22)18-15(24)9-12-17(21(18)27)20(26)16-11(19(12)25)7-10(28-2)8-14(16)23/h7-9,23-24,27H,3-6H2,1-2H3
INCHIKEY=MLTVHORGISIISB-UHFFFAOYSA-N
CLASS=Quinones
ADDUCT=[M-H]-
INSTRUMENT=Agilent Q-ToF 6530
PRECURSOR_MZ=383.1009
COMPOUND_NAME=Solorinic acid
ION_MODE=negative
FORMULA=C21H20O7
102.870758 86.037041 
113.059402 248.371948 
113.979393 117.972977 
116.933784 65.408333 
131.243881 65.557693 
154.984558 130.014709 
167.899658 71.153847 
183.008041 78.066666 
199.847153 99.92308 
214.022369 81.351746 
241.025757 146.570648 
242.009262 299.568298 
248.956436 383.815125 
270.015656 636.832214 
271.021667 147.111359 
321.030487 164.236847 
322.070862 156.395157 
325.032196 772.548828 
326.038147 174.859695 
423.059479 110.181183 
433.514648 90.136108 
446.188812 43.307693 
447.240479 55.100807 
483.512939 56.0 
500.154572 105.8125 
507.113312 42.55682 
521.185242 91.084015 
540.569824 94.040092 
549.527649 56.142441 
572.915039 52.322369 
575.721619 46.482143 
597.305908 43.007355 
630.936096 96.114288 
639.286133 62.289288 
648.000488 49.135868 
651.177429 66.010414 
661.989929 45.901318 
702.993835 38.038792 
716.363403 89.074997 
724.063293 59.266666 
758.140991 33.164474 
760.132507 69.530663 
766.323181 60.337963 
779.901855 115.242645 
798.839966 31.048914 
844.069031 29.875 
849.50531 30.004999 
857.68866 37.083332 
864.632507 35.782406 
887.772217 52.197582 
916.33844 34.049999 
928.636658 37.102272 
932.665649 86.508926 
945.096008 77.481483 
1001.248169 37.326923 
1003.986023 60.130436 
1015.311401 43.165321 
1018.250427 91.023933 
1032.985229 97.23214 
1045.937134 38.367424 
1065.670898 36.1875 
1090.620605 44.337963 
1112.048706 36.090908 
1133.456421 89.125 
1142.770752 58.964287 
1148.235107 143.020462 
1179.43042 74.695511 
1193.822998 105.400002 
1195.470947 79.75 
1227.060547 61.328949 
1228.382446 117.844299 
1236.616699 51.360294 
1249.082397 57.136364 
1329.046997 46.004631 
1331.494385 53.91848 
1335.990967 50.48077 
1373.449951 95.0 
1374.557007 81.002274 
1391.536987 37.242645 
1407.735352 56.416668 
1432.709595 29.568182 
1468.662964 47.782406 
1489.05249 25.183823 
1499.594727 29.222826 
1501.102539 25.9 
1513.68335 29.11574 
1555.172607 56.336113 
1579.912476 38.889706 
1589.900391 39.1875 
1603.126465 72.80278 
1609.3573 64.0 
1610.809204 77.720238 
1656.400391 41.041668 
1662.975586 75.066666 
1663.060425 43.28125 
1672.564819 77.224998 
END IONS

BEGIN IONS
RTINSECONDS=582.825012
CHARGE=1-
MSLEVEL=2
PRECURSORINTENSITY=39739.261719
SMILES=O=C1C(=C(O)/C(=C(/c2ccccc2)\C(=O)O)/O1)c1ccccc1
INCHI=InChI=1S/C18H12O5/c19-15-13(11-7-3-1-4-8-11)18(22)23-16(15)14(17(20)21)12-9-5-2-6-10-12/h1-10,19H,(H,20,21)/b16-14+
INCHIKEY=CMFBGFRHPQTELQ-JQIJEIRASA-N
CLASS=Pulvinic Acid Derivatives
ADDUCT=[M-H]-
INSTRUMENT=Agilent Q-ToF 6530
PRECURSOR_MZ=307.0521
COMPOUND_NAME=Pulvinic acid
ION_MODE=negative
FORMULA=C18H12O5
101.036568 329.118652 
117.033829 19874.960938 
117.428864 473.882477 
118.513702 2149.459473 
191.086624 3692.243652 
191.227386 143.058823 
192.184128 1023.207275 
201.07312 368.230774 
202.116302 196.149994 
263.080658 17206.583984 
263.201416 470.244171 
263.422424 183.017853 
264.070404 3814.983398 
336.549194 81.942307 
345.761597 174.223221 
375.99649 76.333336 
390.082611 55.595589 
390.891327 89.80645 
409.271423 47.761364 
425.982361 56.111111 
437.578674 72.0 
487.321564 35.693966 
500.071075 41.066666 
517.093689 42.266666 
522.138672 96.53186 
525.128174 49.165539 
546.381042 36.5 
566.824707 143.334595 
596.788452 62.260418 
604.163086 28.004032 
607.33667 33.272728 
650.930603 50.333332 
662.904053 33.404999 
674.41687 72.0 
675.270386 35.487904 
694.571045 58.882355 
700.362671 50.599998 
741.751099 31.818182 
769.186523 43.208332 
776.336365 37.444443 
808.543701 42.339287 
828.812317 33.226852 
835.207825 41.197582 
849.110107 49.160713 
872.458679 44.363636 
889.059448 48.0 
900.000671 38.654411 
908.111023 39.765625 
915.03064 79.280304 
935.874512 49.273647 
958.141174 56.404999 
977.64209 38.450001 
986.451416 67.840912 
1023.242249 38.487904 
1029.21228 77.002907 
1033.192749 36.135868 
1051.72644 54.004032 
1069.521484 41.845001 
1091.593262 107.088768 
1122.54248 53.285713 
1155.354126 56.375 
1166.270142 31.445 
1179.033813 105.125 
1198.32019 46.75 
1223.143555 37.111111 
1223.262695 31.125 
1240.279663 244.289291 
1278.170166 49.444443 
1281.221802 51.57143 
1292.30481 33.375 
1300.319702 45.556034 
1313.644531 56.941177 
1354.464966 40.004631 
1362.526367 38.059212 
1364.468018 37.900002 
1383.803101 124.222404 
1408.692017 54.36842 
1419.698364 61.285713 
1430.093262 128.645554 
1474.138794 40.003788 
1481.408813 32.1875 
1482.603149 71.297623 
1489.967896 36.603573 
1519.67627 36.333332 
1537.483765 28.39674 
1539.492065 35.245689 
1581.73999 89.520164 
1600.332275 23.901316 
1602.127197 26.360294 
1614.290405 28.285715 
1623.800903 28.532894 
1632.645874 45.322369 
1655.783447 93.084457 
1676.627197 97.547295 
1684.86853 29.164474 
END IONS

BEGIN IONS
RTINSECONDS=271.321991
CHARGE=1-
MSLEVEL=2
PRECURSORINTENSITY=2122263.750000
SMILES=Cc1cc(O)cc(O)c1C(=O)Oc1cc(O)c(C(=O)OC[C@@H](O)[C@@H](O)CO)c(C)c1
INCHI=InChI=1S/C20H22O10/c1-9-3-11(22)5-13(23)18(9)20(28)30-12-4-10(2)17(14(24)6-12)19(27)29-8-16(26)15(25)7-21/h3-6,15-16,21-26H,7-8H2,1-2H3/t15-,16+/m0/s1
INCHIKEY=BUBBEHCXSMCYNY-JKSUJKDBSA-N
CLASS=Depsides (Didepsides)
ADDUCT=[M-H]-
INSTRUMENT=Agilent Q-ToF 6530
PRECURSOR_MZ=421.1082
COMPOUND_NAME=Erythrin
ION_MODE=negative
FORMULA=C20H22O10
105.033859 339722.0625 
106.207695 37402.660156 
123.044067 195253.046875 
149.024261 969319.0625 
150.027313 123252.578125 
167.034775 665378.0 
168.037842 77354.640625 
253.083817 3366.56958 
255.068375 1255.984497 
271.083405 341091.65625 
271.996338 60712.605469 
273.098297 6877.531738 
297.064636 2925.050293 
317.084808 2263.786133 
318.037842 784.915161 
403.102051 503.005371 
492.671997 205.92453 
497.010742 163.0 
502.001465 139.592102 
511.35318 135.049423 
516.272949 117.160088 
535.050903 154.1315 
567.456909 141.888885 
592.762634 143.191177 
605.065369 133.047867 
616.243164 131.862076 
622.608765 174.564651 
644.338074 133.340912 
672.86438 126.0 
681.491882 211.799057 
682.574402 83.045212 
710.365417 94.979729 
741.587097 122.01786 
748.783691 116.480072 
768.790039 117.686401 
786.569214 143.014618 
806.71814 120.25 
814.952271 131.0 
819.741821 185.916672 
835.532227 122.786392 
839.81958 114.086266 
877.175537 159.609756 
886.457458 93.920921 
909.127625 92.551468 
917.377319 96.28125 
919.171082 125.757576 
930.376709 153.728531 
942.45105 79.29657 
956.487488 60.920456 
1007.565063 108.675926 
1007.723816 62.00893 
1036.56604 257.100006 
1058.164307 144.666672 
1067.156982 91.685974 
1070.852539 103.440475 
1098.459106 95.009262 
1111.236816 119.796051 
1131.408325 129.734756 
1142.628662 94.760414 
1160.242554 109.512497 
1181.811523 66.259613 
1201.79248 153.92276 
1214.336182 122.165321 
1232.927734 81.612808 
1244.01062 97.859695 
1266.123413 110.045456 
1266.210693 109.183823 
1294.079346 105.01136 
1312.924683 129.857147 
1337.016113 136.786392 
1342.171997 94.371216 
1365.323975 117.358109 
1367.224731 145.852615 
1411.794189 118.5 
1418.297119 147.454544 
1421.977417 85.166664 
1425.694092 110.10041 
1426.953735 74.005951 
1444.282959 87.08036 
1526.520264 110.445312 
1532.578003 170.633621 
1545.577148 129.960007 
1545.800415 92.900421 
1563.125 97.041664 
1574.540649 110.043106 
1612.608398 58.045456 
1617.971191 50.315788 
1661.050171 99.551727 
1671.400146 112.805557 
1680.362183 61.025002 
1690.397949 62.720238 
1693.806763 99.637192 
1698.365967 56.119186 
END IONS

BEGIN IONS
RTINSECONDS=315.036987
CHARGE=1-
MSLEVEL=2
PRECURSORINTENSITY=441104.593750
SMILES=COc1cc(c2c(c1)C(=O)c1cc(cc(c1C2=O)O)CO)O
INCHI=InChI=1S/C16H12O6/c1-22-8-4-10-14(12(19)5-8)16(21)13-9(15(10)20)2-7(6-17)3-11(13)18/h2-5,17-19H,6H2,1H3
INCHIKEY=WJXSYUJKJSOJOG-UHFFFAOYSA-N
CLASS=Quinones
ADDUCT=[M-H]-
INSTRUMENT=Agilent Q-ToF 6530
PRECURSOR_MZ=299.0544
COMPOUND_NAME=Fallacinol (Teloschistin)
ION_MODE=negative
FORMULA=C16H12O6
155.051666 1018.90741 
199.037628 3854.637451 
226.027115 9671.685547 
227.033112 13049.060547 
239.034225 10403.099609 
255.027817 23109.625 
256.0354 161113.421875 
257.038757 29914.5625 
351.853638 87.976349 
374.811066 60.160713 
395.866455 54.094696 
397.630341 75.097221 
412.007416 60.347221 
424.175323 54.5625 
462.876282 81.235466 
483.93158 43.557693 
497.922668 119.761902 
514.788818 82.224998 
519.101746 77.603569 
563.389893 73.432144 
563.978882 83.002274 
566.392761 87.814812 
579.211914 58.41346 
587.103088 62.440216 
613.380371 100.89286 
644.639771 51.969826 
650.972778 68.5 
676.545471 52.520161 
706.25885 54.333332 
719.87085 59.421513 
726.791382 83.013161 
732.016357 75.556816 
741.057556 78.133064 
789.972229 58.328949 
801.634521 82.440002 
844.23938 47.645 
847.185303 64.723213 
851.919678 120.5 
857.032593 38.174999 
886.307251 93.004631 
899.276611 58.777779 
902.159546 37.111111 
915.012146 35.785713 
940.481018 36.044998 
962.489197 67.118423 
966.230591 44.907257 
979.710388 44.183823 
993.846436 50.160713 
994.887207 79.98349 
1003.973022 71.693962 
1033.744751 46.094696 
1037.197144 151.289993 
1047.004028 66.140625 
1063.415771 41.642857 
1114.224854 46.337963 
1119.174316 73.520836 
1126.573364 71.840118 
1149.270752 64.321426 
1172.83606 74.175003 
1173.17981 57.41346 
1186.584106 83.884804 
1212.720703 61.09375 
1230.853271 55.923077 
1249.24939 66.076218 
1259.463135 101.0 
1284.617554 102.32415 
1284.751587 40.845001 
1310.197998 45.200001 
1315.700684 36.44643 
1326.745728 38.150002 
1329.557251 38.347221 
1379.790527 35.0 
1413.649048 47.81818 
1432.850342 111.001579 
1443.033691 39.205002 
1443.640503 54.125 
1445.105591 37.599998 
1450.07019 60.375 
1497.997925 36.75 
1515.228516 32.224998 
1521.605591 38.68145 
1546.054321 45.135868 
1579.513306 88.559998 
1586.529541 67.818184 
1586.654785 43.920456 
1587.397461 52.020832 
1626.911133 105.235291 
1640.296875 98.307693 
1643.061646 81.818184 
1679.776978 137.2099 
1685.580688 56.102272 
1690.582886 32.164474 
END IONS

BEGIN IONS
RTINSECONDS=314.665009
CHARGE=1-
MSLEVEL=2
PRECURSORINTENSITY=3671349.250000
SMILES=CCCCCc1cc(cc(c1C(=O)O)O)O
INCHI=InChI=1S/C12H16O4/c1-2-3-4-5-8-6-9(13)7-10(14)11(8)12(15)16/h6-7,13-14H,2-5H2,1H3,(H,15,16)
INCHIKEY=SXFKFRRXJUJGSS-UHFFFAOYSA-N
CLASS=Cleavage Products of Depsides and Depsidones
ADDUCT=[M-H]-
INSTRUMENT=Agilent Q-ToF 6530
PRECURSOR_MZ=223.0955
COMPOUND_NAME=Olivetolcarboxylic acid
ION_MODE=negative
FORMULA=C12H16O4
122.036652 26503.837891 
123.05217 2627.57666 
135.085571 52554.695312 
137.095917 76039.632812 
138.098816 7269.008301 
179.105072 1442892.125 
180.106735 196835.546875 
205.091461 2990.925537 
276.441406 303.05127 
284.180542 45.57143 
322.604095 52.44643 
341.105652 77.449997 
347.122345 46.685974 
392.810242 64.25 
395.12326 78.289284 
396.916077 59.166668 
398.018738 229.670639 
441.160034 75.297623 
446.851929 53.416668 
456.313843 76.78125 
462.347473 48.560184 
491.020081 50.008335 
516.065796 47.035713 
545.251892 48.969826 
551.73999 66.889999 
564.864014 55.445 
568.652283 72.678574 
571.161194 68.215424 
577.649048 46.010868 
618.026367 44.39674 
620.8927 36.219593 
633.343872 101.059212 
638.788025 62.782608 
684.709717 54.025002 
698.203064 44.003571 
702.349182 43.005001 
725.769653 123.290665 
737.427368 196.044357 
755.121826 119.594139 
762.115417 66.022957 
777.390137 62.799999 
782.845398 54.25 
789.143677 54.599998 
797.306396 51.347221 
867.811096 96.645546 
867.871643 50.017857 
877.386719 53.333332 
893.296204 87.240669 
898.283508 98.690002 
921.305542 46.852272 
928.53833 58.185608 
952.512878 202.0 
981.937622 36.111843 
986.232239 109.0 
1017.324402 38.48077 
1032.947876 43.888889 
1040.170288 42.076923 
1041.16748 49.889286 
1043.252686 150.506256 
1078.75061 50.099998 
1149.272217 60.976353 
1155.791992 64.219597 
1169.170776 43.003571 
1186.494629 46.5625 
1188.391846 70.75 
1192.15686 50.416668 
1230.242676 56.532608 
1259.519287 47.907257 
1267.86853 55.055557 
1290.032104 35.075001 
1294.057007 37.76923 
1313.49707 27.125 
1317.310547 50.728447 
1317.392334 51.644737 
1367.633667 27.450001 
1390.405762 40.125 
1401.236572 45.125 
1418.101318 47.148811 
1429.307251 68.04348 
1436.209473 46.273647 
1446.998169 59.25 
1474.571899 34.5 
1478.462524 39.721153 
1511.442017 28.075001 
1529.705811 33.404999 
1548.808105 46.002907 
1563.481934 33.307693 
1567.618774 32.25 
1592.574097 98.34375 
1596.936523 73.926285 
1621.670654 29.375 
1624.727661 47.0 
1643.42041 27.200001 
1646.192749 65.066666 
1670.122803 25.901316 
1698.192993 27.39674 
END IONS

BEGIN IONS
RTINSECONDS=425.792999
CHARGE=1-
MSLEVEL=2
PRECURSORINTENSITY=658476.875000
SMILES=CC(=O)CCCCCCCCCCCCCC1C(C(=C)C(=O)O1)C(=O)O
INCHI=InChI=1S/C21H34O5/c1-16(22)14-12-10-8-6-4-3-5-7-9-11-13-15-18-19(20(23)24)17(2)21(25)26-18/h18-19H,2-15H2,1H3,(H,23,24)
INCHIKEY=SKQHRBRVCRUFSX-UHFFFAOYSA-N
CLASS=Paraconic acids
ADDUCT=[M-H]-
INSTRUMENT=Agilent Q-ToF 6530
PRECURSOR_MZ=365.2243
COMPOUND_NAME=Pertusaric acid
ION_MODE=negative
FORMULA=C21H34O5
109.139008 1361.495605 
113.024605 695.965515 
123.0746 1344.290649 
169.156967 15843.306641 
170.162918 2293.480225 
183.17424 7682.581055 
207.209076 5228.552246 
209.191025 3865.888184 
223.204742 5054.27832 
261.220337 4740.483887 
275.235321 4075.986328 
277.251282 415158.34375 
278.253937 111363.085938 
279.317169 5720.745605 
321.237885 11165.583008 
382.300293 69.190475 
453.765778 71.117645 
492.070129 51.605 
495.354858 53.25 
503.751862 61.059212 
511.246582 59.716835 
532.195068 83.210526 
542.110901 67.1875 
562.341858 65.125 
588.909485 55.89352 
635.046021 73.556816 
638.311829 81.695511 
639.987183 81.760414 
645.571106 83.416664 
648.682495 63.75 
703.923523 47.004032 
709.857727 72.489868 
719.135315 46.219593 
727.698303 39.900002 
760.132935 107.257812 
776.811157 51.148811 
782.777588 91.01786 
792.111511 76.080132 
800.197449 49.0625 
812.732422 79.556038 
842.337097 42.038792 
857.56665 31.889706 
876.375854 59.099998 
922.807678 78.721153 
930.657104 74.133064 
941.113525 98.349487 
947.269226 75.612503 
960.488342 83.3629 
982.010925 67.455643 
997.779175 85.375 
1006.987854 69.32692 
1058.133545 38.083332 
1066.687744 53.016666 
1099.279785 45.520832 
1111.613281 64.00338 
1120.609253 54.907257 
1125.838501 64.094696 
1163.853271 93.281975 
1169.978149 93.003204 
1171.615479 132.061279 
1177.57959 51.003788 
1184.000977 65.480263 
1227.275513 85.027779 
1238.682373 104.32692 
1241.151855 91.034485 
1254.515015 54.680557 
1289.911865 98.670456 
1304.474487 60.165321 
1317.29541 82.445656 
1330.802246 65.603569 
1344.988159 117.556816 
1355.836426 120.681602 
1387.44812 108.404854 
1393.228149 72.003784 
1410.871094 118.289284 
1444.108276 50.654411 
1469.213379 138.056244 
1476.53894 77.097824 
1482.116455 87.714287 
1499.67627 82.96154 
1512.927612 72.265625 
1519.854736 55.025002 
1531.662842 54.205002 
1544.515381 96.222977 
1582.532349 134.189392 
1596.223877 135.917374 
1606.883789 55.875 
1623.595093 57.605 
1646.235229 83.08654 
1646.539917 51.140625 
1658.963379 61.450001 
1677.147095 18.680555 
1694.154663 43.055557 
1697.052979 28.19758 
END IONS

BEGIN IONS
RTINSECONDS=481.687988
CHARGE=1-
MSLEVEL=2
PRECURSORINTENSITY=108802.984375
SMILES=CCCCCCCCCCCCC[C@@H]1[C@H](C(C)C(=O)O1)C(=O)O
INCHI=InChI=1S/C19H34O4/c1-3-4-5-6-7-8-9-10-11-12-13-14-16-17(18(20)21)15(2)19(22)23-16/h15-17H,3-14H2,1-2H3,(H,20,21)/t15?,16-,17+/m1/s1
INCHIKEY=WLGALFYTFVOQPY-FGJGXXMFSA-N
CLASS=Paraconic acids
ADDUCT=[M-H]-
INSTRUMENT=Agilent Q-ToF 6530
PRECURSOR_MZ=325.236
COMPOUND_NAME=Dihidroprotolichesterinic acid
ION_MODE=negative
FORMULA=C19H34O4
113.024033 28003.390625 
113.596375 2055.958496 
114.349487 197.099976 
114.885017 209.2258 
115.883743 74.881096 
133.358948 118.89286 
183.01532 88.493423 
184.859268 77.375 
188.710098 85.13636 
212.882645 167.539841 
221.366028 115.2192 
223.05899 120.694229 
263.176361 158.458328 
281.247742 34861.210938 
281.398621 898.775391 
282.252258 7304.82373 
381.781799 61.444767 
391.16449 80.59375 
399.457886 102.231483 
425.163696 35.015625 
449.587372 37.41346 
456.368805 91.906746 
476.861694 41.099998 
485.679108 76.431122 
485.756836 40.920456 
499.039948 40.076923 
521.360229 61.450001 
561.669739 84.202271 
574.728333 79.800003 
586.869202 96.818184 
592.88269 87.656815 
626.510925 76.211205 
642.181519 78.886627 
665.85022 66.157051 
674.373047 59.228775 
674.692017 62.038792 
733.695679 162.297867 
735.445557 47.008335 
743.941956 75.206894 
761.133484 86.012497 
768.260559 67.112503 
794.720703 100.0 
795.817261 76.146736 
835.5448 128.958328 
838.564087 89.222565 
843.335815 90.04348 
850.075073 70.84375 
900.126343 57.041668 
909.784973 96.431122 
912.54541 52.556034 
914.63385 53.920456 
935.646484 104.315788 
965.84137 32.961956 
980.739624 40.367424 
988.387756 62.228775 
1019.898438 62.5 
1026.973999 43.900002 
1038.595825 37.57143 
1045.753418 65.779411 
1051.645874 62.592106 
1084.973267 76.778847 
1095.060913 99.025002 
1147.681519 73.226852 
1160.108398 88.32692 
1163.811523 83.598404 
1165.727539 59.165321 
1191.444336 75.49128 
1208.977539 61.025002 
1219.257935 40.266304 
1238.705444 113.333336 
1250.986084 41.761364 
1299.803833 36.840908 
1300.712524 42.685974 
1302.798096 56.337963 
1322.473511 35.599998 
1335.72644 32.480263 
1341.873291 84.236702 
1379.592773 32.125 
1420.949097 46.0 
1425.186646 37.25 
1446.963257 79.01667 
1452.975342 213.53334 
1457.797607 46.030407 
1464.779419 84.625 
1481.889771 41.680557 
1502.667847 115.297623 
1503.799072 39.142242 
1538.028687 35.125 
1538.993408 29.045 
1553.740967 69.0 
1564.839966 26.28409 
1647.328613 57.888889 
1647.420654 52.5625 
1661.426758 51.224998 
1663.691895 74.25 
1664.916504 129.917557 
1691.683472 37.160713 
END IONS

BEGIN IONS
RTINSECONDS=248.285004
CHARGE=1-
MSLEVEL=2
PRECURSORINTENSITY=317059.625000
SMILES=O[C@H]1[C@H](O)[C@@H](OC(=O)C)[C@H](Oc2cc3oc(C)cc(=O)c3c(O)c2C)O[C@@H]1CO
INCHI=InChI=1S/C19H22O10/c1-7-4-10(22)14-12(26-7)5-11(8(2)15(14)23)28-19-18(27-9(3)21)17(25)16(24)13(6-20)29-19/h4-5,13,16-20,23-25H,6H2,1-3H3/t13-,16-,17+,18-,19-/m1/s1
INCHIKEY=LBPJJBJKHHBVBI-LQDZTQBFSA-N
CLASS=Chromanes and Chromones
ADDUCT=[M-H+HCOOH]-
INSTRUMENT=Agilent Q-ToF 6530
PRECURSOR_MZ=455.108
COMPOUND_NAME=Mollin
ION_MODE=negative
FORMULA=C19H22O10
118.988129 932.379517 
121.0466 223.037033 
135.050323 264.901855 
161.203888 1440.889648 
203.041412 705.361267 
204.040619 8860.285156 
205.048386 131517.578125 
206.051422 24898.001953 
207.053696 2323.816406 
271.054657 396.213654 
272.066345 306.20929 
289.065125 505.578278 
349.084839 4024.318359 
349.294678 114.164474 
350.081268 1633.406616 
350.180145 116.875 
350.261902 92.440216 
351.083649 200.625 
409.111633 56295.371094 
410.108368 22179.617188 
411.126709 3260.252441 
506.607452 69.032143 
507.299347 61.964287 
524.91571 60.349998 
530.01416 79.515625 
568.852356 127.045212 
579.545227 60.642857 
609.883667 81.0 
617.681824 72.022057 
635.207947 63.002357 
638.023682 63.027439 
676.653503 61.400002 
676.768921 50.778225 
728.100464 46.102272 
756.797241 119.054878 
757.677429 74.08654 
777.414368 116.910713 
783.09613 84.449997 
786.736572 58.25 
849.123047 65.199997 
857.902954 85.240387 
869.562744 228.882874 
896.158752 147.320312 
912.533203 49.208332 
932.0224 112.043106 
956.747253 61.941177 
962.603271 93.14286 
964.595215 60.355392 
966.647034 128.125 
1008.597107 65.408783 
1010.061035 54.360294 
1033.938232 61.051231 
1037.167847 39.515244 
1065.726685 104.0 
1069.463379 52.728447 
1095.700317 52.360294 
1111.27063 39.816666 
1119.900513 61.041668 
1136.244507 95.003204 
1166.710693 126.333336 
1184.609375 52.889286 
1203.305054 54.041668 
1204.381958 54.595589 
1225.80249 57.174999 
1250.726929 126.407608 
1295.81189 55.173782 
1300.551025 59.926281 
1304.815918 58.929878 
1339.003174 76.009613 
1352.085815 68.326614 
1360.270508 77.515244 
1363.787231 61.852272 
1365.004761 62.117645 
1382.906982 59.107758 
1404.951782 40.923077 
1412.178345 38.391129 
1429.683594 38.16346 
1433.322266 32.778847 
1441.00415 93.208336 
1482.334595 67.005951 
1485.727539 65.07692 
1490.932007 46.640625 
1493.628052 80.047623 
1498.312988 38.777779 
1507.661133 41.0 
1552.495361 97.758621 
1565.293213 76.297623 
1571.990845 35.521553 
1581.327881 41.25 
1592.625 75.592102 
1624.166748 42.81818 
1640.88623 43.575001 
1643.604492 72.793602 
1661.903564 33.148811 
1674.151123 39.44643 
END IONS

BEGIN IONS
RTINSECONDS=469.156006
CHARGE=1-
MSLEVEL=2
PRECURSORINTENSITY=1700115.625000
SMILES=CC(C)C[C@@H](C(=O)OC)NC(=O)/C(=C\1/C(=C(C(=O)O1)c1ccccc1)O)/c1ccccc1
INCHI=InChI=1S/C25H25NO6/c1-15(2)14-18(24(29)31-3)26-23(28)20(17-12-8-5-9-13-17)22-21(27)19(25(30)32-22)16-10-6-4-7-11-16/h4-13,15,18,27H,14H2,1-3H3,(H,26,28)/b22-20-/t18-/m0/s1
INCHIKEY=IBSRGCBHIASQMQ-BKBKCADHSA-N
CLASS=Pulvinic Acid Derivatives
ADDUCT=[M-H]-
INSTRUMENT=Agilent Q-ToF 6530
PRECURSOR_MZ=434.1496
COMPOUND_NAME=Epanorin
ION_MODE=negative
FORMULA=C25H25NO6
101.03968 5433.154785 
102.042351 915.02124 
115.040176 1023.677673 
117.034126 372361.59375 
118.037697 49546.503906 
118.991463 2143.03125 
191.085571 112964.210938 
192.077988 32455.783203 
201.075592 6015.547852 
234.066757 11581.595703 
263.06958 376978.96875 
264.072968 105863.570312 
265.0755 7542.976562 
301.072296 21595.814453 
302.076813 8716.057617 
358.138855 5038.017578 
359.146149 1859.130249 
390.170197 583.371399 
508.16275 108.851418 
513.839539 100.0625 
513.983337 122.666664 
529.519714 79.013885 
538.679138 120.058823 
544.773865 100.035713 
568.57135 68.889709 
600.066711 90.521553 
609.223083 64.421509 
637.716919 86.008621 
642.8573 146.25 
664.756531 97.01786 
677.814941 107.003204 
690.141846 89.097824 
699.066772 74.669441 
713.688477 95.011902 
734.176941 92.285713 
750.253418 116.28125 
754.338562 98.387932 
761.018188 77.570946 
796.233643 87.012497 
804.401489 77.235466 
814.589294 81.592102 
850.017273 117.195312 
863.940918 97.111366 
872.570007 82.800003 
894.182068 92.739754 
897.912537 91.49128 
927.848083 86.880432 
932.472595 86.703949 
938.565491 102.232689 
978.531738 116.215515 
979.656555 84.5625 
994.972595 91.666664 
996.217773 79.78241 
1004.137878 73.009262 
1016.187683 103.815002 
1039.044922 55.266666 
1062.664307 54.728447 
1086.887695 50.57143 
1131.473877 70.17308 
1137.64563 88.010872 
1145.294678 116.044998 
1147.928467 97.275002 
1153.311646 112.013557 
1188.337646 104.75 
1204.842529 84.0 
1208.176392 98.388161 
1225.883057 86.100609 
1247.271606 114.043106 
1265.019165 102.290253 
1297.743652 88.111366 
1328.03418 102.065788 
1334.415039 99.579224 
1341.155518 70.246948 
1355.919312 242.96022 
1359.953857 67.657608 
1363.087036 71.25 
1414.556519 84.224998 
1423.822632 39.066666 
1427.356689 107.056252 
1452.718384 68.055557 
1482.527588 97.290321 
1504.351807 169.007141 
1504.952393 84.002274 
1558.191772 132.26651 
1561.586182 98.017311 
1587.329102 135.30867 
1597.19458 87.391304 
1604.168335 112.231483 
1642.039307 75.603569 
1645.149292 70.050003 
1645.692017 100.414215 
1660.101318 64.449997 
END IONS

BEGIN IONS
RTINSECONDS=626.801025
CHARGE=1-
MSLEVEL=2
PRECURSORINTENSITY=339090.531250
SMILES=O=C1Oc2c(c3C[C@@](O)(CCCCC)OC(=O)c3c(O)c2)Oc2c1c(cc(c2)OC)CC(=O)CCCCC
INCHI=InChI=1S/C29H34O9/c1-4-6-8-10-18(30)12-17-13-19(35-3)14-22-24(17)27(32)37-23-15-21(31)25-20(26(23)36-22)16-29(34,38-28(25)33)11-9-7-5-2/h13-15,31,34H,4-12,16H2,1-3H3/t29-/m1/s1
INCHIKEY=DQYWDDCXRXABIH-GDLZYMKVSA-N
CLASS=Depsidones
ADDUCT=[M-H]-
INSTRUMENT=Agilent Q-ToF 6530
PRECURSOR_MZ=525.2057
COMPOUND_NAME=Alpha-collatolic acid
ION_MODE=negative
FORMULA=C29H34O9
123.006882 1027.882812 
137.164368 941.115051 
165.018555 1767.008301 
219.101669 2928.024658 
225.139023 2845.318604 
226.080215 4334.481445 
285.092133 11287.655273 
298.118622 5516.202637 
299.125092 6122.908691 
300.136322 12275.46875 
315.159363 9169.452148 
367.117126 10678.983398 
368.121918 17387.064453 
369.122894 7475.206543 
383.147156 24778.839844 
384.151276 16170.486328 
437.22226 1160.410278 
438.227051 1173.142456 
465.194824 2001.675903 
466.19339 1742.882812 
481.229675 3680.658691 
482.234863 3737.26416 
610.555237 52.190475 
620.721558 56.640625 
634.576294 202.576324 
634.666626 56.347221 
673.636353 55.025002 
696.382812 61.041668 
701.110657 78.256355 
739.62439 125.63269 
749.276978 128.571426 
773.019165 60.761906 
779.174927 98.833336 
810.842163 63.028847 
833.815552 91.512497 
841.477722 83.004036 
842.318665 96.453705 
850.362244 48.111488 
854.14447 68.115562 
909.0271 73.307693 
920.967041 78.654411 
922.183105 169.238861 
960.196838 97.036018 
973.414734 58.142242 
998.697632 62.149391 
1003.852051 91.065788 
1025.339111 173.330643 
1026.007202 110.333336 
1038.435059 60.224998 
1062.614502 71.002548 
1100.238403 155.787231 
1107.07605 53.016666 
1113.094238 49.961956 
1128.503418 56.0 
1137.910889 112.259262 
1156.793335 74.625 
1168.234497 75.96154 
1201.390381 48.307693 
1209.904175 59.003204 
1213.895874 48.575001 
1236.574707 62.400002 
1258.316895 61.349998 
1264.976807 56.941177 
1279.207764 51.140625 
1306.508789 77.015625 
1306.890747 83.0 
1335.507202 39.28125 
1337.955078 69.453705 
1340.204346 52.391129 
1359.928589 63.140625 
1378.813843 38.066666 
1414.467041 34.333332 
1415.936768 77.125 
1423.108765 29.05921 
1434.029663 83.640625 
1436.742188 109.005951 
1483.476074 40.816666 
1512.577881 49.48077 
1520.057983 85.926285 
1527.552856 32.041668 
1535.022705 29.004311 
1570.98291 47.005436 
1582.836426 34.570652 
1588.434326 28.48077 
1592.464478 30.844999 
END IONS

BEGIN IONS
RTINSECONDS=359.622986
CHARGE=1-
MSLEVEL=2
PRECURSORINTENSITY=2866023.500000
SMILES=O=C1Oc2c(c(C)c(C(=O)O)c(O)c2COC)Oc2c(C=O)c(O)cc(C)c12
INCHI=InChI=1S/C19H16O9/c1-7-4-11(21)9(5-20)16-12(7)19(25)28-17-10(6-26-3)14(22)13(18(23)24)8(2)15(17)27-16/h4-5,21-22H,6H2,1-3H3,(H,23,24)
INCHIKEY=IJJZZLYYFYYEHT-UHFFFAOYSA-N
CLASS=Depsidones
ADDUCT=[M-H]-
INSTRUMENT=Agilent Q-ToF 6530
PRECURSOR_MZ=387.0683
COMPOUND_NAME=9'-methylprotocetraric acid
ION_MODE=negative
FORMULA=C19H16O9
105.070503 2758.395996 
107.025558 2538.292236 
133.030121 5169.777832 
150.037537 8014.765137 
151.124374 17202.972656 
213.056305 128931.351562 
229.050964 197860.359375 
239.057526 154415.875 
267.067444 695712.5 
268.068939 157654.265625 
299.092834 109409.28125 
311.057007 274822.9375 
312.058929 73557.09375 
343.081177 35017.894531 
355.046234 26353.849609 
444.079834 87.721153 
449.318573 139.375 
462.875793 99.100807 
471.396637 99.347824 
506.973053 104.408333 
529.403198 145.093018 
560.032776 130.523804 
563.108521 99.160088 
587.525818 175.196426 
588.872437 145.59259 
606.167542 98.30616 
643.8573 94.056816 
653.962219 142.024994 
667.167542 89.089287 
688.378418 89.59259 
692.021912 124.567566 
722.39447 133.13089 
725.192017 82.462837 
742.781372 148.919113 
779.375244 87.347221 
789.134644 79.045456 
808.814148 93.232689 
833.646057 104.285713 
840.375366 84.141304 
872.644897 78.666664 
881.695068 73.211205 
897.580322 73.816666 
901.60199 104.160088 
933.812439 86.240082 
944.43573 84.26667 
951.474426 91.89286 
961.392334 93.0 
1005.38031 86.890625 
1022.519897 72.888885 
1039.542603 143.467468 
1040.47522 99.669441 
1062.243164 81.939514 
1069.90564 78.555855 
1091.238647 77.532608 
1096.581177 76.669121 
1099.368774 83.805 
1114.341064 163.843018 
1125.598755 75.266304 
1159.022827 79.573982 
1179.477295 112.889709 
1201.696045 77.08696 
1260.885742 101.021225 
1298.214233 77.875 
1321.182251 75.14286 
1333.755859 88.04808 
1370.015137 231.919022 
1395.724487 112.060814 
1402.471802 129.016312 
1414.692017 83.25798 
1419.322876 135.40834 
1427.782471 260.00119 
1443.690308 73.26651 
1453.403442 73.08036 
1555.12085 101.837685 
1578.664795 60.408783 
1581.105835 81.83696 
1590.007568 79.666664 
1611.981201 72.520836 
1633.602661 89.002777 
1635.294556 88.223213 
1642.544678 75.6875 
1677.068848 78.349136 
END IONS

BEGIN IONS
RTINSECONDS=402.641998
CHARGE=1-
MSLEVEL=2
PRECURSORINTENSITY=215833.968750
SMILES=O=c1c2c(oc3c1c(C)cc(OC)c3Cl)c(Cl)c(O)c(Cl)c2O
INCHI=InChI=1S/C15H9Cl3O5/c1-4-3-5(22-2)8(16)14-6(4)11(19)7-12(20)9(17)13(21)10(18)15(7)23-14/h3,20-21H,1-2H3
INCHIKEY=SMLUHOHPDVBXKH-UHFFFAOYSA-N
CLASS=Xanthones and bis-Xanthones
ADDUCT=[M-H]-
INSTRUMENT=Agilent Q-ToF 6530
PRECURSOR_MZ=372.9418
COMPOUND_NAME=6-O-Methylarthothelin
ION_MODE=negative
FORMULA=C15H9Cl3O5
102.925407 83.833336 
104.022728 104.41346 
111.005913 170.141357 
139.978485 678.401367 
162.936523 2510.850098 
164.929977 652.321899 
173.98941 1675.05188 
201.993362 2427.577881 
229.972473 2194.803223 
237.957581 3426.075684 
265.980103 8658.03125 
267.953857 2766.635742 
293.945648 3297.737061 
329.925171 6700.75 
430.948334 53.367424 
447.952911 74.102272 
485.702026 72.308823 
503.465088 93.346153 
520.221741 67.222565 
531.572144 52.125 
534.854614 74.720589 
564.21283 66.694443 
578.794983 47.942307 
586.029175 48.680557 
622.706238 87.284088 
642.627136 33.041668 
686.946899 59.695515 
703.5 103.532608 
708.55658 52.625 
712.105774 57.615383 
725.359375 89.714287 
751.391113 77.529411 
764.990356 75.510414 
782.611938 54.266666 
840.524658 106.01786 
847.663879 123.547295 
852.955261 80.769234 
853.830261 97.030304 
855.48053 82.654411 
911.115662 62.198528 
915.872864 54.5625 
931.198364 70.004631 
931.270081 70.260414 
952.319092 77.681602 
975.945618 63.347221 
1011.252808 55.025002 
1046.773315 89.006409 
1060.242432 49.041668 
1072.173096 79.422417 
1090.577271 77.058823 
1101.990479 48.720238 
1116.587524 72.0 
1128.090942 58.445 
1156.852539 65.0 
1179.465332 29.0 
1194.652344 53.235466 
1216.22998 31.5 
1231.986572 39.23077 
1245.073975 53.449074 
1256.286499 60.245689 
1256.762451 30.006578 
1261.64209 67.025002 
1298.388672 29.071428 
1342.574219 28.520834 
1358.077393 52.266666 
1364.056519 69.520164 
1409.147705 135.3125 
1409.570679 66.599998 
1413.84436 68.160713 
1422.366455 45.645 
1458.360596 50.102272 
1480.975708 73.349998 
1508.72998 26.557692 
1510.153687 72.520836 
1510.273438 30.333334 
1564.285767 49.75 
1567.998657 88.010414 
1568.270508 42.160713 
1593.364502 62.333332 
1616.535767 63.8125 
1626.18689 32.160713 
1638.42334 55.240383 
1650.522095 36.008335 
1685.911499 49.094696 
1689.843262 92.939514 
1690.042236 24.969828 
1693.010986 30.0625 
END IONS

BEGIN IONS
RTINSECONDS=436.347992
CHARGE=1-
MSLEVEL=2
PRECURSORINTENSITY=4864913.000000
SMILES=O=C1O/C(=C(/C(=O)N[C@H](C(=O)O)Cc2ccccc2)\c2ccccc2)/C(=C1c1ccccc1)O
INCHI=InChI=1S/C27H21NO6/c29-23-21(18-12-6-2-7-13-18)27(33)34-24(23)22(19-14-8-3-9-15-19)25(30)28-20(26(31)32)16-17-10-4-1-5-11-17/h1-15,20,29H,16H2,(H,28,30)(H,31,32)/b24-22+/t20-/m0/s1
INCHIKEY=XTLHEUFWRQKNNG-YVURAWIMSA-N
CLASS=Pulvinic Acid Derivatives
ADDUCT=[M-H]-
INSTRUMENT=Agilent Q-ToF 6530
PRECURSOR_MZ=454.1166
COMPOUND_NAME=Norrhizocarpic acid
ION_MODE=negative
FORMULA=C27H21NO6
101.040016 21088.462891 
103.055374 7458.598145 
117.034233 1001450.875 
118.038139 143394.921875 
164.07106 55817.152344 
184.039307 48600.285156 
191.085983 309077.15625 
192.089386 92352.390625 
234.06778 52183.15625 
248.106689 20611.173828 
263.071136 1196910.25 
264.074005 384050.9375 
265.076508 30468.169922 
275.093628 45192.40625 
364.129669 4629.970215 
366.144958 51046.679688 
367.147156 30213.548828 
410.133453 574579.75 
411.138855 372086.8125 
564.833008 123.764832 
568.585327 142.173386 
583.345642 135.333328 
596.752563 146.820312 
623.461548 166.0 
633.597168 127.602272 
634.380798 130.586044 
658.96637 222.038788 
672.372192 129.809937 
694.395325 121.01461 
700.248535 205.810715 
707.695374 121.778847 
735.59198 137.166214 
752.231018 127.347221 
759.922668 101.006577 
775.318909 134.440216 
789.080078 130.60228 
815.755615 140.735001 
839.993225 140.759995 
841.924194 73.030403 
855.14447 86.042809 
861.45459 122.041664 
874.753662 128.508804 
901.006897 152.0 
916.18158 86.050003 
919.368591 103.603569 
921.870422 92.41346 
947.850037 173.906754 
985.440613 82.165543 
1006.709473 155.960785 
1020.522583 89.969826 
1028.492065 115.570946 
1051.546509 97.050003 
1061.275024 127.160713 
1091.054199 91.484848 
1098.844971 153.900864 
1115.161377 94.689651 
1132.734009 132.449997 
1166.007568 170.040909 
1193.826904 104.03846 
1249.131104 125.958336 
1267.123779 131.223221 
1275.708862 134.510422 
1292.59375 138.001312 
1292.654663 158.452835 
1319.975952 68.038795 
1320.954834 129.5 
1379.848267 159.625 
1394.950317 140.307693 
1403.33252 72.926285 
1410.419189 101.723213 
1453.927368 157.911285 
1457.185669 141.633331 
1469.533936 148.40834 
1471.080444 93.107452 
1472.849121 134.182236 
1478.239136 86.08696 
1526.932373 78.75 
1534.073608 131.472061 
1546.125244 112.002274 
1556.843018 144.25 
1568.05603 116.102272 
1597.001343 145.453705 
1598.633545 201.569031 
1641.891113 98.094231 
1656.512573 134.555847 
1658.233521 88.6875 
1688.474609 88.375 
END IONS

BEGIN IONS
RTINSECONDS=237.186005
CHARGE=1-
MSLEVEL=2
PRECURSORINTENSITY=907512.500000
SMILES=Oc1cc2c(c3c1C(=O)OC3)c1c(O)cc(C)c(C(=O)O)c1o2
INCHI=InChI=1S/C16H10O7/c1-5-2-7(17)13-12-6-4-22-16(21)11(6)8(18)3-9(12)23-14(13)10(5)15(19)20/h2-3,17-18H,4H2,1H3,(H,19,20)
INCHIKEY=QZYZPZAPRHESDA-UHFFFAOYSA-N
CLASS=Dibenzofuranes
ADDUCT=[M-H]-
INSTRUMENT=Agilent Q-ToF 6530
PRECURSOR_MZ=313.0299
COMPOUND_NAME=Porphyrilic acid
ION_MODE=negative
FORMULA=C16H10O7
115.041214 523.416199 
141.055008 797.435425 
169.063507 3916.898438 
182.035477 22475.431641 
197.058807 136252.015625 
198.06192 24996.376953 
225.05304 320877.71875 
226.056473 58228.40625 
269.040894 246477.296875 
270.045258 47700.449219 
371.399658 83.764709 
387.877563 117.04348 
414.590759 128.440796 
442.438416 80.028572 
456.353302 131.447296 
466.986023 65.75 
474.374237 76.734756 
500.478363 233.510208 
500.569702 80.247948 
532.630676 80.960526 
558.696533 81.884804 
559.64209 116.792908 
602.414062 102.375 
612.591064 59.219593 
616.729858 73.284088 
620.856995 69.654411 
662.007935 76.224998 
664.147949 63.148811 
674.995483 91.89286 
703.192505 54.150002 
704.773682 52.142857 
768.710754 96.0 
779.592041 151.028564 
781.351685 97.041664 
782.077148 119.008331 
796.436462 109.818184 
806.219666 92.80278 
856.735168 102.907257 
877.992676 61.367424 
904.010071 111.25 
906.700439 80.735001 
908.931641 108.432892 
920.606567 64.793602 
950.606079 82.720238 
970.078247 54.942307 
990.828186 81.408333 
999.276611 54.599998 
1005.600464 56.266666 
1005.874023 47.39674 
1027.963989 57.404999 
1057.098877 119.817566 
1075.403564 92.089996 
1080.818848 78.01667 
1092.527832 61.471153 
1127.812378 63.094696 
1140.199829 103.645164 
1143.528687 64.777779 
1144.346313 51.142857 
1166.27478 127.967102 
1196.644775 52.289288 
1208.42981 52.100807 
1235.022949 49.25 
1244.985352 61.5625 
1258.199097 54.0 
1304.666992 86.333336 
1308.956055 63.41346 
1344.609375 107.723358 
1354.7948 102.685974 
1370.236328 108.47406 
1371.098267 110.875 
1395.241821 59.862068 
1469.517944 66.370613 
1474.280396 69.166664 
1475.412964 63.384617 
1475.833984 139.296432 
1522.154541 78.764709 
1542.828369 62.125 
1573.436768 80.208336 
1584.205811 192.422226 
1588.937744 69.695511 
1617.392944 112.457146 
1643.741211 79.793106 
1668.415894 54.148811 
1680.634888 91.545456 
1681.11084 65.901314 
1694.794067 56.150002 
END IONS

BEGIN IONS
RTINSECONDS=524.36499
CHARGE=1-
MSLEVEL=2
PRECURSORINTENSITY=882862.812500
SMILES=CCCCCCCCCCCCC[C@@H]1OC(=O)C(=C)[C@@H]1C(=O)O
INCHI=InChI=1S/C19H32O4/c1-3-4-5-6-7-8-9-10-11-12-13-14-16-17(18(20)21)15(2)19(22)23-16/h16-17H,2-14H2,1H3,(H,20,21)/t16-,17-/m0/s1
INCHIKEY=WZYZDHVPSZCEEP-IRXDYDNUSA-N
CLASS=Paraconic acids
ADDUCT=[M-H]-
INSTRUMENT=Agilent Q-ToF 6530
PRECURSOR_MZ=323.2155
COMPOUND_NAME=allo-Protolichesterinic acid
ION_MODE=negative
FORMULA=C19H32O4
104.860062 90.737244 
113.023117 660.226196 
144.431992 101.022057 
159.604279 123.084457 
164.372467 159.291672 
235.272247 19305.257812 
236.244553 3956.855957 
279.231903 292323.75 
280.237152 65664.140625 
387.795929 67.5625 
423.072754 102.056816 
428.898193 112.160255 
450.154053 109.115562 
458.847473 110.260414 
479.929443 59.5 
494.521362 65.120766 
504.921722 95.367424 
515.225586 72.800003 
538.23645 75.055557 
557.458618 118.132812 
568.098572 72.102272 
574.870972 161.107758 
581.471375 78.165817 
606.109375 110.80278 
627.129395 79.012497 
631.084961 97.669121 
659.872253 84.967102 
662.864258 90.256355 
670.92749 166.027435 
686.889648 147.063721 
698.74646 76.071426 
726.534363 64.015625 
732.878845 94.890434 
771.188599 90.25 
793.685974 68.375 
794.157227 68.367645 
802.084717 92.445984 
837.333862 74.136108 
849.609253 97.223686 
855.703369 60.013889 
863.984863 60.0 
879.34845 61.896278 
914.333496 55.761906 
929.178833 57.308674 
930.276367 58.012501 
940.735229 60.799999 
949.728943 57.032143 
965.04364 98.202271 
1010.201904 61.515625 
1013.176392 57.923077 
1017.207947 50.240383 
1020.309143 107.666664 
1041.051025 45.875 
1048.779175 57.256355 
1100.976318 50.173782 
1114.279907 88.011902 
1145.65979 84.160713 
1154.470947 75.002449 
1156.012939 56.005951 
1181.163818 64.541664 
1186.119141 60.39674 
1224.218628 57.00338 
1228.832153 88.840118 
1230.481812 67.04808 
1264.355225 92.905487 
1281.320068 66.727272 
1290.797607 102.778061 
1292.459961 72.530663 
1307.128174 146.338852 
1320.980103 111.202271 
1344.723999 62.002777 
1352.982056 68.347221 
1368.536499 61.30682 
1398.840576 53.920456 
1413.90564 52.642857 
1427.11377 53.265625 
1438.386475 70.939514 
1471.096191 56.578949 
1475.891846 93.088768 
1482.442139 64.119186 
1498.107056 77.446426 
1520.032593 76.036018 
1523.959106 50.148811 
1560.961426 37.125 
1620.631592 55.132355 
1623.458252 57.654068 
1623.580688 53.07143 
1661.513672 70.245689 
1667.77063 98.125 
1683.523315 111.653229 
END IONS

BEGIN IONS
RTINSECONDS=314.174011
CHARGE=1-
MSLEVEL=2
PRECURSORINTENSITY=52958.500000
SMILES=Cc1cc(c2c(c1)C(=O)c1c(C2=O)c(cc(c1O)OC)O)O
INCHI=InChI=1S/C16H12O6/c1-6-3-7-11(8(17)4-6)16(21)12-9(18)5-10(22-2)15(20)13(12)14(7)19/h3-5,17-18,20H,1-2H3
INCHIKEY=GLLRIXZGBQOFLM-UHFFFAOYSA-N
CLASS=Quinones
ADDUCT=[M-H]-
INSTRUMENT=Agilent Q-ToF 6530
PRECURSOR_MZ=299.05
COMPOUND_NAME=Xanthorin
ION_MODE=negative
FORMULA=C16H12O6
100.276344 102.764709 
140.316269 77.14286 
146.889496 86.537788 
150.360626 147.360001 
151.869705 68.23214 
152.557755 82.408333 
172.046356 83.0 
227.021393 286.026154 
228.053741 152.68512 
239.036285 178.035919 
255.027283 320.139893 
256.038116 2405.223633 
257.040192 606.335266 
317.115692 91.691902 
353.653381 49.059212 
387.697845 111.5625 
417.558472 39.520832 
431.891418 76.615387 
440.437958 51.23077 
440.584747 48.387821 
450.716431 44.344513 
485.155151 47.048912 
488.956177 47.888889 
505.24353 63.894737 
539.52301 53.560184 
544.520874 45.462837 
548.779297 42.150002 
549.46582 130.595581 
588.978516 52.734756 
623.154541 31.0 
628.803711 44.440216 
650.011841 25.008333 
650.918701 44.01923 
667.168823 54.008335 
685.335632 28.020834 
701.862793 29.009615 
702.153015 34.041668 
728.002563 52.541668 
739.16687 24.007353 
739.852417 25.347221 
800.384094 42.444443 
800.841309 37.969826 
803.275146 89.125 
829.224792 54.259617 
850.996216 83.119186 
867.236267 46.5 
893.032959 29.796053 
904.150208 20.375 
947.089417 23.166666 
966.424927 43.208332 
979.86853 29.006578 
990.550659 40.036289 
1001.894775 123.114288 
1004.029724 28.022728 
1056.463623 56.515625 
1057.771973 31.038794 
1063.242432 28.625 
1091.902466 32.125 
1100.786499 34.244999 
1121.332031 29.875 
1140.564575 30.941177 
1146.709839 66.102272 
1159.221558 43.125 
1180.182373 45.24662 
1190.589478 49.520161 
1224.922729 125.099998 
1230.344727 86.820457 
1232.022827 43.920456 
1263.09375 40.013889 
1263.672241 79.640625 
1279.905273 51.560184 
1280.094727 35.048912 
1334.081665 25.004999 
1357.429688 41.625 
1358.157227 44.224998 
1358.334717 22.408333 
1358.806641 24.005953 
1421.879639 28.0 
1444.463501 24.183823 
1445.949341 34.339287 
1446.033447 27.025 
1451.131104 88.133064 
1470.894043 22.844999 
1520.246826 18.102272 
1535.305054 52.133064 
1542.554077 22.28409 
1565.174316 24.041666 
1580.375 30.245001 
1584.889404 37.900864 
1600.738281 107.209999 
1600.86853 34.266304 
1618.006104 45.875 
1632.692871 39.0 
1651.499878 40.083332 
1651.60083 24.125 
1673.83313 20.208334 
1683.536865 36.595589 
1697.924683 28.25 
END IONS

BEGIN IONS
RTINSECONDS=381.007996
CHARGE=1-
MSLEVEL=2
PRECURSORINTENSITY=8125521.500000
SMILES=O=C1c2c(C)cc(O)c(C=O)c2Oc2c(O1)c(c(c(c2C)C(=O)O)O)C
INCHI=InChI=1S/C18H14O8/c1-6-4-10(20)9(5-19)16-11(6)18(24)26-15-8(3)13(21)12(17(22)23)7(2)14(15)25-16/h4-5,20-21H,1-3H3,(H,22,23)
INCHIKEY=FOKAHYDSEWGOHN-UHFFFAOYSA-N
CLASS=Depsidones
ADDUCT=[M-H+HCOOH]-
INSTRUMENT=Agilent Q-ToF 6530
PRECURSOR_MZ=403.0997
COMPOUND_NAME=Virensic acid
ION_MODE=negative
FORMULA=C18H14O8
107.049828 45940.269531 
172.050598 84160.578125 
213.053375 362920.125 
228.042618 517809.96875 
229.046768 237724.765625 
251.067963 625544.5625 
268.070038 533959.3125 
295.057007 1276228.375 
296.059906 298297.46875 
327.081879 240875.578125 
371.067902 3501837.5 
371.236389 220166.4375 
372.074829 1167044.5 
444.369019 175.03334 
462.004333 148.595337 
478.07077 169.53125 
499.918152 132.682434 
500.938232 207.030334 
534.423767 129.271744 
574.806885 134.4375 
581.687439 192.181183 
605.039001 140.446426 
607.915527 151.695511 
615.904968 173.664719 
660.763489 207.592102 
681.147461 117.190475 
691.479858 131.112076 
694.787048 139.300003 
697.898376 161.666672 
700.631409 145.010422 
738.116699 214.10025 
756.477234 120.03846 
766.315308 120.55645 
771.557373 118.63269 
775.232727 118.911293 
802.31134 151.15625 
827.06488 116.633331 
850.483337 170.395355 
867.710815 121.456894 
888.951721 127.495964 
893.878357 157.917557 
899.628784 201.281662 
944.065857 152.20166 
951.167847 131.565216 
969.658325 160.777771 
981.127197 169.195648 
992.815063 127.556816 
1016.937866 114.047623 
1036.949097 118.680557 
1065.519165 122.0 
1078.174438 128.570953 
1080.194946 119.166664 
1114.488525 127.965515 
1120.183594 125.878426 
1122.989624 143.792908 
1172.867676 158.21489 
1181.547729 147.064285 
1224.629639 133.529419 
1230.860229 138.080353 
1235.117188 130.007141 
1274.391479 143.65097 
1290.9375 170.470581 
1295.847046 157.413269 
1314.736816 274.555634 
1339.577271 270.766937 
1343.757446 166.744049 
1351.094604 122.140625 
1352.137329 116.529495 
1451.115112 112.130432 
1457.224854 143.041672 
1497.002563 120.025002 
1510.362183 124.573982 
1522.463257 113.778229 
1527.890381 154.391022 
1538.580078 124.016304 
1549.751343 120.259613 
1623.094971 121.612503 
1667.489014 121.215424 
END IONS

BEGIN IONS
RTINSECONDS=321.664001
CHARGE=1-
MSLEVEL=2
PRECURSORINTENSITY=150057.203125
SMILES=Cc1cc(=O)c2c(c(c(cc2o1)OC)C)O
INCHI=InChI=1S/C12H12O4/c1-6-4-8(13)11-10(16-6)5-9(15-3)7(2)12(11)14/h4-5,14H,1-3H3
INCHIKEY=RGTSAUBIQAKKLC-UHFFFAOYSA-N
CLASS=Chromanes and Chromones
ADDUCT=[M-H]-
INSTRUMENT=Agilent Q-ToF 6530
PRECURSOR_MZ=219.06
COMPOUND_NAME=Eugenitin
ION_MODE=negative
FORMULA=C12H12O4
135.190247 923.828491 
138.975906 1230.232544 
145.028641 1360.129639 
174.953293 9584.501953 
294.418976 48.115742 
298.478577 45.059212 
298.683624 64.568184 
304.526917 37.720589 
321.904358 86.520836 
352.866669 46.721153 
375.627838 54.00338 
378.680725 64.235291 
401.948364 40.0 
408.789185 67.012497 
437.231903 34.242645 
445.14621 36.842106 
447.135864 34.640152 
453.110962 35.375 
492.166534 41.785713 
498.616791 73.069443 
513.160339 44.235294 
551.967041 50.020832 
553.638306 56.020832 
555.711731 40.694443 
565.675171 33.692307 
571.873596 48.263157 
587.744751 28.032143 
649.96936 66.859695 
652.680969 42.0 
663.715088 77.06649 
670.915527 53.721153 
671.377502 124.462914 
679.053528 57.721153 
704.905518 44.532894 
733.848389 78.130318 
779.502808 85.678574 
790.775757 50.023937 
792.747437 85.802635 
806.792786 80.003784 
811.96106 97.0 
828.734253 62.125 
890.64624 54.005436 
898.108582 37.224998 
909.520569 54.337963 
914.213318 51.791668 
946.828186 130.79361 
963.032349 119.920456 
969.191101 75.765625 
994.605164 164.20166 
999.659058 70.89286 
1013.210815 64.285713 
1025.483643 42.266666 
1039.342773 39.090908 
1050.705078 46.044998 
1078.286133 35.57143 
1110.252808 35.605 
1118.487793 49.603573 
1121.14502 111.578575 
1141.523193 51.462837 
1150.603882 81.720589 
1163.047607 51.875 
1176.318604 45.049999 
1205.5271 71.002777 
1214.991455 41.625 
1223.942261 56.289288 
1227.498047 87.692307 
1274.766479 78.375 
1293.000732 27.004629 
1322.983887 62.689999 
1328.878174 34.5 
1343.022095 40.455647 
1354.093262 51.551472 
1372.376221 41.720589 
1374.878662 50.30682 
1406.2229 88.036293 
1423.565063 58.640625 
1425.617554 53.339287 
1467.038574 29.036291 
1471.68335 27.004999 
1471.749756 30.004629 
1508.883179 31.0 
1533.661499 70.041664 
1536.578125 43.041668 
1555.654053 25.01923 
1567.992432 31.148809 
1610.492676 77.247948 
1617.269531 36.028847 
1626.625488 28.9 
1635.07251 46.041668 
1643.229248 36.666668 
1658.685791 60.511364 
1684.674072 62.112499 
1687.382568 56.923077 
1694.048828 76.778847 
1697.113525 35.901318 
END IONS

BEGIN IONS
RTINSECONDS=382.985992
CHARGE=1-
MSLEVEL=2
PRECURSORINTENSITY=68337.179688
SMILES=Cc1cc(c2c(c1)C(=O)c1c(C2=O)c(ccc1)O)O
INCHI=InChI=1S/C15H10O4/c1-7-5-9-13(11(17)6-7)15(19)12-8(14(9)18)3-2-4-10(12)16/h2-6,16-17H,1H3
INCHIKEY=LQGUBLBATBMXHT-UHFFFAOYSA-N
CLASS=Quinones
ADDUCT=[M-H]-
INSTRUMENT=Agilent Q-ToF 6530
PRECURSOR_MZ=253.05
COMPOUND_NAME=Chrysophanol
ION_MODE=negative
FORMULA=C15H10O4
111.03228 120.963234 
113.051498 227.361603 
116.980438 161.781784 
117.914551 127.446426 
118.949661 74.326614 
181.099075 102.644997 
182.094604 99.010414 
192.629288 88.510414 
224.060303 148.024994 
225.056152 876.246277 
271.90625 90.25 
279.562225 77.907257 
322.709045 36.894737 
326.800049 45.003204 
328.4599 36.694443 
330.996033 36.272728 
358.426758 58.599998 
385.81955 56.009617 
388.444305 40.015625 
403.293549 57.038792 
407.34433 44.140625 
425.890015 36.034092 
451.4729 64.391129 
497.415527 65.669441 
516.793335 101.102272 
518.607788 46.052631 
524.501465 42.020832 
535.356873 154.083908 
562.434692 89.351746 
609.650574 62.391304 
612.882751 69.10714 
614.493286 50.363636 
642.171082 63.657608 
647.335632 66.907257 
673.764526 60.390625 
700.644897 37.640152 
701.099121 33.022728 
728.52063 49.285713 
771.977661 40.013889 
776.354675 51.25 
784.70459 52.645 
785.204529 74.905487 
799.86554 34.32143 
810.714355 42.015625 
856.835022 73.5625 
865.051147 27.011364 
882.690674 45.889706 
885.791565 54.0 
900.369568 26.454546 
915.801697 23.521551 
961.937744 24.0 
995.211853 36.408333 
995.309875 27.291666 
1024.111694 56.761906 
1024.248779 34.440216 
1035.264893 59.322369 
1060.864746 30.570652 
1065.595703 81.112503 
1066.182983 70.015625 
1076.671875 26.39674 
1123.570801 27.157051 
1149.176636 28.285715 
1150.727905 75.96154 
1164.395874 47.901318 
1164.705444 31.245689 
1206.605469 41.148811 
1211.211792 42.487904 
1226.32605 145.046646 
1260.364868 31.321428 
1264.336914 25.142857 
1275.875244 31.041666 
1293.006226 25.0 
1323.701904 34.017857 
1324.115845 23.025 
1357.76123 33.017857 
1372.117432 63.76923 
1383.734009 77.79348 
1408.933716 67.246948 
1415.738647 40.480263 
1419.138794 44.541668 
1430.060425 59.907257 
1487.085938 48.003571 
1494.717773 41.049999 
1513.561646 32.326923 
1533.386108 51.148811 
1542.569092 55.0 
1542.72876 26.020834 
1584.403076 21.520834 
1592.172119 22.148809 
1601.997559 63.247643 
1649.772583 64.066666 
1679.708618 41.041668 
1686.691895 24.148809 
1687.414551 25.142857 
1688.097168 33.454544 
1692.706787 38.515244 
END IONS

BEGIN IONS
RTINSECONDS=384.367004
CHARGE=1-
MSLEVEL=2
PRECURSORINTENSITY=60238.789062
SMILES=CC(=O)c1c(cc2c(c1O)C(=O)c1c(cc(cc1C2=O)O)O)O
INCHI=InChI=1S/C16H10O7/c1-5(17)11-10(20)4-8-13(15(11)22)16(23)12-7(14(8)21)2-6(18)3-9(12)19/h2-4,18-20,22H,1H3
INCHIKEY=OVWIVSWXKVYPAG-UHFFFAOYSA-N
CLASS=Quinones
ADDUCT=[M-H]-
INSTRUMENT=Agilent Q-ToF 6530
PRECURSOR_MZ=313.0334
COMPOUND_NAME=Haematommone
ION_MODE=negative
FORMULA=C16H10O7
101.039436 130.654068 
141.032043 229.797104 
169.02272 493.246582 
185.037308 868.243225 
198.03064 1012.55365 
213.027756 1080.034424 
214.026291 1095.920044 
239.030975 1165.797729 
242.029724 2900.136719 
269.030273 1802.777832 
285.038788 1716.763794 
386.397949 80.117645 
411.818573 136.001663 
413.826965 71.568184 
419.993164 104.037651 
424.229156 69.555855 
461.403046 63.160713 
478.444855 92.300003 
498.679932 47.845001 
537.601929 59.939518 
557.138611 117.570656 
560.801086 48.25 
573.488342 73.049416 
603.873901 44.455647 
664.31958 70.666664 
669.098389 52.695515 
669.633179 59.786766 
691.745239 72.065788 
698.354492 48.004311 
698.809326 48.416668 
753.725952 52.5 
754.152466 67.75 
766.55603 42.289288 
778.375366 64.703705 
795.477661 55.56818 
815.936646 47.142857 
826.388916 51.391304 
837.119202 46.532608 
851.878479 59.432144 
866.401001 42.142242 
877.179382 38.280174 
916.414673 43.625 
924.99408 51.00658 
928.279968 65.347221 
936.43811 50.575001 
953.513672 64.555855 
968.348328 139.081665 
972.720764 71.036293 
1017.268311 90.734756 
1030.378662 49.960106 
1041.980347 70.041664 
1043.356567 58.387821 
1050.331665 61.136112 
1077.66333 64.5625 
1093.080322 43.875 
1106.272217 43.888889 
1122.636963 34.016666 
1148.332764 26.0 
1156.911621 28.333334 
1157.163574 34.035713 
1211.774902 32.094696 
1227.102417 37.529411 
1229.664673 58.39674 
1265.912476 46.81818 
1273.995117 163.680557 
1306.129028 55.482143 
1306.374023 45.91848 
1318.483643 50.183823 
1348.618042 44.560184 
1369.630249 149.285446 
1372.305054 83.008331 
1382.100952 38.645 
1421.082886 73.693962 
1445.100098 53.521553 
1471.067871 66.349998 
1472.132935 59.431122 
1490.570923 54.44643 
1492.238403 51.976353 
1498.457275 42.235294 
1560.647095 51.173077 
1560.724731 35.347221 
1565.297363 32.166668 
1566.946045 92.03125 
1588.398193 70.333336 
1613.183716 50.969826 
1653.469482 55.612499 
1659.491211 34.224998 
1669.406494 61.594387 
1670.137207 161.349716 
1671.641113 64.013885 
1681.814209 33.347221 
END IONS

BEGIN IONS
RTINSECONDS=653.789978
CHARGE=1-
MSLEVEL=2
PRECURSORINTENSITY=494823.312500
SMILES=O=C1Oc2c(c(CCCCC)c(C(=O)O)c(O)c2)Oc2c1c(cc(c2)OC)CCCCC
INCHI=InChI=1S/C25H30O7/c1-4-6-8-10-15-12-16(30-3)13-19-21(15)25(29)32-20-14-18(26)22(24(27)28)17(23(20)31-19)11-9-7-5-2/h12-14,26H,4-11H2,1-3H3,(H,27,28)
INCHIKEY=RWVJYKHAFMWADK-UHFFFAOYSA-N
CLASS=Depsidones
ADDUCT=[M-H]-
INSTRUMENT=Agilent Q-ToF 6530
PRECURSOR_MZ=441.1869
COMPOUND_NAME=Colensoic acid
ION_MODE=negative
FORMULA=C25H30O7
133.055862 18588.060547 
134.031006 3172.182617 
134.635025 550.190796 
150.034332 558.970459 
179.106964 2145.044922 
210.045639 1654.883179 
243.108658 3395.380615 
267.101471 43774.675781 
268.106598 14217.428711 
281.119324 8534.415039 
282.124725 8468.626953 
284.104706 8348.350586 
295.133118 15847.438477 
338.187622 30475.910156 
339.190338 13651.256836 
353.210388 49613.96875 
354.212921 23030.193359 
355.190918 20638.033203 
397.2099 33402.527344 
518.726624 60.680557 
521.216797 53.802776 
544.098145 82.561043 
562.796204 54.532894 
570.779175 50.148811 
583.866272 189.891891 
615.082703 58.066666 
641.458984 106.551468 
651.19751 71.013161 
662.062683 80.213028 
681.774048 56.57143 
707.035889 107.846153 
723.629761 55.246952 
754.706787 78.446426 
760.500061 49.142857 
763.369751 58.135868 
763.841797 63.400002 
810.713562 49.612804 
812.85321 69.800003 
824.083008 133.399994 
833.75708 47.5 
873.666687 67.13636 
895.510437 125.010872 
905.248779 81.98349 
920.830872 64.760132 
938.832947 62.25 
941.151062 111.941177 
950.817078 60.695515 
955.32843 57.640625 
999.492737 86.675003 
1017.889282 55.923077 
1032.182129 66.083336 
1043.274414 122.041664 
1050.776001 68.07692 
1068.32959 83.0 
1101.355713 44.666668 
1113.006104 44.125 
1119.830933 43.694443 
1176.423218 55.859695 
1177.727539 62.125 
1178.085571 70.633331 
1197.913208 52.083332 
1221.474365 55.003788 
1228.5625 162.191483 
1232.555054 48.778847 
1268.486572 51.967106 
1278.335449 48.57143 
1317.092285 49.244999 
1325.998169 84.191177 
1331.983398 100.85714 
1335.317627 50.625 
1362.922729 53.387821 
1374.352661 128.160263 
1383.268555 102.782532 
1407.456787 56.125 
1425.013794 56.42857 
1425.771606 62.23077 
1441.849731 130.441177 
1462.629028 93.08654 
1472.005859 62.263157 
1485.545776 43.020832 
1507.207031 32.961956 
1533.233154 40.273647 
1561.754761 38.038792 
1563.884033 41.242645 
1576.774048 50.694443 
1601.776123 58.297619 
1614.399414 69.008331 
1628.098145 69.246948 
1636.300781 96.920082 
1645.517578 89.080132 
1669.642334 139.778839 
1687.372314 33.008335 
1694.730469 172.111237 
END IONS

BEGIN IONS
RTINSECONDS=27.523001
CHARGE=1-
MSLEVEL=2
PRECURSORINTENSITY=133244.750000
SMILES=C(=C\C(=O)O)/C(=O)O
INCHI=InChI=1S/C4H4O4/c5-3(6)1-2-4(7)8/h1-2H,(H,5,6)(H,7,8)/b2-1+
INCHIKEY=VZCYOOQTPOCHFL-OWOJBTEDSA-N
CLASS=Acids
ADDUCT=[M-H]-
INSTRUMENT=Agilent Q-ToF 6530
PRECURSOR_MZ=115.0039
COMPOUND_NAME=Fumaric acid
ION_MODE=negative
FORMULA=C4H4O4
155.122269 87.967102 
178.614746 63.57143 
182.985672 121.889709 
205.19278 63.284092 
221.091888 113.112503 
228.440613 71.639999 
242.381165 57.032143 
268.903229 49.923077 
279.207886 140.819443 
308.800018 116.2192 
327.852203 76.666664 
336.205872 62.669445 
338.268372 59.570652 
361.800293 113.739754 
375.566071 63.440475 
396.206177 84.141304 
428.796509 73.603569 
441.102478 53.680557 
441.670105 99.102272 
463.082153 82.654411 
468.36908 47.892857 
498.026062 65.0 
525.194336 89.595337 
547.344177 67.222221 
556.274536 43.005436 
563.613037 72.165543 
616.861328 56.003571 
624.083435 57.388889 
633.580505 63.244999 
656.347412 56.272728 
658.816406 72.446426 
663.464905 77.094696 
688.554993 67.816864 
707.690063 98.595589 
716.986084 68.349998 
734.661072 74.375 
763.235046 61.059212 
782.400269 58.333332 
787.004211 51.0 
802.533142 64.185608 
810.829224 60.78125 
824.361206 52.125 
842.850525 189.04892 
856.555542 104.07753 
871.062561 38.058823 
885.56366 43.556034 
936.660522 66.367424 
941.913269 93.760002 
950.439453 45.211208 
957.678406 71.14286 
1009.77417 46.099998 
1024.085571 47.016666 
1026.525146 88.165321 
1043.986084 49.882355 
1047.412476 55.173912 
1070.308105 100.347221 
1071.390137 53.25 
1090.809814 43.28125 
1108.727905 38.049999 
1145.27124 86.764832 
1155.046631 28.480263 
1160.421509 41.291668 
1174.514038 35.48077 
1216.871826 35.694443 
1224.994507 48.041668 
1239.416382 38.367645 
1248.554321 39.0 
1249.896606 54.002453 
1289.733398 57.612499 
1297.307861 43.91848 
1320.744995 64.440475 
1321.323486 56.458332 
1323.496338 71.041664 
1356.109741 55.0 
1381.004028 53.003048 
1403.118774 49.5 
1409.037964 47.112499 
1409.314819 45.390625 
1455.816528 53.273647 
1461.987061 71.083336 
1477.513672 105.5 
1487.804077 56.454544 
1506.94165 88.360291 
1507.527344 60.685974 
1532.466797 32.280174 
1557.253662 39.165321 
1611.452637 43.68145 
1614.460449 58.016666 
1616.700928 40.80357 
1630.494751 42.280174 
1644.3479 37.099998 
1663.162842 71.395164 
1672.672852 29.557692 
1679.009888 30.782408 
END IONS

BEGIN IONS
RTINSECONDS=427.872009
CHARGE=1-
MSLEVEL=2
PRECURSORINTENSITY=68805.210938
SMILES=O=C1c2c(c(Cl)c(c(C=O)c2Oc2c(C)c(c(O)c(C)c2O1)C(=O)O)O)C
INCHI=InChI=1S/C18H13ClO8/c1-5-10-16(8(4-20)13(22)11(5)19)26-14-6(2)9(17(23)24)12(21)7(3)15(14)27-18(10)25/h4,21-22H,1-3H3,(H,23,24)
INCHIKEY=NLEQXKZDZFGBFP-UHFFFAOYSA-N
CLASS=Depsidones
ADDUCT=[M-H]-
INSTRUMENT=Agilent Q-ToF 6530
PRECURSOR_MZ=391.0243
COMPOUND_NAME=Chlorovirensic acid
ION_MODE=negative
FORMULA=C18H13ClO8
103.971237 70.055557 
104.988693 77.337959 
116.930199 91.510414 
179.029892 195.201187 
183.109955 376.968994 
185.001068 375.944855 
195.05426 612.604431 
211.081451 739.128967 
239.074234 1021.894653 
247.01532 1193.584717 
263.011353 1368.803223 
267.06842 923.389404 
291.005066 882.72345 
303.042908 3040.560059 
305.03952 925.726685 
347.035065 3545.052246 
434.053253 166.160721 
472.247467 40.094696 
478.631317 72.349487 
491.398529 60.799999 
503.612793 83.03846 
559.973145 86.01786 
561.198303 70.568398 
569.577393 86.043106 
587.794922 64.211205 
594.55957 84.347824 
607.058533 80.917557 
639.257812 37.099998 
653.019775 67.022057 
662.335938 37.020832 
690.279907 119.257812 
695.128723 38.520832 
704.887024 38.0 
715.695679 51.013889 
744.747314 37.53125 
751.0224 38.083332 
771.276001 163.001541 
796.932373 59.003048 
812.926392 47.532894 
826.707031 147.325577 
862.161316 51.005001 
863.320374 48.455647 
884.588074 33.5 
893.585022 62.888889 
901.630066 31.005953 
959.958923 75.889709 
962.209961 26.045 
979.515686 57.210526 
982.061523 98.595589 
1033.239624 64.333336 
1044.465698 50.694443 
1044.851685 88.134438 
1068.391235 42.011364 
1090.06543 115.484848 
1095.435669 61.890625 
1120.534668 72.881096 
1130.283936 52.280174 
1145.672363 88.793106 
1171.103516 52.349136 
1208.66272 38.39674 
1215.452148 40.111843 
1220.661987 99.63636 
1230.343018 31.200001 
1233.877686 32.224998 
1253.956665 32.6875 
1306.758423 27.454546 
1309.263672 98.008331 
1352.376587 39.796051 
1359.265747 38.00658 
1362.397705 54.065788 
1374.257202 55.308674 
1386.855103 51.285713 
1414.151001 40.666668 
1422.204468 44.515244 
1431.257446 77.603569 
1470.113892 93.008331 
1487.116699 23.796053 
1510.098511 28.020834 
1517.060669 21.200001 
1532.161011 19.892857 
1536.308105 24.125 
1579.280762 14.284091 
1594.745239 54.367645 
1609.485962 78.204544 
1629.748047 38.529411 
1632.634644 52.04348 
1648.440552 79.779411 
1662.411011 33.25 
1671.264893 32.333332 
1683.594727 43.5 
END IONS

BEGIN IONS
RTINSECONDS=424.664001
CHARGE=1-
MSLEVEL=2
PRECURSORINTENSITY=2627327.250000
SMILES=Oc1c(C(=O)C)c2OC3(C(C)(C(=O)C(=C(C3)O)C(=O)C)c2c(O)c1C)OC
INCHI=InChI=1S/C19H20O8/c1-7-14(23)12(9(3)21)16-13(15(7)24)18(4)17(25)11(8(2)20)10(22)6-19(18,26-5)27-16/h22-24H,6H2,1-5H3
INCHIKEY=WWSUFZCWOJULTK-UHFFFAOYSA-N
CLASS=Dibenzofuranes
ADDUCT=[M-H]-
INSTRUMENT=Agilent Q-ToF 6530
PRECURSOR_MZ=375.1048
COMPOUND_NAME=Pseudoplacodiolic acid
ION_MODE=negative
FORMULA=C19H20O8
139.039154 10914.374023 
180.040894 98415.914062 
181.046036 18572.623047 
189.061096 19839.791016 
231.062561 83334.296875 
232.068741 26858.003906 
255.064011 46284.546875 
259.056885 80734.945312 
299.085449 176515.984375 
300.085541 46322.4375 
301.066498 134367.703125 
315.080109 33845.703125 
343.075165 128215.679688 
456.949097 183.446426 
462.245392 75.884804 
491.694672 82.141304 
495.917755 75.148811 
538.153076 74.721153 
539.930542 77.633774 
588.571899 145.014618 
594.347778 94.66848 
597.593689 119.375 
611.972107 105.01786 
616.969788 102.027435 
634.676758 136.419998 
648.730713 90.694443 
662.103516 87.480263 
706.822021 91.681816 
716.817017 194.006256 
727.821289 269.90741 
734.285767 116.78125 
737.186707 105.371216 
744.377136 177.862076 
795.635925 83.288269 
812.999756 98.336113 
819.011963 118.130432 
835.923645 159.3125 
867.979553 114.214996 
889.153137 101.023933 
894.266846 116.056816 
905.837952 81.235466 
924.04126 85.414215 
945.112854 77.265625 
956.748169 146.125 
968.178711 112.06649 
996.777405 106.190475 
1004.468689 94.384613 
1022.470276 97.01786 
1024.810791 79.98349 
1045.930054 146.289474 
1069.930908 77.370613 
1084.887085 83.150002 
1091.660034 72.014709 
1093.10498 69.012497 
1131.672607 89.224998 
1145.585938 69.0625 
1149.305054 86.021225 
1201.887573 73.0 
1249.38501 75.612808 
1254.060913 67.444771 
1267.907349 69.084457 
1275.802368 66.583336 
1295.025146 72.941177 
1298.723022 67.599998 
1333.737305 71.18409 
1375.237061 66.768616 
1395.457397 146.157059 
1424.903564 77.537788 
1442.798218 100.388885 
1443.118408 86.285378 
1495.659424 75.779411 
1497.655151 80.008331 
1503.408936 85.842102 
1526.510986 104.979652 
1539.006714 111.336113 
1560.603394 93.189392 
1577.808594 82.080879 
1602.936646 70.777779 
1603.830078 99.476692 
1627.64978 127.247643 
1649.549316 131.510239 
1653.314697 187.531525 
1679.140747 74.440475 
1680.0354 107.18409 
END IONS

BEGIN IONS
RTINSECONDS=458.222992
CHARGE=1-
MSLEVEL=2
PRECURSORINTENSITY=2315048.250000
SMILES=O=C1OC2=C(c3ccccc3)C(=O)OC2=C1c1ccccc1
INCHI=InChI=1S/C18H10O4/c19-17-13(11-7-3-1-4-8-11)15-16(22-17)14(18(20)21-15)12-9-5-2-6-10-12/h1-10H
INCHIKEY=KQTXUHHOWJUFOZ-UHFFFAOYSA-N
CLASS=Pulvinic Acid Derivatives
ADDUCT=[M-H+HCOOH]-
INSTRUMENT=Agilent Q-ToF 6530
PRECURSOR_MZ=321.0715
COMPOUND_NAME=Pulvinic acid dilactone
ION_MODE=negative
FORMULA=C18H10O4
101.039619 2641.480225 
117.034157 270221.40625 
117.826553 26205.501953 
118.285416 744.857788 
125.03949 2163.267334 
189.056335 136533.734375 
190.076706 507909.78125 
191.080276 90781.023438 
234.066727 249762.921875 
249.088196 470375.15625 
250.091629 101482.210938 
262.060089 112250.289062 
382.632416 93.015846 
386.331329 92.022057 
397.89386 76.34259 
415.068054 84.844299 
420.011627 100.111488 
462.99527 81.125 
477.142639 83.344513 
487.8125 97.310349 
506.158447 114.142609 
532.212769 193.75 
540.325195 143.53186 
558.053955 104.469444 
572.318054 181.75 
573.578613 218.810974 
584.084595 104.595337 
629.682373 120.408333 
673.904785 66.521553 
678.327698 81.375 
682.483643 66.489998 
688.219727 71.0 
695.167542 123.001312 
709.418884 87.510246 
754.409485 156.635559 
761.838989 73.003784 
773.578613 97.656815 
778.522217 85.901314 
783.128662 85.722221 
795.060486 85.625 
834.156067 77.3153 
847.996521 266.633728 
853.789185 81.599998 
863.53125 87.559998 
872.403381 172.041672 
895.809082 98.125 
895.904785 82.23214 
921.58374 66.230766 
956.23468 77.150002 
974.315613 121.219513 
998.496216 90.052963 
1002.942261 80.782608 
1030.407593 116.016792 
1042.157715 196.55603 
1057.177734 77.678574 
1068.243652 112.25 
1079.994019 122.716835 
1084.732788 62.777779 
1118.558594 256.088989 
1136.285278 71.455643 
1139.160889 157.901321 
1170.407593 90.111488 
1181.638794 61.200001 
1183.792236 64.694443 
1197.574463 67.764709 
1247.213745 74.053574 
1270.382935 48.059212 
1313.797974 71.400002 
1324.638428 90.778847 
1325.099854 57.840115 
1343.364014 138.681671 
1354.311523 85.14959 
1375.214478 92.002449 
1394.956787 70.694229 
1398.025757 93.288269 
1422.394531 160.391022 
1423.58728 79.801727 
1452.042114 78.49128 
1459.533447 81.764832 
1474.078247 96.53125 
1480.826172 95.045212 
1506.697388 79.0 
1534.393555 58.326923 
1538.320923 82.175003 
1563.528442 78.100807 
1575.098511 58.119186 
1579.423828 186.092896 
1592.12439 61.01923 
1628.614624 81.26667 
1629.150391 95.453705 
1646.147949 70.515244 
1662.136108 78.640961 
1672.038574 78.160713 
1676.647095 88.14286 
END IONS

BEGIN IONS
RTINSECONDS=448.098999
CHARGE=1-
MSLEVEL=2
PRECURSORINTENSITY=7468171.500000
SMILES=Oc1c(C(=O)O)c(CCC)cc(OC(=O)c2c(O)c(Cl)c(OC)cc2CCC)c1
INCHI=InChI=1S/C21H23ClO7/c1-4-6-11-8-13(10-14(23)16(11)20(25)26)29-21(27)17-12(7-5-2)9-15(28-3)18(22)19(17)24/h8-10,23-24H,4-7H2,1-3H3,(H,25,26)
INCHIKEY=WVJIULQLWBXJKO-UHFFFAOYSA-N
CLASS=Depsides (Didepsides)
ADDUCT=[M-H]-
INSTRUMENT=Agilent Q-ToF 6530
PRECURSOR_MZ=421.1011
COMPOUND_NAME=3-Chlorodivaricatic acid
ION_MODE=negative
FORMULA=C21H23ClO7
107.069626 141808.8125 
109.065895 171403.984375 
133.065674 578076.375 
151.076111 1358042.0 
177.055298 3109437.75 
178.058456 391382.59375 
195.065811 3876695.75 
195.189941 255934.21875 
196.069138 443221.625 
243.040527 71191.054688 
245.039185 21839.550781 
253.082397 3142.567627 
282.127869 7917.01416 
318.093933 2422.956299 
333.125488 12350.462891 
334.128998 4887.13916 
335.122955 4713.283691 
377.113586 24762.488281 
490.578644 52.025002 
496.258179 74.568184 
505.091736 48.099998 
537.096069 48.307693 
578.305542 105.685974 
593.15741 60.209999 
597.68634 68.929878 
629.34845 93.920921 
662.842346 73.165695 
664.031067 66.556816 
664.765198 115.125 
678.477295 87.027435 
716.583374 77.45153 
724.277283 113.699997 
736.698975 106.705246 
766.075073 58.894737 
797.475891 67.117645 
828.325928 87.875 
836.602478 179.615005 
844.993713 68.236702 
853.107422 54.05357 
878.137329 75.0 
911.062866 127.925674 
931.567688 68.905487 
956.34375 82.625 
966.407104 83.555771 
969.292664 193.555557 
970.547058 72.0 
1028.808838 50.125 
1056.951782 235.166672 
1063.167847 162.255814 
1094.747192 200.149597 
1108.943237 82.173912 
1128.789185 82.367645 
1138.940674 96.635567 
1149.994019 68.449074 
1192.543213 133.380951 
1199.863892 68.00219 
1217.48877 87.28125 
1224.712891 70.594391 
1276.090454 166.005676 
1291.325439 112.939392 
1296.008301 90.215515 
1323.729126 94.028572 
1399.347778 51.5 
1436.535034 108.960106 
1602.133301 55.473682 
1619.503418 62.480263 
1695.595093 284.148804 
END IONS

BEGIN IONS
RTINSECONDS=370.230988
CHARGE=1-
MSLEVEL=2
PRECURSORINTENSITY=432215.250000
SMILES=CC[C@@H](C)[C@H](NC(=O)c1ccccc1)C(=O)OC[C@@H](NC(=O)c1ccccc1)C(C)C
INCHI=InChI=1S/C25H32N2O4/c1-5-18(4)22(27-24(29)20-14-10-7-11-15-20)25(30)31-16-21(17(2)3)26-23(28)19-12-8-6-9-13-19/h6-15,17-18,21-22H,5,16H2,1-4H3,(H,26,28)(H,27,29)/t18-,21-,22+/m1/s1
INCHIKEY=YYJRAGPDSYXARF-QIJUGHKUSA-N
CLASS=N-Containing Compounds
ADDUCT=[M-H]-
INSTRUMENT=Agilent Q-ToF 6530
PRECURSOR_MZ=423.2199
COMPOUND_NAME=Arthonin
ION_MODE=negative
FORMULA=C25H32N2O4
107.092735 229.117645 
116.078629 276.629639 
120.060455 1073.510864 
121.092407 245.53775 
122.857048 225.6875 
190.122742 63910.292969 
191.125778 14466.847656 
206.116943 25385.033203 
234.112381 1161827.875 
235.115616 264267.875 
238.554413 19579.458984 
288.92804 130.375 
291.908051 156.440063 
329.052643 132.222397 
362.884857 226.0121 
509.73587 104.01844 
517.331787 158.13089 
520.717957 90.757812 
534.260376 86.662735 
551.233154 91.882355 
558.721008 145.530884 
574.375244 77.605003 
605.516724 105.0625 
630.326538 106.28125 
637.18512 125.056252 
641.063171 62.469444 
663.96106 89.071426 
671.543274 95.007355 
694.573792 112.108109 
695.049927 133.307693 
722.830872 69.320312 
731.325684 87.01786 
754.219238 61.482143 
771.368408 67.045212 
829.134949 66.882355 
831.511108 61.00658 
831.874878 47.432144 
835.749451 51.083332 
840.746338 111.281975 
888.113586 85.814812 
903.071594 136.128159 
904.747559 58.440216 
924.619446 68.030403 
935.211731 61.017857 
955.14563 165.080444 
981.252563 124.272728 
1008.003418 83.786766 
1012.369263 65.222565 
1040.15332 70.375 
1048.696045 70.939514 
1055.550171 140.485214 
1096.920044 112.419777 
1101.688354 111.015846 
1109.484985 131.762192 
1129.059814 112.01786 
1149.698853 62.728447 
1181.74353 82.336113 
1196.103027 134.035721 
1216.954834 62.612499 
1227.489868 126.586037 
1233.416382 72.462837 
1265.466797 83.370613 
1276.532715 126.0 
1284.843506 88.006577 
1289.928955 79.315788 
1330.563721 104.034485 
1334.558105 89.445656 
1361.28772 94.102272 
1363.677002 126.360291 
1424.693115 64.736115 
1431.878418 98.014244 
1444.63147 75.833336 
1450.307007 116.264709 
1456.753296 107.603569 
1466.047241 116.349998 
1507.984009 85.669441 
1522.17749 92.239998 
1523.242065 87.219597 
1533.783203 80.884613 
1534.020264 79.056816 
1558.483032 100.119186 
1591.137695 176.367569 
1622.653809 73.226852 
1634.820557 71.045456 
1642.212036 169.725006 
1658.583496 73.190475 
1668.17041 92.960106 
1697.415771 83.032257 
END IONS

BEGIN IONS
RTINSECONDS=435.746002
CHARGE=1-
MSLEVEL=2
PRECURSORINTENSITY=10513630.000000
SMILES=CC(C[C@H](NC(=O)/C(=C\1/C(=C(c2ccccc2)C(=O)O1)O)/c1ccccc1)C(=O)O)C
INCHI=InChI=1S/C24H23NO6/c1-14(2)13-17(23(28)29)25-22(27)19(16-11-7-4-8-12-16)21-20(26)18(24(30)31-21)15-9-5-3-6-10-15/h3-12,14,17,26H,13H2,1-2H3,(H,25,27)(H,28,29)/b21-19-/t17-/m0/s1
INCHIKEY=ZQLBONJLBKDOLE-UFVMTTLYSA-N
CLASS=Pulvinic Acid Derivatives
ADDUCT=[M-H]-
INSTRUMENT=Agilent Q-ToF 6530
PRECURSOR_MZ=420.1332
COMPOUND_NAME=Norepanorin
ION_MODE=negative
FORMULA=C24H23NO6
101.039825 71316.789062 
117.034447 2274902.0 
117.131615 141200.953125 
118.037819 271227.84375 
130.087204 142970.21875 
191.086075 606351.4375 
192.089081 157539.75 
214.122849 243061.640625 
263.070679 5078938.0 
263.213898 331683.59375 
264.07428 1500986.125 
265.076385 103358.375 
314.153656 23473.105469 
330.148956 32999.519531 
332.164398 106970.3125 
333.166779 40425.816406 
376.153992 1144093.625 
377.157104 485554.6875 
493.954346 329.413452 
761.135437 235.406525 
929.067383 284.410248 
1023.836487 229.572205 
END IONS

BEGIN IONS
RTINSECONDS=334.519012
CHARGE=1-
MSLEVEL=2
PRECURSORINTENSITY=19863.312500
SMILES=COc1cc2c(c(=O)oc(CCCCC)c2)c(OC)c1
INCHI=InChI=1S/C16H20O4/c1-4-5-6-7-12-8-11-9-13(18-2)10-14(19-3)15(11)16(17)20-12/h8-10H,4-7H2,1-3H3
INCHIKEY=NKYAIPHVDQBFLF-UHFFFAOYSA-N
CLASS=Cleavage Products of Depsides and Depsidones
ADDUCT=[M-H]-
INSTRUMENT=Agilent Q-ToF 6530
PRECURSOR_MZ=275.12
COMPOUND_NAME="N 2,4-Di-O-methylolivetonide"
ION_MODE=negative
FORMULA=C16H20O4
102.90509 76.625 
112.96524 132.201218 
136.143524 94.025002 
144.968414 133.149994 
153.910049 85.0625 
155.933228 92.556038 
170.374268 77.574997 
181.850143 178.279999 
237.466766 80.351746 
237.94455 81.025002 
238.821823 116.019737 
253.08522 108.003052 
297.687317 78.25 
302.296906 68.01136 
346.838562 64.058823 
359.716003 53.564026 
360.27713 69.18409 
361.138489 53.066177 
361.418549 60.894737 
396.419312 53.570946 
428.586609 134.0 
442.623962 48.799999 
455.167786 48.721153 
479.22464 50.685974 
490.39389 47.720589 
492.648651 50.245689 
508.179138 43.889706 
512.506897 45.367645 
525.167725 64.050003 
563.726746 111.458336 
594.61322 36.111111 
END IONS

BEGIN IONS
RTINSECONDS=441.140015
CHARGE=1-
MSLEVEL=2
PRECURSORINTENSITY=49934.269531
SMILES=O=C1c2c(C)c(Cl)c(O)c(C=O)c2Oc2c(O1)cc(c(c2C)Cl)OC
INCHI=InChI=1S/C17H12Cl2O6/c1-6-11-16(8(5-20)14(21)13(6)19)25-15-7(2)12(18)9(23-3)4-10(15)24-17(11)22/h4-5,21H,1-3H3
INCHIKEY=HZFIZEFIKOIHGY-UHFFFAOYSA-N
CLASS=Depsidones
ADDUCT=[M-H]-
INSTRUMENT=Agilent Q-ToF 6530
PRECURSOR_MZ=380.9818
COMPOUND_NAME=Eriodermin
ION_MODE=negative
FORMULA=C17H12Cl2O6
138.997574 314.034607 
140.98996 180.6875 
155.04184 344.177521 
182.968353 582.143433 
218.011383 637.165344 
219.995956 859.382263 
230.011765 981.987549 
258.005371 1340.895752 
273.999481 1114.283691 
293.985352 2383.528564 
295.977722 1175.249756 
301.995697 1193.286011 
317.031891 536.982788 
321.991425 690.69928 
434.812286 41.760136 
435.02652 49.273647 
455.816559 74.259613 
471.041687 46.004631 
510.759277 51.240383 
512.474854 94.640152 
520.113159 57.440216 
538.914551 60.367424 
539.190491 49.076218 
578.327637 52.450001 
590.241699 30.961956 
611.258118 31.875 
665.025818 55.595589 
686.821533 45.367424 
710.044678 56.125 
723.245239 71.721153 
729.777039 73.030403 
744.208313 55.017857 
751.934326 52.032143 
766.802063 123.340912 
773.416382 49.76923 
805.901917 38.48077 
821.035828 35.728447 
848.58374 32.375 
868.364685 87.222565 
879.767578 37.284092 
897.258667 45.666668 
920.559143 47.185608 
927.769531 36.142857 
948.454224 30.454546 
962.484497 30.200001 
966.382568 36.75 
977.653381 28.005434 
1016.77771 39.174999 
1030.378418 41.246952 
1059.196289 119.14959 
1076.052124 59.099998 
1078.689819 104.083336 
1102.972656 43.881096 
1108.251587 35.041668 
1110.070923 59.038792 
1170.746948 32.6875 
1172.874512 39.224998 
1174.422363 40.720238 
1181.100586 35.113636 
1186.0625 43.1875 
1224.901245 39.020832 
1230.779053 27.266304 
1246.011963 58.266666 
1273.422852 35.75 
1311.881836 46.0625 
1316.490601 52.049999 
1334.733032 58.259617 
1343.231934 43.942307 
1353.154419 48.782406 
1360.300293 43.445 
1397.668579 36.44643 
1436.624023 54.375 
1439.776611 41.76923 
1459.784058 76.653847 
1461.461426 53.400002 
1473.643066 189.85257 
1482.820801 56.901318 
1517.859863 63.0 
1539.171753 24.291666 
1543.54126 21.011364 
1587.82666 31.183823 
1620.745361 40.5625 
1620.835449 23.125 
1627.352051 35.901318 
1667.494995 43.404999 
1669.607422 55.115742 
1680.710205 21.102272 
END IONS

BEGIN IONS
RTINSECONDS=382.311005
CHARGE=1-
MSLEVEL=2
PRECURSORINTENSITY=3116801.750000
SMILES=Cc1cc(OC)c(C=O)c(O)c1C(=O)Oc1c(C)c(C(=O)O)c(O)c(C=O)c1O
INCHI=InChI=1S/C19H16O10/c1-7-4-11(28-3)9(5-20)14(22)12(7)19(27)29-17-8(2)13(18(25)26)15(23)10(6-21)16(17)24/h4-6,22-24H,1-3H3,(H,25,26)
INCHIKEY=KTZXEYGDCLLQMH-UHFFFAOYSA-N
CLASS=Depsides (Didepsides)
ADDUCT=[M-H]-
INSTRUMENT=Agilent Q-ToF 6530
PRECURSOR_MZ=403.0684
COMPOUND_NAME=Haemathamnolic acid
ION_MODE=negative
FORMULA=C19H16O10
121.029205 138102.96875 
137.06633 191876.09375 
139.039719 221186.65625 
149.024124 142247.53125 
167.034821 181745.265625 
193.014374 1459470.5 
194.017731 172104.125 
211.025177 1173554.25 
212.02829 138221.34375 
269.081573 260.938782 
282.050323 156.0 
300.986603 165.190475 
331.078217 213.00946 
341.066589 469.931366 
359.07489 2190.515869 
360.079681 747.005859 
463.500916 211.041672 
469.332275 203.967102 
484.217316 165.360077 
507.109283 142.880951 
532.395447 163.095245 
534.964294 150.961533 
559.955444 139.095245 
564.137634 171.720001 
600.369202 89.006943 
609.04834 155.080887 
630.391418 70.80278 
641.68689 100.493851 
654.975159 132.189392 
683.058899 68.037041 
715.726013 72.80278 
719.61853 70.012497 
737.286072 85.603569 
745.018555 93.680557 
755.771667 143.56514 
768.790527 73.721153 
793.73761 65.347221 
815.13446 61.072674 
842.415222 118.024391 
856.299561 61.084461 
871.338013 74.002663 
878.383484 111.04808 
894.371033 116.219513 
943.371338 65.047623 
952.115051 63.002552 
966.147949 109.111839 
972.071289 121.598686 
992.246643 71.107758 
1013.605469 153.480072 
1064.674316 160.929047 
1068.137573 67.445656 
1073.940552 134.225006 
1079.838501 76.520836 
1154.161377 78.30867 
1155.308838 151.917252 
1155.588623 94.045456 
1168.985718 113.573982 
1200.787964 84.059212 
1206.718872 128.006104 
1210.2323 81.875 
1213.677246 198.46022 
1296.495972 76.047623 
1302.217529 125.939514 
1303.148315 60.81686 
1310.192383 105.612808 
1312.621216 77.900421 
1375.215454 116.061272 
1385.034302 67.273651 
1385.388428 126.010002 
1389.951294 77.349998 
1429.275146 63.450001 
1439.618652 81.224998 
1469.914429 87.026161 
1479.898193 74.222221 
1482.275269 59.132355 
1494.614136 108.280739 
1521.694092 62.285713 
1539.774536 52.111843 
1562.208862 103.852615 
1564.909058 81.133064 
1590.71936 160.510422 
1601.421387 102.884613 
1626.955322 111.008926 
1630.284424 164.198776 
1644.889893 67.842102 
1673.115479 64.148811 
1691.780518 140.98349 
END IONS

BEGIN IONS
RTINSECONDS=269.273987
CHARGE=1-
MSLEVEL=2
PRECURSORINTENSITY=13090.992188
SMILES=O=C1c2c(C)c(Cl)c(OC)cc2Oc2c(O1)c(c(c(c2C)Cl)OC)Cl
INCHI=InChI=1S/C17H13Cl3O5/c1-6-10-8(5-9(22-3)11(6)18)24-14-7(2)12(19)15(23-4)13(20)16(14)25-17(10)21/h5H,1-4H3
INCHIKEY=HEZSUFJPGFDKIG-UHFFFAOYSA-N
CLASS=Depsidones
ADDUCT=[M-H]-
INSTRUMENT=Agilent Q-ToF 6530
PRECURSOR_MZ=400.97
COMPOUND_NAME=3-Dechloro-4-O-methyldiploicin
ION_MODE=negative
FORMULA=C17H13Cl3O5
100.150703 53.900002 
101.031952 97.926285 
103.779427 81.541664 
114.585724 91.01136 
125.17067 57.875 
143.657196 91.061272 
172.126282 68.391129 
177.872467 79.102272 
201.834579 100.92308 
203.834991 64.125 
211.955627 82.401924 
222.854126 63.408333 
251.518265 65.245689 
262.801514 63.003788 
274.795288 56.174999 
301.533325 58.259617 
303.060089 93.851418 
314.624084 56.041668 
315.106293 55.969826 
338.895447 92.59375 
366.40979 97.344177 
382.546722 58.3125 
416.156433 85.669441 
462.61264 52.080128 
469.332001 70.052635 
490.778351 179.81395 
496.761169 176.447372 
497.018738 112.632812 
518.726257 109.925926 
544.25061 85.125 
563.722351 93.917374 
585.243713 67.842102 
595.557861 50.172871 
598.507629 63.640625 
END IONS

BEGIN IONS
RTINSECONDS=304.561005
CHARGE=1-
MSLEVEL=2
PRECURSORINTENSITY=239872.843750
SMILES=[C@@H]1(CC(=O)N2[C@H](C(=O)N[C@H](CC(=O)N3[C@@H](C(=O)N1)CCC3)c1ccccc1)CCC2)c1ccccc1
INCHI=InChI=1S/C28H32N4O4/c33-25-17-21(19-9-3-1-4-10-19)29-27(35)23-13-7-16-32(23)26(34)18-22(20-11-5-2-6-12-20)30-28(36)24-14-8-15-31(24)25/h1-6,9-12,21-24H,7-8,13-18H2,(H,29,35)(H,30,36)/t21-,22-,23-,24+/m1/s1
INCHIKEY=PDLPVRYEPINIBU-YCAMKHIRSA-N
CLASS=N-Containing Compounds
ADDUCT=[M-H]-
INSTRUMENT=Agilent Q-ToF 6530
PRECURSOR_MZ=487.23
COMPOUND_NAME=Roccanin
ION_MODE=negative
FORMULA=C28H32N4O4
111.952652 1404.283936 
113.072395 3615.796143 
130.793091 1628.034546 
151.781265 1911.755493 
198.081573 5296.418457 
199.085541 1981.453857 
200.10759 5085.258301 
215.227997 2263.842773 
243.114487 65166.34375 
244.116394 20256.783203 
303.11615 167.823532 
304.193848 143.008926 
330.967682 119.414215 
334.031403 78.054825 
359.331543 81.0 
382.203583 67.25 
390.20752 65.224998 
391.013214 77.449997 
395.130432 99.485291 
432.07431 97.382935 
542.732727 82.246948 
564.476196 111.939651 
576.032227 154.045212 
586.800781 69.26535 
594.74353 48.020832 
END IONS

BEGIN IONS
RTINSECONDS=392.403015
CHARGE=1-
MSLEVEL=2
PRECURSORINTENSITY=1437249.125000
SMILES=Cc1c(c(O)c(C)c(OC)c1)C(=O)Oc1cc(C)c(C(=O)O)c(O)c1
INCHI=InChI=1S/C18H18O7/c1-8-5-11(7-12(19)14(8)17(21)22)25-18(23)15-9(2)6-13(24-4)10(3)16(15)20/h5-7,19-20H,1-4H3,(H,21,22)
INCHIKEY=GEZCJRBINSDUSC-UHFFFAOYSA-N
CLASS=Depsides (Didepsides)
ADDUCT=[M-H]-
INSTRUMENT=Agilent Q-ToF 6530
PRECURSOR_MZ=345.096
COMPOUND_NAME=Obtusatic acid
ION_MODE=negative
FORMULA=C18H18O7
105.19931 151968.46875 
106.014488 14601.212891 
123.185814 255034.890625 
149.02449 489654.0 
150.161865 46802.699219 
167.034973 936713.0 
168.03833 98546.359375 
195.062439 2120.177002 
227.084457 229.044113 
241.079239 360.111176 
242.095276 291.801483 
257.132324 313.804871 
283.08136 562.177307 
301.153381 1141.360107 
408.188599 87.59259 
411.037415 150.519226 
411.40094 86.800003 
458.962097 93.444672 
470.39267 81.102272 
480.094238 97.396736 
487.28714 80.284088 
507.968994 81.75 
551.226624 205.308136 
558.990295 174.680832 
565.529358 73.028847 
586.941956 165.042557 
587.58551 72.51136 
594.39502 93.3125 
615.922241 68.263161 
638.412903 66.816666 
679.015015 102.089287 
695.918396 82.14286 
708.092834 85.002777 
709.78894 81.011902 
730.235291 72.263161 
738.67688 89.320312 
762.30719 62.013889 
814.275513 75.065788 
828.344604 82.077583 
831.157532 203.875 
836.055908 86.439186 
836.971924 83.090912 
867.351501 101.926285 
879.490356 90.786766 
908.971313 100.061272 
937.511414 85.049416 
937.606995 84.04348 
965.390564 83.432144 
979.413513 82.432693 
983.349487 75.680557 
1003.874268 109.070312 
1016.516724 71.0 
1039.194214 162.243927 
1065.524292 71.013885 
1078.572876 88.612503 
1118.411987 92.390244 
1127.13208 108.805328 
1130.563965 118.257812 
1130.619629 89.875 
1143.948975 103.040001 
1154.151611 76.969826 
1207.39856 85.226852 
1208.870728 153.061752 
1219.214844 87.545456 
1225.777832 75.0625 
1236.437988 91.125 
1271.885986 89.512497 
1291.789551 69.666664 
1300.470337 115.565216 
1320.144897 124.308823 
1342.884766 94.002121 
1346.640259 92.764709 
1360.095337 82.976349 
1365.157471 83.025002 
1380.719849 80.297623 
1401.273926 101.125 
1415.083496 68.28125 
1462.93042 118.920082 
1472.324707 62.727272 
1474.662476 61.654411 
1485.884644 93.633331 
1492.322998 123.035713 
1493.100342 64.512497 
1534.679932 79.809998 
1564.848022 58.612804 
1571.356323 96.002907 
1590.036743 71.541664 
1596.786621 66.034088 
1605.822998 86.61731 
1628.205322 89.25 
1655.279907 53.570946 
1666.224854 29.440218 
1674.865112 29.818182 
1677.284424 41.900002 
1696.418823 29.165541 
END IONS

BEGIN IONS
RTINSECONDS=458.134003
CHARGE=1-
MSLEVEL=2
PRECURSORINTENSITY=907875.062500
SMILES=O=C1Oc2c(c(CC(=O)CCCCC)c(C(=O)O)c(O)c2)Oc2c1c(cc(c2)O)CC(=O)CCCCC
INCHI=InChI=1S/C28H32O9/c1-3-5-7-9-17(29)11-16-12-19(31)14-22-24(16)28(35)37-23-15-21(32)25(27(33)34)20(26(23)36-22)13-18(30)10-8-6-4-2/h12,14-15,31-32H,3-11,13H2,1-2H3,(H,33,34)
INCHIKEY=ZDIOCINAHISORH-UHFFFAOYSA-N
CLASS=Depsidones
ADDUCT=[M-H]-
INSTRUMENT=Agilent Q-ToF 6530
PRECURSOR_MZ=511.1907
COMPOUND_NAME=Alpha-Alectoronic acid
ION_MODE=negative
FORMULA=C28H32O9
105.089233 1210.028687 
123.026215 6545.172363 
149.023392 6931.157227 
161.057159 3099.537842 
203.068954 12997.12207 
219.099762 11590.022461 
226.060623 13766.210938 
227.067001 21627.996094 
247.094238 23769.955078 
271.05542 18199.71875 
301.139038 22470.712891 
302.143188 12500.828125 
325.137604 28264.748047 
327.118256 19039.533203 
368.119415 18683.679688 
369.12677 68355.671875 
370.130493 38776.199219 
423.209595 24413.863281 
424.210388 23088.505859 
425.190643 29976.390625 
426.192139 23748.757812 
467.198425 96303.929688 
468.202667 112167.921875 
577.778503 81.349136 
594.602112 107.428574 
612.077148 148.006943 
625.604919 122.972824 
635.853943 73.453705 
667.022278 75.336113 
682.211304 179.035919 
687.447021 82.367645 
712.090881 116.505684 
718.479004 97.01136 
730.060791 129.729736 
778.460693 136.483032 
785.821716 89.008331 
812.693359 96.723213 
816.63855 92.888885 
824.688904 111.419777 
838.196594 102.335526 
852.934021 65.440002 
901.553406 76.384094 
905.102539 189.045914 
913.248047 132.979843 
923.785095 95.206894 
946.103516 102.289284 
958.768494 87.554108 
976.373352 77.610001 
993.43811 80.125 
1013.956421 79.822762 
1028.778198 63.68145 
1035.722778 69.045456 
1066.933838 65.041664 
1078.006226 70.004997 
1090.166382 72.695511 
1094.471436 70.004631 
1209.094971 151.63269 
1209.192139 62.462837 
1210.535645 76.119186 
1212.0896 90.333336 
1220.80542 63.55682 
1221.216309 106.107452 
1271.221069 176.301834 
1280.355103 78.556038 
1306.172974 100.29657 
1326.385254 77.960106 
1340.696289 99.889282 
1345.914795 76.160713 
1346.102295 97.456894 
1382.974854 165.191452 
1396.615967 62.289288 
1445.387939 82.083336 
1453.081543 71.375 
1457.527344 95.028572 
1461.365234 103.491379 
1470.245605 88.019234 
1492.355957 132.344177 
1523.513916 64.125 
1533.104004 84.800003 
1557.497192 90.85714 
1566.869019 187.307693 
1566.959229 70.01786 
1581.940674 92.430557 
1617.393921 101.102562 
1627.629517 127.689651 
1639.627563 80.326614 
1647.199219 79.011902 
1653.263428 121.530663 
1691.684937 74.0 
END IONS

BEGIN IONS
RTINSECONDS=370.71701
CHARGE=1-
MSLEVEL=2
PRECURSORINTENSITY=9540743.000000
SMILES=O=c1oc(CCCCC)cc2c1c(cc(c2)O)O
INCHI=InChI=1S/C14H16O4/c1-2-3-4-5-11-7-9-6-10(15)8-12(16)13(9)14(17)18-11/h6-8,15-16H,2-5H2,1H3
INCHIKEY=FIMFRMRZGBUYMV-UHFFFAOYSA-N
CLASS=Cleavage Products of Depsides and Depsidones
ADDUCT=[M-H]-
INSTRUMENT=Agilent Q-ToF 6530
PRECURSOR_MZ=247.0944
COMPOUND_NAME=Olivetonide
ION_MODE=negative
FORMULA=C14H16O4
118.014137 315961.90625 
119.008995 29715.078125 
137.096191 250342.359375 
146.036407 908853.1875 
190.025238 4111972.5 
190.14682 276129.6875 
191.029343 597769.5625 
205.084366 115769.765625 
337.493317 36.720238 
337.772583 42.160713 
338.290894 37.066666 
341.946472 49.5 
358.3302 40.471153 
386.251038 72.04348 
414.407104 28.1875 
415.289093 29.363636 
461.586823 24.28125 
462.005066 22.163462 
501.459229 139.716263 
509.249847 38.39674 
514.142944 53.923077 
524.36499 40.125 
539.983826 45.022728 
587.031311 38.052631 
594.686523 32.235294 
612.78418 39.0 
623.218201 88.449623 
649.471436 25.245689 
678.137146 46.240383 
678.195068 33.005001 
708.739502 81.094231 
728.016724 60.013157 
730.832825 48.487904 
755.71521 51.881096 
756.395203 62.539181 
814.626587 44.25 
835.439087 69.00338 
844.809692 73.555557 
844.898438 37.125 
853.827087 45.0 
854.075378 38.890625 
894.979492 50.107143 
912.196777 33.333332 
914.24585 102.53846 
940.880371 34.91848 
950.608582 47.836956 
977.393738 54.094696 
993.859497 49.603573 
998.56488 72.01667 
998.627014 33.013889 
1038.134766 72.635201 
1056.40686 30.645 
1064.889282 24.071428 
1115.378052 26.571428 
1115.449463 23.027779 
1116.47229 44.075001 
1122.26355 24.113636 
1131.671143 41.685974 
1159.477539 65.25 
1178.698364 37.408783 
1195.969971 18.482143 
1218.797119 17.225 
1225.369751 22.440218 
1229.38147 17.28125 
1242.248413 26.1 
1279.990845 29.008333 
1300.695923 51.025002 
1308.19812 40.68145 
1327.44165 47.487904 
1344.37793 97.894234 
1347.538696 132.009613 
1378.605591 59.75 
1383.972778 41.266304 
1384.727295 40.005951 
1385.833618 50.289288 
1438.589478 38.560184 
1462.839478 29.375 
1463.155396 21.1 
1465.649292 20.164474 
1510.707764 42.222828 
1530.231445 83.204544 
1532.523071 29.6 
1532.782715 25.322369 
1540.706665 103.259262 
1565.576294 176.611603 
1586.169556 31.140625 
1605.94397 34.164474 
1623.519897 194.889282 
1623.740967 32.007355 
1642.759521 53.25 
1666.952393 33.599998 
1677.579346 47.961956 
1687.240723 46.224998 
END IONS

BEGIN IONS
RTINSECONDS=281.459991
CHARGE=1-
MSLEVEL=2
PRECURSORINTENSITY=989275.250000
SMILES=O=C(C)O[C@@H]1[C@@H](O)[C@H](O)[C@@H](COC(=O)C)O[C@H]1Oc1cc2oc(C)cc(=O)c2c(O)c1C
INCHI=InChI=1S/C21H24O11/c1-8-5-12(24)16-14(29-8)6-13(9(2)17(16)25)31-21-20(30-11(4)23)19(27)18(26)15(32-21)7-28-10(3)22/h5-6,15,18-21,25-27H,7H2,1-4H3/t15-,18-,19+,20-,21-/m1/s1
INCHIKEY=AFCAWRFTSGVRQA-CMWLGVBASA-N
CLASS=Chromanes and Chromones
ADDUCT=[M-H+HCOOH]-
INSTRUMENT=Agilent Q-ToF 6530
PRECURSOR_MZ=497.1236
COMPOUND_NAME=Roccellin
ION_MODE=negative
FORMULA=C21H24O11
101.03746 350.140808 
113.014107 472.555634 
119.136063 1698.706421 
161.060852 4135.411621 
163.021225 2692.537842 
204.042221 75038.109375 
205.05014 222943.4375 
206.053421 55743.683594 
207.056061 5192.174316 
229.049072 3923.754395 
247.061157 3597.650879 
259.059021 949.286133 
331.083344 601.903198 
332.08725 464.612793 
349.143066 894.420044 
350.089081 466.104065 
391.101715 4499.521973 
392.105225 2351.195312 
393.109924 536.074097 
409.112183 1488.702759 
451.123779 313126.09375 
452.127472 197626.671875 
453.126038 35572.667969 
551.049072 131.006577 
577.255371 115.160004 
589.792175 110.401665 
613.645325 90.594391 
634.80957 102.714287 
636.072449 78.408333 
637.214478 73.777779 
656.396667 68.347221 
683.702148 73.315216 
712.876526 71.662735 
714.701721 81.165985 
754.097046 94.239998 
763.719604 77.016304 
780.095337 108.884804 
791.695862 109.691902 
794.498047 96.571426 
822.1521 74.639999 
841.10907 105.28125 
868.557617 63.041668 
884.263611 103.111366 
891.838257 83.003571 
905.330688 74.666664 
935.414062 98.510246 
947.71698 166.892853 
952.086426 77.0625 
958.798645 82.002777 
963.181519 79.011902 
987.452515 81.072678 
1002.622864 92.740944 
1031.750854 106.557693 
1042.301514 78.289284 
1051.635986 99.510414 
1061.335205 76.48214 
1097.595947 89.734756 
1109.64856 67.720238 
1126.601318 69.25 
1157.178223 70.020836 
1165.079956 60.816666 
1186.700439 74.5 
1193.56311 106.941177 
1210.572632 60.0 
1213.611206 61.888889 
1230.909424 85.111366 
1269.567505 62.222221 
1283.799316 66.521553 
1285.797241 92.224998 
1298.650513 108.917374 
1305.326416 159.840271 
1324.631226 130.222229 
1338.697021 152.906754 
1375.297363 90.066666 
1382.123047 92.440071 
1397.860718 71.36364 
1426.400269 99.456818 
1428.397461 73.390625 
1473.280762 101.300003 
1474.936035 130.560349 
1493.225464 117.728447 
1519.244019 102.698273 
1528.321167 175.333328 
1531.602295 75.888885 
1574.250366 125.382812 
1574.38623 84.964622 
1583.870728 106.59259 
1605.178833 82.0 
1628.447754 63.530659 
1633.923462 76.004997 
1638.023193 64.165985 
1657.796509 62.671295 
1678.998901 110.10714 
1688.86145 56.235294 
1692.882446 54.0 
END IONS

BEGIN IONS
RTINSECONDS=404.35199
CHARGE=1-
MSLEVEL=2
PRECURSORINTENSITY=16477.113281
SMILES=Cc1c(c(O)c(C=O)c(O)c1)C(=O)OCc1cc(O)c(C)c(O)c1C(=O)O
INCHI=InChI=1S/C18H16O9/c1-7-3-12(21)10(5-19)16(23)13(7)18(26)27-6-9-4-11(20)8(2)15(22)14(9)17(24)25/h3-5,20-23H,6H2,1-2H3,(H,24,25)
INCHIKEY=AUHQGXIVPHNDEE-UHFFFAOYSA-N
CLASS=Benzyldepsides
ADDUCT=[M-H]-
INSTRUMENT=Agilent Q-ToF 6530
PRECURSOR_MZ=375.07
COMPOUND_NAME=Alectorialic acid
ION_MODE=negative
FORMULA=C18H16O9
102.059975 73.695511 
111.91053 84.625 
138.026962 97.0 
150.028854 191.653992 
165.03595 158.457275 
166.056335 106.462837 
178.937408 240.388458 
209.103912 349.018524 
218.990585 75.736115 
227.010559 78.785713 
239.529922 82.396736 
244.060135 64.084457 
301.306702 63.232143 
307.807617 89.47406 
321.531311 134.273056 
332.960785 78.002449 
357.661835 80.306816 
357.880035 101.532608 
413.633942 50.125 
426.96582 75.520836 
430.465332 92.49128 
458.31311 38.205002 
477.200928 31.240385 
497.972107 43.875 
505.624939 32.487904 
510.394836 30.363636 
514.776245 39.025002 
561.819458 57.625 
574.542969 54.875 
576.063232 50.512501 
579.524475 122.889046 
582.498291 87.431122 
582.561951 49.337963 
END IONS

BEGIN IONS
RTINSECONDS=447.885986
CHARGE=1-
MSLEVEL=2
PRECURSORINTENSITY=95442.742188
SMILES=CCCCCCCCCCCC1[C@H](C(=O)O)C(C)C(=O)O1
INCHI=InChI=1S/C17H30O4/c1-3-4-5-6-7-8-9-10-11-12-14-15(16(18)19)13(2)17(20)21-14/h13-15H,3-12H2,1-2H3,(H,18,19)/t13?,14?,15-/m1/s1
INCHIKEY=PKXAQFKGSXYQJX-YMAMQOFZSA-N
CLASS=Paraconic acids
ADDUCT=[M-H]-
INSTRUMENT=Agilent Q-ToF 6530
PRECURSOR_MZ=297.1997
COMPOUND_NAME=Nephrosteranic acid
ION_MODE=negative
FORMULA=C17H30O4
112.976555 6583.44043 
113.273712 169.017853 
114.139236 303.003967 
123.967918 83.375 
127.620094 114.884804 
146.079971 96.285446 
198.152039 85.761902 
235.205078 162.858765 
253.216339 35458.367188 
253.351105 866.805481 
254.218704 7158.881836 
363.165131 83.782608 
378.403137 59.102272 
402.729309 100.931335 
418.604858 76.561043 
419.233002 70.032143 
474.812073 77.653847 
482.752167 72.166664 
495.984009 72.368904 
507.453186 64.0 
529.082092 79.559998 
534.17749 110.740944 
565.0271 50.333332 
592.583618 51.642857 
601.801025 47.112499 
605.70813 68.328949 
635.408508 119.4944 
635.627686 70.592216 
671.914429 67.695511 
674.209595 71.551727 
701.689636 50.75 
713.193176 46.004311 
725.40802 44.75 
755.507324 83.5625 
755.97522 42.03125 
809.793518 32.164474 
810.230835 42.961956 
817.43988 51.041668 
832.202026 57.047619 
856.715332 43.308823 
881.107605 54.005001 
884.256409 51.901318 
888.271545 39.0 
903.937195 37.004631 
919.396851 57.367424 
959.630371 62.969826 
975.902649 52.421513 
976.469604 55.765625 
990.950623 60.197582 
998.298706 50.049419 
1021.585022 52.875 
1052.329102 68.592102 
1061.403198 41.57143 
1097.669189 42.367424 
1104.346191 35.005951 
1110.791016 53.75 
1111.816406 64.599998 
1136.640869 39.75 
1155.852661 85.33654 
1164.471069 37.889286 
1192.608398 41.976353 
1197.80835 75.96154 
1210.687866 42.923077 
1233.192139 55.297619 
1261.354492 79.28125 
1261.410156 54.135868 
1279.696045 73.141304 
1280.606445 84.003784 
1330.755737 102.481667 
1345.820923 58.111488 
1362.491699 80.68145 
1364.672485 90.445 
1378.080933 46.685974 
1386.071289 42.094696 
1413.962036 70.694229 
1436.872314 32.363636 
1439.723511 40.208332 
1475.81897 47.603573 
1479.986938 54.583332 
1490.452515 79.115738 
1491.707764 82.0 
1516.145386 60.458332 
1547.048706 92.714287 
1552.392334 41.645 
1562.053467 51.432144 
1597.998901 36.111843 
1612.349243 30.471153 
1637.127808 37.645 
1637.235718 30.102272 
1655.810181 83.570656 
1656.079346 67.285713 
1666.377319 23.694445 
END IONS

BEGIN IONS
RTINSECONDS=18.253
CHARGE=1-
MSLEVEL=2
PRECURSORINTENSITY=46574.820312
SMILES=C([C@H](C([C@@H](CO)O)O)O)O
INCHI=InChI=1S/C5H12O5/c6-1-3(8)5(10)4(9)2-7/h3-10H,1-2H2/t3-,4-/m1/s1
INCHIKEY=HEBKCHPVOIAQTA-QWWZWVQMSA-N
CLASS="Polyols, Monosaccharides, Carbohydrates"
ADDUCT=[M-H]-
INSTRUMENT=Agilent Q-ToF 6530
PRECURSOR_MZ=151.0601
COMPOUND_NAME=Arabitol
ION_MODE=negative
FORMULA=C5H12O5
101.449921 24439.019531 
112.993408 1610.983276 
119.033531 3360.546387 
131.020813 2002.442261 
133.1073 1699.218506 
183.875031 195.272064 
243.265778 83.686401 
258.173035 95.036018 
279.184723 77.615387 
284.977936 175.901321 
315.859711 54.094696 
322.291321 68.4879 
347.636505 78.076218 
367.325317 67.0 
375.809753 114.355553 
393.860992 117.882812 
433.249695 64.375 
434.140747 88.526642 
434.364777 89.662735 
454.897705 75.515625 
484.025513 222.11203 
506.447052 95.556816 
533.30835 152.254547 
538.681946 74.16346 
541.996521 67.041664 
577.864502 139.40625 
591.65271 56.328949 
604.160217 45.066666 
639.332031 77.084457 
650.588379 53.671295 
657.709229 48.796051 
682.910156 38.266666 
712.110291 38.041668 
721.880554 47.113636 
737.390442 43.007355 
742.95636 113.395164 
755.038574 76.041664 
780.796387 63.640152 
792.055298 57.223682 
797.32666 49.349136 
831.968811 81.030403 
835.899597 29.125 
846.587402 31.520834 
877.564697 56.125 
887.777771 89.102272 
895.289917 36.390625 
911.822632 54.025002 
936.664062 45.5625 
954.722412 76.320312 
960.535461 74.8125 
982.480408 53.009617 
992.807434 103.400002 
993.771362 119.288368 
1015.875305 51.450001 
1047.329834 45.599998 
1073.106445 33.242645 
1087.874634 32.020832 
1095.485229 40.113636 
1136.890503 44.125 
1145.960815 80.0 
1170.956299 48.165321 
1185.834473 61.57143 
1187.111694 49.0625 
1192.962646 114.965515 
1202.821411 48.454544 
1241.406006 108.493851 
1267.372437 51.432144 
1278.986328 45.907257 
1306.067871 46.047619 
1307.197388 60.226852 
1318.823242 65.449997 
1348.08667 37.595589 
1362.268188 57.272728 
1376.425049 31.111841 
1421.58606 45.416668 
1427.824585 73.041664 
1432.59375 40.599998 
1452.911987 58.881096 
1455.769531 61.816666 
1473.109375 39.3125 
1504.865723 63.387821 
1519.973389 36.285713 
1525.459351 69.045456 
1526.789307 73.190475 
1532.118164 58.173077 
1577.749146 35.76923 
1582.833984 140.168915 
1599.088013 49.44643 
1611.535156 61.551472 
1612.488892 37.599998 
1642.385864 39.875 
1661.286133 65.289284 
1665.710205 29.163462 
1678.25293 48.235294 
1691.178101 23.291666 
1693.846558 28.0 
1695.185059 22.142857 
END IONS

BEGIN IONS
RTINSECONDS=381.322998
CHARGE=1-
MSLEVEL=2
PRECURSORINTENSITY=2750367.000000
SMILES=Cc1cc(c(c2c1c(=O)c1c(o2)c(c(c(c1O)Cl)O)Cl)Cl)O
INCHI=InChI=1S/C14H7Cl3O5/c1-3-2-4(18)7(15)13-5(3)10(19)6-11(20)8(16)12(21)9(17)14(6)22-13/h2,18,20-21H,1H3
INCHIKEY=NTAXLEHKEDVPRK-UHFFFAOYSA-N
CLASS=Xanthones and bis-Xanthones
ADDUCT=[M-H]-
INSTRUMENT=Agilent Q-ToF 6530
PRECURSOR_MZ=358.9246
COMPOUND_NAME=Arthothelin
ION_MODE=negative
FORMULA=C14H7Cl3O5
111.022911 1890.946167 
123.024483 2691.520752 
139.01387 10996.425781 
167.012238 26817.662109 
174.994446 19640.28125 
182.984497 38485.664062 
195.010468 27476.433594 
202.990448 44024.371094 
230.985474 125864.367188 
258.979706 109357.335938 
266.961517 204027.84375 
268.958679 62016.867188 
294.956512 135650.96875 
296.955109 44628.515625 
322.95105 33946.5625 
433.876434 137.684204 
438.10199 102.08654 
470.460876 112.172417 
479.944366 94.470589 
492.842682 78.0 
517.179626 74.5625 
555.187805 68.537788 
566.549805 70.0 
569.516052 104.223213 
570.096497 59.722221 
617.895386 161.027771 
640.983765 136.3629 
650.686096 97.640961 
680.031677 50.089287 
701.860046 97.050003 
733.372437 53.173912 
754.886841 53.561047 
758.079956 63.570652 
775.767639 68.047623 
819.779846 106.061272 
834.229919 62.969826 
837.97229 77.130318 
838.10675 104.160713 
848.391907 152.006256 
876.362244 70.929878 
891.369446 138.778412 
912.919678 82.349998 
931.096069 153.284088 
946.547119 85.571426 
966.202759 95.625 
966.669556 78.881096 
989.316895 99.432693 
1018.596802 64.066666 
1025.095947 60.240383 
1034.133057 61.805 
1061.254395 166.697784 
1062.622681 243.490189 
1084.4021 97.510414 
1094.845337 49.015625 
1098.462891 103.165543 
1101.139404 92.29657 
1127.984009 47.265625 
1128.046387 43.5 
1186.324707 55.041668 
1223.374878 68.125 
1243.860474 66.24662 
1248.098267 52.083332 
1249.792236 69.784088 
1310.952881 90.03846 
1312.418213 84.453705 
1315.531006 95.020454 
1351.086304 288.417786 
1355.095459 108.247948 
1362.880981 96.004036 
1382.884644 67.444443 
1391.46582 100.0 
1405.15979 102.637192 
1451.278076 88.012497 
1463.727661 98.625 
1464.03125 97.792908 
1497.399536 144.220001 
1500.539307 103.049606 
1527.872437 74.041664 
1535.364136 109.63636 
1564.605713 56.432144 
1596.040161 65.3125 
1624.955933 99.160713 
1626.483643 65.26667 
1633.198364 75.444771 
1682.138916 174.306152 
END IONS

BEGIN IONS
RTINSECONDS=284.156006
CHARGE=1-
MSLEVEL=2
PRECURSORINTENSITY=4889863.000000
SMILES=c1c(cc2c(c1O)C(=O)c1c(cc(cc1C2=O)O)O)CO
INCHI=InChI=1S/C15H10O6/c16-5-6-1-8-12(10(18)2-6)15(21)13-9(14(8)20)3-7(17)4-11(13)19/h1-4,16-19H,5H2
INCHIKEY=YQHZABGPIPECSQ-UHFFFAOYSA-N
CLASS=Quinones
ADDUCT=[M-H]-
INSTRUMENT=Agilent Q-ToF 6530
PRECURSOR_MZ=285.0336
COMPOUND_NAME=Citreorosein
ION_MODE=negative
FORMULA=C15H10O6
183.045227 3385.487305 
195.044693 6924.010254 
211.039429 21786.126953 
224.047729 11326.889648 
241.050171 55385.828125 
257.044647 35467.644531 
348.714447 96.656815 
349.514862 76.79348 
350.996613 95.043106 
361.34491 84.142242 
401.790344 63.777779 
405.222107 85.26667 
419.585815 143.166046 
423.955505 55.191177 
452.709229 78.00219 
469.766418 60.013157 
474.548462 67.440475 
484.584808 68.14286 
512.632629 73.0 
520.251953 59.852272 
558.241577 89.08036 
563.198242 69.16346 
583.888428 43.81818 
605.215881 68.215424 
625.998596 89.444672 
656.142883 62.485294 
661.925293 81.201614 
663.111023 146.07843 
663.338074 77.002777 
710.173584 51.1875 
728.070129 45.025002 
730.527832 69.025002 
751.643982 263.46875 
775.558167 76.157051 
783.796265 44.041668 
820.485474 172.274353 
831.47876 60.387821 
841.24408 60.111111 
845.14563 60.321808 
848.248047 48.360001 
891.426697 57.778225 
912.213684 102.358109 
914.735718 91.259613 
915.161926 80.734756 
943.818115 84.153847 
966.597168 52.00658 
994.628418 72.91848 
1061.19519 74.125 
1061.941284 108.521736 
1071.295898 50.560184 
1111.481201 71.639999 
1123.183594 67.0 
1130.150879 35.210526 
1164.67688 42.075001 
1183.58374 49.56818 
1195.0448 54.720238 
1211.758301 44.941177 
1226.108154 36.0 
1231.769531 63.80357 
1270.763062 42.035713 
1296.75769 36.23077 
1314.053589 34.55682 
1326.86853 77.155769 
1338.28186 85.011902 
1418.212769 76.066666 
1436.993774 109.818184 
1444.092773 41.266304 
1450.05127 72.800003 
1454.23938 52.894737 
1465.337158 59.140625 
1500.916504 99.508926 
1516.904175 65.431122 
1517.008667 35.208332 
1581.749023 71.01667 
1593.36084 107.685127 
1609.677124 73.571426 
1610.413818 61.778847 
1652.628906 55.964287 
1661.990845 37.038792 
1663.774658 75.615387 
1690.907837 64.367424 
END IONS

BEGIN IONS
RTINSECONDS=347.904999
CHARGE=1-
MSLEVEL=2
PRECURSORINTENSITY=318914.406250
SMILES=C[C@@H]1OC(=O)/C=C/[C@H]([C@H]([C@@H](CCCCCCCCCC1)O)O)O
INCHI=InChI=1S/C18H32O5/c1-14-10-8-6-4-2-3-5-7-9-11-15(19)18(22)16(20)12-13-17(21)23-14/h12-16,18-20,22H,2-11H2,1H3/b13-12+/t14-,15+,16+,18-/m0/s1
INCHIKEY=KECCBFYFEOTIBV-KHDHUXSVSA-N
CLASS=Aliphatic and Cycloaliphatic Compounds
ADDUCT=[M-H+HCOOH]-
INSTRUMENT=Agilent Q-ToF 6530
PRECURSOR_MZ=373.2151
COMPOUND_NAME=Aspicilin
ION_MODE=negative
FORMULA=C18H32O5
101.023651 10612.919922 
102.194107 515.636353 
112.921356 11337.448242 
114.158257 1034.432495 
114.768707 652.016663 
124.056412 372.379211 
213.183411 3411.844971 
229.178085 3293.332764 
243.193314 10793.623047 
265.216034 37195.667969 
266.218842 10478.40918 
309.218323 20924.566406 
327.200409 37353.84375 
328.213837 10310.355469 
449.606445 75.905487 
462.945129 65.25 
474.448212 85.08654 
479.346191 92.449997 
505.171753 124.274353 
537.518982 84.909088 
538.804138 76.656815 
566.983887 93.408897 
581.835327 118.257812 
586.243286 106.003571 
605.407959 90.491379 
610.707886 98.166664 
623.208496 199.278412 
639.374817 72.041664 
671.560303 55.391129 
687.617432 53.455647 
690.851135 50.140625 
701.540466 53.111111 
713.776245 77.036293 
718.706604 72.181816 
752.621887 47.91848 
769.33783 91.030304 
773.152344 115.756248 
825.757446 61.173912 
829.113831 82.529411 
831.347534 69.693962 
847.067871 96.587265 
851.918518 103.290321 
878.519348 122.181816 
904.84314 86.375 
920.620728 51.142857 
934.43988 55.142242 
936.465027 51.25 
937.845276 43.642857 
946.630981 45.480263 
999.694031 65.022728 
1000.237 58.099998 
1010.590637 55.266666 
1017.73645 209.030487 
1030.855835 61.57143 
1061.860962 47.785713 
1065.685059 65.805 
1085.85022 43.5 
1115.894653 56.75 
1128.317505 51.076923 
1157.916504 57.25 
1171.796143 124.595589 
1195.861694 62.28125 
1202.508301 53.889706 
1218.392944 79.010414 
1220.555054 77.010414 
1241.033936 51.625 
1253.792725 122.625 
1297.416016 54.266304 
1300.535156 258.040192 
1307.433838 62.117645 
1311.175537 92.0 
1333.512939 62.041668 
1368.367188 66.16346 
1406.346313 54.036289 
1420.630981 83.23214 
1422.1521 85.002274 
1436.639648 102.449471 
1460.255981 59.080883 
1472.312866 89.445656 
1478.41333 77.0 
1534.944824 91.04348 
1548.314575 46.693966 
1548.790894 70.16346 
1565.357788 42.0 
1566.982056 89.24662 
1589.875854 70.375 
1623.651245 65.130432 
1630.768799 78.32415 
1651.149658 84.355392 
1654.555664 103.512497 
1667.168579 62.016666 
1677.793335 54.728447 
END IONS

BEGIN IONS
RTINSECONDS=292.40799
CHARGE=1-
MSLEVEL=2
PRECURSORINTENSITY=1213868.625000
SMILES=O=c1cc(C)oc2c1c(O)c(C)c(O)c2C
INCHI=InChI=1S/C12H12O4/c1-5-4-8(13)9-11(15)6(2)10(14)7(3)12(9)16-5/h4,14-15H,1-3H3
INCHIKEY=ODNMTIVRLHXQTE-UHFFFAOYSA-N
CLASS=Chromanes and Chromones
ADDUCT=[M-H]-
INSTRUMENT=Agilent Q-ToF 6530
PRECURSOR_MZ=219.0652
COMPOUND_NAME="N 5,7-Dihydroxy-2,6,8-trimethylchromone"
ION_MODE=negative
FORMULA=C12H12O4
105.051277 4521.943848 
119.048347 17773.740234 
133.049774 21063.615234 
135.044144 21739.751953 
149.060272 19179.025391 
177.044754 21414.369141 
292.18631 55.27174 
314.299988 120.142044 
328.781769 54.160713 
339.567627 78.181816 
387.277344 126.079544 
389.434967 265.653992 
391.062012 111.002777 
391.78833 66.929878 
436.839172 101.166664 
447.136078 142.142853 
448.386047 153.371216 
503.198273 89.666664 
510.467072 55.5625 
534.272034 51.640625 
540.384277 64.111839 
547.403625 44.901318 
606.619141 102.160088 
613.885254 159.793472 
616.538574 113.926285 
632.202454 60.002777 
645.255676 133.289291 
671.616394 75.080132 
693.935974 170.796051 
707.855591 69.03125 
712.862854 146.100006 
730.180542 47.089287 
746.184937 138.965515 
783.643127 57.072674 
786.936523 57.083332 
813.610596 98.045212 
815.550659 109.421509 
822.745361 194.782608 
849.650757 53.889286 
869.823303 48.125 
877.354858 89.130318 
882.080322 72.022728 
936.493958 98.030403 
945.191223 141.523804 
953.886292 116.678574 
969.211914 147.297623 
993.781555 153.324326 
997.255615 92.592216 
1010.788818 73.592102 
1010.839844 50.322369 
1037.158813 48.160713 
1073.546875 40.57143 
1098.942383 116.776405 
1111.904663 65.288269 
1120.37085 53.083332 
1167.321533 40.391129 
1186.044434 52.78125 
1186.719116 49.942307 
1195.475708 44.599998 
1200.440918 51.489864 
1218.181396 98.53186 
1254.62207 52.0 
1255.852539 78.625 
1265.364502 102.765625 
1270.434448 36.91848 
1280.732422 69.666664 
1332.470093 62.385639 
1351.631348 47.245689 
1356.915771 41.482143 
1373.453979 39.890625 
1394.995361 43.200001 
1422.092163 49.487904 
1448.934204 34.083332 
1456.891968 97.013885 
1457.285767 35.011364 
1467.557373 52.81818 
1508.97522 59.136112 
1534.12561 77.165321 
1534.453369 58.281979 
1546.067993 75.344513 
1550.623779 71.0 
1612.26709 74.260872 
1622.575928 36.041668 
1645.293701 131.372192 
1653.549927 77.816666 
1678.184204 33.889286 
1688.841553 69.002274 
END IONS

BEGIN IONS
RTINSECONDS=360.118011
CHARGE=1-
MSLEVEL=2
PRECURSORINTENSITY=540384.312500
SMILES=C[C@H]1CC(=O)C2=C(O)c3c(O[C@@]2(C(=O)OC)[C@@H]1O)ccc(c1c(O)c2c(O[C@@]4(C(=O)OC)[C@@H](O)[C@@H](C)CC(=O)C4=C2O)cc1)c3O
INCHI=InChI=1S/C32H30O14/c1-11-9-15(33)21-25(37)19-17(45-31(21,27(11)39)29(41)43-3)7-5-13(23(19)35)14-6-8-18-20(24(14)36)26(38)22-16(34)10-12(2)28(40)32(22,46-18)30(42)44-4/h5-8,11-12,27-28,35-40H,9-10H2,1-4H3/t11-,12-,27-,28+,31+,32+/m0/s1
INCHIKEY=NFZJAYYORNVZNI-XIBZLVKHSA-N
CLASS=Xanthones and bis-Xanthones
ADDUCT=[M-H]-
INSTRUMENT=Agilent Q-ToF 6530
PRECURSOR_MZ=637.1606
COMPOUND_NAME=Secalonic acid F
ION_MODE=negative
FORMULA=C32H30O14
111.044075 2060.865234 
123.077995 867.011353 
139.039978 1218.162598 
141.046448 1387.974487 
149.05304 1341.088989 
197.026123 1722.15918 
199.049774 5113.489746 
200.0448 2307.481445 
217.05835 1650.736694 
225.025208 1786.307251 
241.054749 1702.118652 
333.074371 5398.118652 
334.083984 6749.227539 
349.072083 4393.805176 
350.078125 5393.336914 
351.084351 4107.623535 
366.10611 3638.049072 
410.096466 2712.052002 
427.101624 2822.512939 
428.10611 2408.169189 
468.117981 2858.127197 
484.115509 3351.802979 
486.132019 3946.838867 
502.121155 2886.64209 
518.14386 3365.540039 
544.131897 5591.04541 
562.145935 7401.22998 
578.140625 14568.499023 
594.170837 7634.594238 
606.136169 8230.564453 
620.151184 7649.188965 
694.460632 92.061272 
712.468018 60.694443 
739.609863 91.066177 
744.602051 66.521736 
767.259827 59.384617 
775.125732 85.689651 
807.373169 72.08654 
821.992981 74.842102 
834.567505 83.002777 
849.73645 91.734848 
850.874451 94.069443 
871.684143 85.130432 
892.186584 67.344513 
912.189636 65.568184 
923.505554 75.210526 
937.190796 69.521553 
1033.922974 64.769234 
1053.428955 67.041664 
1062.9104 62.25 
1071.011353 92.172417 
1078.711548 85.190475 
1102.658813 128.451538 
1146.489258 90.120369 
1192.411255 61.720238 
1239.789185 77.002548 
1299.253174 65.787163 
1315.267944 80.559998 
1332.630493 65.445 
1380.440308 63.67857 
1385.667358 198.130432 
1401.492554 66.0 
1401.589722 81.041664 
1401.821777 76.165543 
1448.608765 118.041664 
1459.11792 81.681816 
1460.760864 78.03846 
1505.299805 62.816666 
1522.624268 94.201668 
1561.365479 73.469444 
1586.448853 121.778572 
1596.523682 68.259613 
1617.580444 61.391304 
1643.687988 63.166668 
1681.104126 75.367645 
END IONS

BEGIN IONS
RTINSECONDS=480.476013
CHARGE=1-
MSLEVEL=2
PRECURSORINTENSITY=21192.107422
SMILES=O=c1c2c(cc(cc2C)OC)oc2c1c(O)c(c(OC)c2Cl)Cl
INCHI=InChI=1S/C16H12Cl2O5/c1-6-4-7(21-2)5-8-9(6)13(19)10-14(20)11(17)16(22-3)12(18)15(10)23-8/h4-5,20H,1-3H3
INCHIKEY=ZPLILIOXZHNNLY-UHFFFAOYSA-N
CLASS=Xanthones and bis-Xanthones
ADDUCT=[M-H]-
INSTRUMENT=Agilent Q-ToF 6530
PRECURSOR_MZ=352.9893
COMPOUND_NAME="N 2,4-Dichlorolichexanthone"
ION_MODE=negative
FORMULA=C16H12Cl2O5
104.920341 45.347221 
105.027145 79.18409 
125.113274 68.75 
126.950897 129.002365 
150.695602 126.191452 
159.644501 76.875 
194.084076 89.049606 
220.385452 125.889153 
254.802567 115.029411 
271.977966 111.284088 
294.954376 950.967529 
296.944061 494.024994 
415.086243 74.736115 
432.931915 40.150002 
436.459656 32.326923 
456.248413 32.939518 
483.131226 50.765625 
494.686646 105.592216 
497.653473 124.08654 
518.961548 68.0 
556.081116 138.592209 
557.557373 99.768616 
562.938965 66.094696 
582.419495 79.284088 
592.892639 65.132355 
624.49884 30.25 
633.466125 30.006578 
652.528992 49.117645 
665.691711 41.482143 
683.964233 80.685974 
728.798401 67.125 
735.393677 92.564812 
756.825806 51.210526 
778.30188 70.347221 
796.696472 47.089287 
798.885864 52.003788 
800.835449 51.016666 
851.604736 50.802631 
863.525879 48.388889 
864.809875 52.005951 
873.178467 46.148811 
878.37616 40.25 
925.21283 37.125 
937.96698 51.929878 
938.031494 39.004631 
967.898376 87.125 
981.771912 68.737244 
989.446594 49.339287 
1013.556824 35.875 
1052.615723 32.680557 
1058.892212 110.814812 
1081.231812 73.967102 
1089.695068 57.889286 
1091.515625 66.721153 
1114.54187 31.321428 
1133.564209 40.266666 
1159.305786 33.015625 
1175.710327 38.923077 
1181.594971 41.680557 
1182.819824 33.32143 
1200.199951 46.25 
1209.591431 57.157051 
1238.019287 24.28125 
1252.711914 23.007353 
1272.780273 34.244999 
1277.733765 24.799999 
1300.8479 165.20166 
1304.167603 36.219593 
1311.819092 44.102272 
1321.998291 69.89286 
1328.273926 44.025002 
1365.679321 26.111111 
1384.346436 27.25 
1416.646118 38.142857 
1419.310181 46.099998 
1422.134766 62.541668 
1430.362305 30.625 
1442.375977 34.226852 
1459.96228 46.693966 
1504.828857 36.041668 
1512.46814 41.782406 
1520.740234 107.130318 
1529.55603 68.964622 
1576.758057 35.05357 
1586.206543 62.328949 
1586.302124 41.007355 
1638.959229 37.720238 
1653.130371 36.041668 
1654.908081 38.666668 
1660.616333 81.603569 
1661.684082 45.315788 
1685.405884 42.55682 
1690.790161 28.333334 
END IONS

BEGIN IONS
RTINSECONDS=259.25
CHARGE=1-
MSLEVEL=2
PRECURSORINTENSITY=249768.562500
SMILES=O=C1C=C(OC)C(=O)c2c1c(c1c(c2O)C[C@H](C)OC1=O)O
INCHI=InChI=1S/C15H12O7/c1-5-3-6-9(15(20)22-5)14(19)10-7(16)4-8(21-2)13(18)11(10)12(6)17/h4-5,17,19H,3H2,1-2H3/t5-/m0/s1
INCHIKEY=VZSFONBSZGFZNH-YFKPBYRVSA-N
CLASS=Quinones
ADDUCT=[M-H]-
INSTRUMENT=Agilent Q-ToF 6530
PRECURSOR_MZ=303.0497
COMPOUND_NAME=Haemoventosine
ION_MODE=negative
FORMULA=C15H12O7
101.09584 338.283813 
117.027443 555.252625 
145.035507 1055.783081 
157.169754 1279.272705 
173.023026 5937.563477 
201.01651 4307.308594 
216.039261 35459.121094 
231.058014 12444.769531 
244.01825 13174.543945 
259.055298 117039.59375 
260.06665 20716.197266 
361.503815 60.361111 
371.175568 56.960526 
404.020996 43.487904 
415.038147 49.25 
451.758026 77.002777 
454.499603 55.244999 
458.138123 80.432144 
460.588196 154.381332 
503.801208 76.33654 
511.756561 49.890625 
513.584473 44.578949 
515.587036 42.521553 
536.318054 62.25 
563.48822 50.03125 
569.110168 193.800003 
569.19751 65.769234 
581.052429 47.017857 
637.745361 45.3125 
652.0672 44.224998 
667.550415 52.969826 
680.307068 65.111488 
686.278931 53.942307 
718.481567 171.755142 
742.011108 60.25 
743.215515 67.578949 
792.038208 101.118423 
799.55835 76.71627 
814.122925 117.030487 
829.640686 63.669445 
830.309143 237.003784 
835.887573 96.695511 
879.675659 112.03125 
894.584229 71.520836 
899.74176 97.909088 
909.303833 59.68145 
938.507568 89.654068 
942.208496 120.551727 
984.175171 51.034092 
990.178223 45.125 
1027.920288 60.185608 
1031.318237 69.020836 
1033.25708 52.111488 
1038.284424 43.778225 
1049.368652 81.076218 
1073.205688 42.57143 
1131.390137 35.004631 
1132.417114 66.069443 
1142.845703 89.020454 
1181.983032 224.801727 
1197.882202 55.480263 
1199.365967 75.284088 
1211.990479 79.894737 
1222.586182 69.675003 
1223.091064 71.920456 
1275.272217 53.281979 
1291.18457 90.232689 
1333.342896 57.599998 
1336.826904 63.337963 
1338.059326 50.6875 
1342.447998 81.778847 
1345.927246 67.231483 
1401.496704 45.785713 
1411.628418 70.675926 
1432.95459 79.111366 
1445.331055 136.841217 
1467.680908 83.020454 
1491.141602 86.4375 
1500.741943 54.0 
1524.811768 46.059212 
1553.905884 37.480263 
1560.113647 38.005436 
1571.400391 50.363636 
1607.519409 46.173077 
1608.177002 43.5625 
1619.271851 66.678574 
1635.197754 119.778847 
1635.730591 165.53186 
1668.678223 60.023937 
1668.954956 32.796051 
1673.348389 30.487904 
1675.526978 56.211208 
END IONS

BEGIN IONS
RTINSECONDS=449.326996
CHARGE=1-
MSLEVEL=2
PRECURSORINTENSITY=2080708.250000
SMILES=O=C1C(=C(O)/C(=C(/c2ccccc2)\C(=O)OC)/O1)c1ccccc1
INCHI=InChI=1S/C19H14O5/c1-23-18(21)15(13-10-6-3-7-11-13)17-16(20)14(19(22)24-17)12-8-4-2-5-9-12/h2-11,20H,1H3/b17-15+
INCHIKEY=OMZRMXULWNMRAE-BMRADRMJSA-N
CLASS=Pulvinic Acid Derivatives
ADDUCT=[M-H]-
INSTRUMENT=Agilent Q-ToF 6530
PRECURSOR_MZ=321.0675
COMPOUND_NAME=Vulpinic acid
ION_MODE=negative
FORMULA=C19H14O5
101.039787 6011.852539 
117.033943 469051.0625 
118.038292 49008.75 
119.058701 1101.042725 
125.053352 3365.118408 
189.057816 231750.3125 
190.077744 872685.9375 
191.081558 166107.390625 
234.068237 160184.625 
249.090668 200637.921875 
250.093765 47492.828125 
262.062317 104638.0 
383.639526 170.186859 
388.522614 132.207199 
399.549286 91.888885 
403.091461 166.331085 
437.136871 93.002449 
447.527496 83.960526 
453.208038 83.202271 
470.154602 68.49128 
479.617218 88.022957 
530.675049 107.445656 
533.350159 68.125 
552.969604 168.952698 
563.759277 87.00338 
574.906982 162.756256 
612.351929 92.894737 
634.804993 151.827591 
643.256836 123.737244 
661.275513 75.138512 
705.188354 188.396133 
712.274231 86.599998 
719.617859 91.18409 
757.568604 140.001343 
763.729858 77.541664 
788.735291 44.595589 
792.813721 36.720238 
804.614868 95.228775 
843.856934 46.011364 
849.386597 41.140625 
856.338562 118.544495 
907.537415 42.041668 
911.264465 117.469444 
919.245056 128.214279 
930.480652 47.107758 
946.890442 95.556816 
957.793762 69.803574 
992.252686 80.926285 
1020.742554 83.199997 
1021.568665 60.315788 
1027.783569 41.211208 
1038.697144 49.017857 
1057.347046 81.598686 
1104.546265 110.153481 
1106.651733 115.009613 
1134.710938 129.097885 
1181.048462 105.840912 
1191.026367 108.259262 
1191.908203 103.33532 
1200.635376 103.456894 
1218.497925 119.882462 
1250.246338 58.816666 
1263.976196 46.28125 
1266.918335 105.4375 
1286.294922 37.326923 
1307.987061 39.125 
1325.33667 36.920456 
1330.011108 221.734848 
1339.490112 44.48077 
1361.848145 68.211205 
1402.974121 48.440475 
1406.259644 94.125 
1425.053589 61.1875 
1427.74646 72.263161 
1434.325073 110.449997 
1461.588257 51.185608 
1498.284546 39.349998 
1500.286621 40.08654 
1503.992065 58.890625 
1515.13147 43.91848 
1552.769287 111.25 
1572.959595 40.599998 
1573.020508 32.08654 
1581.843262 54.013889 
1584.967407 173.017853 
1629.925659 42.367424 
1638.064331 36.404999 
1638.596191 48.089287 
1668.228271 117.223213 
1678.060669 31.444445 
1685.591553 38.449074 
END IONS

BEGIN IONS
RTINSECONDS=413.938995
CHARGE=1-
MSLEVEL=2
PRECURSORINTENSITY=2641938.000000
SMILES=CC(=O)CCCCCCCCCCCCC[C@@H]1C(C(C)C(=O)O1)C(=O)O
INCHI=InChI=1S/C21H36O5/c1-16(22)14-12-10-8-6-4-3-5-7-9-11-13-15-18-19(20(23)24)17(2)21(25)26-18/h17-19H,3-15H2,1-2H3,(H,23,24)/t17?,18-,19?/m1/s1
INCHIKEY=SPGPUDJMXMJNCU-JLAWEPINSA-N
CLASS=Paraconic acids
ADDUCT=[M-H]-
INSTRUMENT=Agilent Q-ToF 6530
PRECURSOR_MZ=367.2463
COMPOUND_NAME=Dihydromuronic acid
ION_MODE=negative
FORMULA=C21H36O5
113.013794 9350.915039 
113.268875 273.174988 
114.028198 874.641541 
117.505051 124.51136 
142.257095 188.625 
156.473511 180.207138 
179.580566 122.070404 
189.38887 141.775635 
203.087875 161.887665 
263.236298 4896.736328 
264.241699 1361.963501 
279.268677 402945.8125 
280.270782 116059.867188 
281.288086 5759.753906 
323.26239 593825.875 
324.260529 159447.609375 
450.613922 200.338882 
474.122711 112.428574 
493.591949 77.246948 
496.666382 66.347221 
503.400391 55.107143 
506.085999 54.889706 
561.232971 157.4944 
561.857849 63.125 
564.285278 53.25 
565.695435 80.920456 
566.620728 55.911366 
622.103821 45.440216 
635.8526 79.29657 
660.322876 67.809998 
661.865417 130.34375 
687.298157 149.011368 
690.760681 73.367645 
724.756714 149.013885 
739.730408 58.408783 
741.487305 110.761902 
773.167358 59.038792 
773.22229 54.142242 
779.215942 51.720238 
805.255493 41.882355 
808.006836 39.333332 
815.100586 49.0 
864.738098 44.142857 
868.091248 42.470589 
881.717407 57.149391 
941.423157 99.315216 
948.862427 104.360001 
977.553894 116.002777 
995.664062 96.222565 
995.888367 109.801727 
1023.826721 103.573982 
1065.839355 128.152405 
1073.697754 127.088768 
1085.15625 112.10714 
1086.619629 119.473686 
1120.214355 81.222458 
1144.703125 42.002777 
1146.02002 128.85141 
1155.584229 43.482143 
1184.668457 63.185608 
1210.07666 52.56818 
1222.016602 45.011364 
1232.165161 45.333332 
1266.405151 63.020832 
1266.481201 42.471153 
1274.302734 49.375 
1280.080566 56.049419 
1320.407227 41.816666 
1324.079834 150.6483 
1329.177002 117.008331 
1348.352661 212.39682 
1401.525391 49.75 
1409.962402 37.142857 
1416.816772 37.173077 
1427.639771 54.761906 
1433.668213 96.017311 
1434.781128 57.111843 
1489.847412 108.765625 
1495.205322 142.414993 
1499.506714 112.404854 
1504.810059 65.720589 
1505.404541 86.028847 
1558.623901 42.889706 
1570.36792 145.009262 
1585.688843 56.149391 
1591.107788 81.367424 
1628.365479 56.644737 
1641.467041 133.25 
1647.016724 52.266304 
1672.986816 48.222221 
1686.000122 45.778225 
1695.747681 112.457146 
END IONS

BEGIN IONS
RTINSECONDS=470.59201
CHARGE=1-
MSLEVEL=2
PRECURSORINTENSITY=217732.687500
SMILES=Oc1c(C(=O)Oc2c(C)c(C)c(c(O)c2C)C(=O)OC)c(C)c(C)c(O)c1C=O
INCHI=InChI=1S/C21H22O8/c1-8-10(3)16(23)13(7-22)18(25)15(8)21(27)29-19-11(4)9(2)14(20(26)28-6)17(24)12(19)5/h7,23-25H,1-6H3
INCHIKEY=UHFZDRSLNDPMRZ-UHFFFAOYSA-N
CLASS=Depsides (Didepsides)
ADDUCT=[M-H]-
INSTRUMENT=Agilent Q-ToF 6530
PRECURSOR_MZ=401.1135
COMPOUND_NAME=Pseudocyphellarin A
ION_MODE=negative
FORMULA=C21H22O8
104.016701 852.5 
105.206291 1124.678223 
119.449799 13419.607422 
133.561478 23531.222656 
147.17865 18621.056641 
177.054855 52252.816406 
177.940262 8046.615723 
191.034607 57916.589844 
192.038513 8422.408203 
209.063568 7969.249023 
209.642242 1556.125488 
259.106689 177.022217 
288.813812 162.673615 
295.101227 247.25 
305.898682 152.898148 
308.535522 155.356018 
347.656464 174.111847 
465.40567 52.881096 
469.818359 61.008335 
470.584717 59.351746 
500.162567 117.71196 
507.063812 136.681671 
522.792664 106.883476 
563.533264 59.012501 
576.056702 63.240002 
580.060608 71.889709 
589.418213 43.842106 
629.779663 71.0 
639.764526 63.796051 
642.522583 70.375 
650.014771 70.119186 
659.885681 52.00338 
685.242981 106.791664 
714.51416 56.084461 
722.414246 167.380264 
730.619507 61.041668 
769.137207 55.003204 
770.012695 56.16 
775.114868 53.625 
812.554626 75.025002 
829.56189 51.91848 
853.198059 168.032211 
853.299316 54.242645 
854.635437 55.333332 
881.478271 94.449623 
909.487305 46.842106 
919.42157 48.140625 
942.60199 72.662231 
952.02002 56.55682 
966.993408 81.769234 
972.774109 154.173843 
972.877014 56.347221 
987.957886 76.75 
999.547852 53.49128 
1061.451416 80.160088 
1068.53418 82.0 
1101.383179 93.48214 
1116.487671 130.618149 
1118.71814 106.202271 
1120.546631 81.153847 
1126.224487 111.001808 
1140.574463 106.326614 
1171.350098 65.603569 
1185.385376 44.782406 
1221.637695 54.720238 
1226.343506 59.400002 
1235.400635 72.205002 
1243.080811 66.406914 
1248.700806 73.765625 
1256.007935 120.612503 
1292.919067 69.337959 
1295.98938 62.066666 
1310.757202 51.022728 
1316.299438 124.241379 
1343.689575 88.021225 
1386.151855 132.0 
1388.557739 50.782406 
1404.824951 121.068184 
1409.719849 46.458332 
1419.326904 46.796051 
1463.842529 52.681602 
1492.692139 69.022057 
1496.810181 94.556816 
1510.829834 66.185608 
1525.428833 95.072678 
1541.145752 66.875 
1543.800049 53.150002 
1599.942627 103.814812 
1604.997925 54.025002 
1612.819458 64.112503 
1634.158081 46.347221 
1651.344971 63.263157 
1668.627441 37.785713 
1680.951538 38.11842 
1684.232666 57.80357 
1686.658081 48.083332 
END IONS

BEGIN IONS
RTINSECONDS=332.019012
CHARGE=1-
MSLEVEL=2
PRECURSORINTENSITY=11665.139648
SMILES=Cc1cc(=O)c2c(o1)c(c(cc2O)O[C@H]1[C@@H]([C@H]([C@@H]([C@H](O1)COC(=O)C)O)OC(=O)C)OC(=O)C)C
INCHI=InChI=1S/C23H26O12/c1-9-6-14(27)18-15(28)7-16(10(2)20(18)31-9)34-23-22(33-13(5)26)21(32-12(4)25)19(29)17(35-23)8-30-11(3)24/h6-7,17,19,21-23,28-29H,8H2,1-5H3/t17-,19-,21+,22-,23-/m1/s1
INCHIKEY=HXFPGPYWXWMQDG-FVEADEHFSA-N
CLASS=Chromanes and Chromones
ADDUCT=[M-H]-
INSTRUMENT=Agilent Q-ToF 6530
PRECURSOR_MZ=493.1275
COMPOUND_NAME=Lobodirin
ION_MODE=negative
FORMULA=C23H26O12
113.032898 73.695656 
126.886932 96.020454 
130.50769 92.58036 
135.419495 124.001808 
143.272354 56.512501 
143.800751 69.183823 
203.083557 70.076218 
204.068359 144.097565 
205.109009 147.715912 
212.950485 69.165321 
237.804077 103.189186 
254.455338 231.640915 
274.002716 72.818184 
286.901093 63.0 
300.924713 57.926281 
309.793579 54.485294 
322.799316 107.125 
352.924774 63.240383 
365.396088 56.245689 
390.261017 163.592209 
404.840454 69.408783 
412.994019 32.642857 
431.916504 47.113636 
511.408569 102.284088 
541.877563 51.291668 
565.672363 27.011364 
568.486938 27.25 
578.753174 41.0 
592.195801 27.360294 
616.229858 40.961956 
628.789978 70.4879 
635.393921 40.961956 
636.422302 77.315216 
645.770691 33.326923 
693.546509 58.337963 
705.303345 67.5625 
705.44397 55.125 
714.191833 44.208332 
738.275757 114.668648 
751.241516 42.005951 
762.940979 34.164474 
794.26886 58.005951 
801.271423 18.75 
807.917603 46.0 
823.467163 25.041666 
853.182129 30.306818 
861.880249 34.00658 
866.102356 25.0 
887.932739 24.13587 
902.356201 49.349136 
922.12677 43.44643 
944.386414 47.244999 
945.807007 36.487904 
961.949646 38.657608 
1015.617004 45.326923 
1016.924927 47.205002 
1019.850098 91.633331 
1050.832153 69.841217 
1059.768066 84.157051 
1063.773804 49.099998 
1093.474976 56.644737 
1114.679932 42.816666 
1120.58667 50.360001 
1171.658691 109.019737 
1171.911377 102.737244 
1181.411621 48.391304 
1192.382812 38.404999 
1205.328613 91.778847 
1220.095459 69.041664 
1271.069946 72.635201 
1282.405029 54.125 
1319.731812 55.557693 
1323.468872 89.013161 
1350.906494 71.197578 
1352.693115 63.25 
1371.295898 108.240669 
1401.617676 159.058823 
1409.616089 43.532894 
1433.353271 38.782406 
1436.428101 63.002907 
1442.408569 42.657608 
1477.410889 28.75 
1518.049805 85.044998 
1550.303223 64.165321 
1560.264038 66.644997 
1572.977783 65.894737 
1573.77002 70.107758 
1587.048706 83.532608 
1607.518921 112.300003 
1612.745972 45.002777 
1624.006348 156.248856 
1687.281494 62.347221 
1692.324585 34.009617 
1692.487793 25.1875 
1694.70752 47.375 
END IONS

BEGIN IONS
RTINSECONDS=141.261993
CHARGE=1-
MSLEVEL=2
PRECURSORINTENSITY=3496216.750000
SMILES=O=C(O)c1c(C)cc(O)cc1OC
INCHI=InChI=1S/C9H10O4/c1-5-3-6(10)4-7(13-2)8(5)9(11)12/h3-4,10H,1-2H3,(H,11,12)
INCHIKEY=HKYUPCAKFRQXJI-UHFFFAOYSA-N
CLASS=Cleavage Products of Depsides and Depsidones
ADDUCT=[M-H]-
INSTRUMENT=Agilent Q-ToF 6530
PRECURSOR_MZ=181.0491
COMPOUND_NAME=Isoevernic acid
ION_MODE=negative
FORMULA=C9H10O4
107.019684 791.606018 
122.03685 1462534.125 
123.126099 112527.40625 
137.055618 2012172.75 
137.165405 119080.59375 
138.054291 180630.140625 
201.180191 192.0 
232.823151 44.185608 
240.682678 66.013885 
244.888382 169.612808 
295.970154 19.006578 
306.134125 38.099998 
320.115387 32.360294 
322.537231 21.005953 
335.817627 22.075001 
366.8349 35.333332 
386.9151 78.215515 
386.982086 22.0 
392.46936 36.135868 
396.483002 149.844101 
452.943359 37.041668 
483.322327 29.84091 
488.399536 44.391129 
488.720123 22.75 
490.696594 127.122093 
490.781525 18.025 
558.404053 15.408334 
562.280884 18.347221 
569.844299 89.473686 
579.993225 23.25 
581.514648 53.782406 
615.572144 66.449997 
622.852234 28.720238 
628.064697 24.075001 
660.151428 198.053268 
673.227539 15.625 
674.52533 152.413467 
709.471191 21.0 
729.330505 26.571428 
730.488892 23.008333 
751.872375 23.321428 
772.595825 78.493423 
773.796265 24.11574 
805.220825 18.322369 
805.689209 155.206894 
823.437073 20.674999 
856.070129 19.240385 
888.200806 29.694445 
896.423889 31.918478 
918.089233 59.473682 
933.668823 107.625 
933.743103 31.694445 
937.650391 34.224998 
1000.247375 15.059211 
1003.114197 19.657608 
1010.033081 21.142857 
1021.271606 19.125 
1035.829956 21.125 
1050.020508 18.666666 
1063.766846 32.693966 
1072.723999 15.5 
1109.610352 17.5625 
1111.907227 15.0 
1120.557373 30.440218 
1129.651123 32.48077 
1167.94873 23.125 
1175.35376 27.008333 
1188.513672 17.5625 
1207.013062 52.787163 
1243.249146 206.357147 
1259.78064 35.041668 
1264.033325 12.284091 
1287.457397 74.210526 
1287.556885 26.674999 
1321.938354 30.148809 
1347.642822 84.0 
1347.895142 18.041666 
1357.900146 18.083334 
1372.939209 18.889706 
1397.446899 18.680555 
1434.072266 15.164474 
1460.227295 99.142441 
1460.359741 15.075 
1472.279053 59.266666 
1472.422241 24.049999 
1500.874268 126.694443 
1517.490967 24.025 
1531.543945 18.053572 
1555.241821 23.240385 
1555.326172 12.25 
1563.788208 13.28125 
1588.45166 12.166667 
1634.175049 37.102272 
1634.273071 17.013889 
1639.008545 9.0 
1654.595215 8.160714 
1675.108398 9.75 
1694.486938 14.005953 
END IONS

BEGIN IONS
RTINSECONDS=349.27301
CHARGE=1-
MSLEVEL=2
PRECURSORINTENSITY=2168666.750000
SMILES=O=C(O)c1c(CCC)c(Cl)c(OC)cc1O
INCHI=InChI=1S/C11H13ClO4/c1-3-4-6-9(11(14)15)7(13)5-8(16-2)10(6)12/h5,13H,3-4H2,1-2H3,(H,14,15)
INCHIKEY=JRBWSDAHJPBRDM-UHFFFAOYSA-N
CLASS=Cleavage Products of Depsides and Depsidones
ADDUCT=[M-H]-
INSTRUMENT=Agilent Q-ToF 6530
PRECURSOR_MZ=243.041
COMPOUND_NAME=5-Chlorodivaricatinic acid
ION_MODE=negative
FORMULA=C11H13ClO4
155.998184 662170.8125 
156.993546 59061.128906 
184.093536 1044649.375 
185.035599 134248.8125 
186.025986 24195.130859 
199.051727 133867.5625 
264.827728 202.11377 
319.237061 136.297302 
325.313141 122.931335 
328.594055 104.815002 
354.296021 111.851418 
368.363922 75.285713 
420.072632 113.384613 
425.663574 186.02388 
426.653931 65.022728 
430.662415 144.559998 
432.491333 100.01667 
441.375793 131.031723 
499.733063 52.75 
504.818604 113.026161 
505.616394 66.455643 
510.511322 73.573982 
515.421936 50.125 
525.040588 122.245689 
578.142517 42.390625 
598.135864 156.347824 
610.212036 36.036289 
620.826538 115.020454 
627.722595 52.80357 
673.200012 105.130318 
684.921265 80.446426 
692.1875 158.298782 
700.528931 72.004036 
723.590637 90.34375 
757.750427 44.111843 
773.80072 188.189362 
780.520508 57.680557 
781.562622 69.041664 
802.859497 119.239998 
839.291504 89.035713 
839.422791 50.603573 
862.874329 56.320122 
863.161316 77.556816 
882.379944 140.410217 
909.941711 56.013889 
936.046814 115.112503 
936.468872 104.541664 
960.928467 105.0 
967.900574 122.137932 
976.887207 97.561043 
1002.884521 28.125 
1005.422974 75.120766 
1028.521973 24.045 
1079.237305 45.454544 
1079.301758 37.005001 
1092.223999 127.001984 
1101.257812 116.172874 
1107.218872 54.307693 
1143.370361 44.367424 
1185.817505 32.240383 
1211.628296 50.520832 
1227.091797 28.022728 
1228.918579 39.520161 
1229.926147 32.349998 
1252.948242 41.004311 
1302.080933 256.920624 
1329.378662 55.044998 
1329.464233 65.094696 
1335.677002 206.448166 
1335.901489 33.224998 
1374.162598 57.367645 
1388.828369 29.041666 
1394.753418 27.321428 
1408.197144 126.308823 
1425.611084 122.571426 
1445.71228 42.339287 
1461.025513 44.025002 
1472.259888 42.361111 
1491.032715 119.469444 
1498.126465 42.680557 
1509.285278 32.075001 
1533.127441 89.404999 
1560.787231 40.44643 
1605.151733 44.720238 
1610.730835 162.232147 
1613.053711 52.642857 
1619.181519 93.173912 
1637.82959 72.941177 
1647.862305 62.778225 
1688.991577 102.06649 
1693.330566 17.625 
END IONS

BEGIN IONS
RTINSECONDS=472.601013
CHARGE=1-
MSLEVEL=2
PRECURSORINTENSITY=2523994.000000
SMILES=CCCCCCCCCCCCCC1C(C(=C)C(=O)O1)C(=O)O
INCHI=InChI=1S/C19H32O4/c1-3-4-5-6-7-8-9-10-11-12-13-14-16-17(18(20)21)15(2)19(22)23-16/h16-17H,2-14H2,1H3,(H,20,21)
INCHIKEY=WZYZDHVPSZCEEP-UHFFFAOYSA-N
CLASS=Paraconic acids
ADDUCT=[M-H]-
INSTRUMENT=Agilent Q-ToF 6530
PRECURSOR_MZ=323.2208
COMPOUND_NAME=Protolichesterinic acid
ION_MODE=negative
FORMULA=C19H32O4
111.06958 62.06649 
113.024796 632.287354 
114.01857 55.889286 
123.02179 59.142857 
140.017456 106.0 
182.949875 82.025002 
223.194 263.375 
235.22908 52812.691406 
236.241699 11928.770508 
236.400131 603.473694 
279.229584 886704.375 
280.23465 201937.8125 
427.072266 189.191483 
428.388672 73.644737 
457.280945 94.686401 
460.66748 35.654411 
487.744171 77.633774 
496.157013 48.027439 
520.766296 66.0 
534.938904 192.914124 
542.832642 75.049606 
562.254395 73.768616 
564.678955 92.370369 
580.38562 51.375 
594.887573 67.025002 
616.487915 43.782406 
654.599548 176.979843 
678.896179 65.224998 
689.072021 64.454544 
711.090942 76.020454 
711.607178 56.777779 
713.569885 141.0625 
736.18042 53.003204 
783.413025 36.017857 
797.772522 147.003784 
803.531006 31.907259 
825.55188 40.471153 
848.390808 107.041664 
867.087891 50.227272 
905.867737 83.346153 
936.684021 101.894737 
939.715332 45.130436 
959.272949 40.55682 
960.183838 71.308823 
962.881165 85.669441 
989.983582 108.900864 
1019.402954 94.225746 
1019.472656 38.183823 
1023.412476 40.680557 
1032.555908 56.002907 
1044.817627 67.802635 
1071.789673 41.01923 
1109.844238 113.666664 
1111.344238 44.408333 
1133.724121 111.054825 
1135.537476 175.296295 
1149.663086 48.969826 
1164.943115 47.11842 
1166.725586 39.00658 
1206.180664 38.777779 
1223.105347 35.900002 
1223.159912 31.009615 
1232.538574 66.004036 
1236.388062 44.0 
1265.417725 67.013885 
1294.142944 74.01136 
1299.293213 39.222221 
1320.371826 61.450001 
1346.845215 172.505203 
1359.904419 76.370613 
1371.249512 179.142609 
1381.13147 40.570652 
1385.356323 53.583332 
1454.066162 41.173077 
1460.471436 31.289286 
1470.334473 32.222221 
1500.51355 65.0 
1514.060913 121.130882 
1518.70752 176.334595 
1548.209351 154.259415 
1566.912842 37.097828 
1567.241333 128.982559 
1571.008057 94.002777 
1617.660767 57.30682 
1651.769165 64.41346 
1651.852417 54.004311 
1652.745972 185.225006 
1676.148315 60.79348 
1680.203003 58.028847 
1692.486694 34.778847 
END IONS

BEGIN IONS
RTINSECONDS=381.662994
CHARGE=1-
MSLEVEL=2
PRECURSORINTENSITY=209956.421875
SMILES=Cc1cc(OC)cc2c1c(=O)c1c(cc(O)c(Cl)c1O)o2
INCHI=InChI=1S/C15H11ClO5/c1-6-3-7(20-2)4-9-11(6)14(18)12-10(21-9)5-8(17)13(16)15(12)19/h3-5,17,19H,1-2H3
INCHIKEY=VZYXHXRKFKLWJI-UHFFFAOYSA-N
CLASS=Xanthones and bis-Xanthones
ADDUCT=[M-H]-
INSTRUMENT=Agilent Q-ToF 6530
PRECURSOR_MZ=305.0197
COMPOUND_NAME=2-Chloro-6-O-methylnorlichexanthone
ION_MODE=negative
FORMULA=C15H11ClO5
106.077423 2473.621582 
128.984879 4728.148438 
142.041138 3218.748047 
169.029785 2937.286133 
170.0439 19641.060547 
198.031219 16386.277344 
199.035477 3100.933105 
226.024658 8992.825195 
261.001251 9624.545898 
262.001221 13428.032227 
357.317963 78.025002 
397.225952 91.270271 
399.122467 215.740936 
448.655243 50.640152 
462.784332 71.002777 
487.638336 56.556034 
489.724609 73.074997 
490.715576 90.083336 
509.048004 103.864288 
542.121216 73.727943 
551.589111 79.689651 
570.945801 51.816666 
585.097473 71.920456 
599.282043 59.521553 
620.205566 63.00338 
625.360291 76.430557 
654.557922 65.5 
665.771484 71.385635 
681.585144 65.231483 
692.012268 109.4375 
738.650269 74.839996 
748.744019 93.052963 
753.708557 122.532898 
760.981873 73.449471 
780.100891 100.920921 
813.741089 110.788933 
830.406555 49.107758 
831.773682 74.400002 
874.010132 76.222824 
876.849548 82.371216 
901.377686 59.881096 
922.441101 91.285713 
939.844055 55.315216 
941.698242 80.00338 
954.383362 47.728447 
992.190918 88.00219 
1011.088562 42.08654 
1013.572937 44.125 
1023.424072 42.240383 
1058.585327 52.900002 
1059.307251 46.400002 
1073.873291 137.555557 
1073.981323 34.796051 
1121.514526 27.107759 
1142.182861 95.360001 
1163.909424 129.472061 
1164.059448 51.0625 
1183.723389 105.431122 
1205.730713 52.375 
1213.112305 45.375 
1242.053101 167.721695 
1285.758789 48.222221 
1289.357544 58.0625 
1300.112671 49.173077 
1314.236206 46.232143 
1315.168579 50.200001 
1356.856323 85.905487 
1380.656494 46.017857 
1390.089966 52.1875 
1390.178223 35.083332 
1391.466309 43.25 
1409.725464 32.570652 
1442.655029 50.113636 
1463.397705 78.761902 
1475.291504 115.288269 
1475.409058 33.099998 
1480.952393 53.44643 
1535.021973 44.349136 
1542.895996 81.875 
1544.05835 69.014709 
1554.829712 44.720238 
1557.829468 36.125 
1611.348511 61.768616 
1630.834351 136.484848 
1648.079224 61.521553 
1648.745361 64.002357 
1659.038818 72.680557 
1663.875854 52.645 
1680.725464 58.266666 
END IONS

BEGIN IONS
RTINSECONDS=347.856995
CHARGE=1-
MSLEVEL=2
PRECURSORINTENSITY=3214476.750000
SMILES=Oc1c(C(=O)Oc2c(O)c(C=O)c(c(C(=O)O)c2C)O)c(C)cc(OC)c1C(=O)O
INCHI=InChI=1S/C19H16O11/c1-6-4-9(29-3)12(18(26)27)15(23)10(6)19(28)30-16-7(2)11(17(24)25)13(21)8(5-20)14(16)22/h4-5,21-23H,1-3H3,(H,24,25)(H,26,27)
INCHIKEY=RNCJCRJLNVRWJX-UHFFFAOYSA-N
CLASS=Depsides (Didepsides)
ADDUCT=[M-H]-
INSTRUMENT=Agilent Q-ToF 6530
PRECURSOR_MZ=419.0635
COMPOUND_NAME=Thamnolic acid
ION_MODE=negative
FORMULA=C19H16O11
121.029495 113347.765625 
137.024673 226319.328125 
139.038498 31920.722656 
149.024063 168995.59375 
193.014359 1574851.125 
194.017822 207746.265625 
211.025177 2284174.5 
211.154068 134398.0625 
212.028336 291706.65625 
271.254395 170.031494 
297.377625 62.1875 
349.525879 78.875 
357.064911 82.833336 
375.069458 1548.342651 
474.393677 95.375 
488.376129 76.041664 
490.05658 121.258064 
530.853577 89.578575 
534.028687 154.934998 
566.17804 93.640152 
579.059753 233.0 
588.495117 203.692627 
591.558044 157.523544 
610.467041 109.59375 
652.119934 86.281975 
694.258362 124.201218 
717.792786 125.641029 
726.036011 145.580643 
729.909302 116.223213 
734.234558 171.641022 
753.197021 91.191177 
786.180664 86.449997 
801.958557 76.644737 
808.920471 80.08654 
828.155029 78.166664 
858.388733 98.259613 
859.600464 70.520836 
876.696411 59.349998 
901.864136 51.339287 
918.23114 80.456818 
927.594116 66.222824 
959.637878 133.764832 
999.431396 87.047623 
999.520081 241.256577 
1002.381287 100.115738 
1032.913208 84.01136 
1054.254517 111.165321 
1074.171997 83.065788 
1075.552612 89.08696 
1101.436768 80.166664 
1101.598999 184.183701 
1126.168335 121.0 
1132.770386 69.881096 
1169.093506 77.008621 
1185.339966 116.040092 
1212.187256 60.173077 
1222.639404 182.414383 
1241.867554 148.004303 
1262.813354 89.639999 
1263.459473 59.694443 
1288.052124 80.227272 
1304.418457 172.629623 
1356.890747 83.440475 
1356.998657 94.889999 
1371.564819 100.421051 
1371.82251 73.08654 
1393.657837 75.165543 
1414.023071 74.284088 
1448.610962 116.41021 
1454.189819 98.801468 
1465.190796 96.603569 
1478.353394 45.81818 
1499.388062 51.200001 
1539.404907 37.782406 
1544.074707 37.923077 
1553.994507 49.112499 
1561.634155 31.086538 
1565.253174 76.5 
1568.324463 47.01923 
1617.543823 51.023937 
1657.687256 52.404999 
1662.504517 62.75 
1666.897339 64.760414 
1685.187744 48.038792 
1690.789062 57.41346 
END IONS

BEGIN IONS
RTINSECONDS=348.325012
CHARGE=1-
MSLEVEL=2
PRECURSORINTENSITY=7173621.000000
SMILES=Oc1c(Oc2cc(OC)cc3c2C(=O)OC3(O)CCCC)c(CCCCC)c(c(c1)O)C(=O)O
INCHI=InChI=1S/C25H30O9/c1-4-6-8-9-15-20(23(28)29)17(26)13-18(27)22(15)33-19-12-14(32-3)11-16-21(19)24(30)34-25(16,31)10-7-5-2/h11-13,26-27,31H,4-10H2,1-3H3,(H,28,29)
INCHIKEY=BWRBGHBJBQFFAW-UHFFFAOYSA-N
CLASS=Diphenylethers
ADDUCT=[M-H]-
INSTRUMENT=Agilent Q-ToF 6530
PRECURSOR_MZ=473.1762
COMPOUND_NAME=Lobariolcarboxylic acid (Lobarin)
ION_MODE=negative
FORMULA=C25H30O9
108.021523 11414.348633 
122.074821 10624.114258 
123.034782 8430.162109 
137.05896 13414.293945 
175.082306 38847.996094 
193.08876 43064.363281 
207.1026 271438.53125 
208.103226 54976.972656 
221.081329 650081.5 
221.972931 161647.5 
239.092407 62050.414062 
251.101776 40574.246094 
296.102905 27475.228516 
297.087585 30284.470703 
312.125519 56818.816406 
327.133606 165651.78125 
328.123016 61145.203125 
383.179565 157355.96875 
385.203491 132174.578125 
411.177917 2256998.25 
412.180756 1312314.375 
413.194794 176677.5625 
455.165344 9116.333008 
532.549255 36.289288 
570.354309 68.845001 
605.424866 50.960526 
616.244873 63.640152 
640.522949 110.256409 
640.717224 89.414215 
644.608521 45.005951 
670.83728 61.284092 
709.422913 57.674999 
713.38269 61.473682 
714.500183 57.066666 
760.519592 49.150002 
771.531372 39.674999 
793.683716 84.432144 
800.618469 63.636364 
829.272461 65.625 
829.891968 57.165539 
855.481384 50.349136 
857.124084 45.0 
891.345886 189.635559 
895.521851 54.102272 
919.887268 23.4 
933.219971 51.246952 
942.86731 23.045 
971.080688 24.222826 
985.962158 56.03846 
994.671936 33.55682 
1005.302917 52.361111 
1015.982849 25.164474 
1036.271729 41.778225 
1072.744263 44.816666 
1073.447021 17.595589 
1106.665649 17.125 
1116.661621 53.166668 
1129.045654 35.150002 
1176.663574 31.004999 
1179.71521 51.183823 
1199.439087 50.280174 
1210.059082 45.11842 
1216.185669 91.011902 
1227.913696 177.270401 
1250.009888 47.076218 
1288.6427 30.13587 
1307.593628 39.333332 
1321.694946 27.291666 
1329.769165 31.408333 
1343.314209 63.521553 
1360.804932 33.272728 
1411.540649 35.291668 
1420.289551 43.444443 
1425.133545 45.107758 
1427.232544 29.694445 
1451.673462 40.5625 
1471.25647 52.375 
1479.052856 128.368896 
1479.257324 46.23077 
1519.185547 63.892857 
1528.887817 32.115742 
1542.0802 34.450001 
1559.578735 27.266304 
1583.86084 34.125 
1600.086182 21.025 
1601.96167 76.615387 
1645.541626 43.388889 
1653.518433 25.041666 
1670.468384 52.645 
1685.206299 39.016666 
1694.158203 131.100616 
END IONS

BEGIN IONS
RTINSECONDS=448.574005
CHARGE=1-
MSLEVEL=2
PRECURSORINTENSITY=7383576.500000
SMILES=CCCCCC1=CC(=O)C=C(OC)C21C(=O)Oc1c2c(c(c(c1)O)C(=O)O)CCCCC
INCHI=InChI=1S/C25H30O7/c1-4-6-8-10-15-12-16(26)13-20(31-3)25(15)22-17(11-9-7-5-2)21(23(28)29)18(27)14-19(22)32-24(25)30/h12-14,27H,4-11H2,1-3H3,(H,28,29)
INCHIKEY=LOGCRVAWKCZXQM-UHFFFAOYSA-N
CLASS=Depsones
ADDUCT=[M-H]-
INSTRUMENT=Agilent Q-ToF 6530
PRECURSOR_MZ=441.187
COMPOUND_NAME=Picrolichenic acid
ION_MODE=negative
FORMULA=C25H30O7
109.028755 14206.875 
122.036919 34990.269531 
205.084457 69573.554688 
218.092606 104151.625 
267.099091 318438.875 
268.104736 160988.15625 
281.114105 277298.375 
282.121368 258584.53125 
283.109802 169673.9375 
338.183411 1074192.625 
339.187012 484619.65625 
382.171295 131372.21875 
397.194641 2360491.5 
398.198608 1175172.375 
399.200256 133677.015625 
520.865173 118.704544 
546.58783 133.736115 
548.20459 152.506195 
576.795349 131.125 
594.389038 181.875 
609.471924 125.08036 
638.071045 267.444733 
795.133667 134.510422 
837.543152 125.132812 
841.213562 267.449127 
875.612366 131.140625 
888.167908 124.155769 
949.300049 118.25 
956.490479 212.25 
1010.404114 137.673615 
1012.741089 187.939514 
1017.851562 245.521545 
1041.800293 133.0625 
1072.359497 140.370377 
1091.896973 121.116806 
1117.644409 125.810974 
1128.224487 159.421051 
1138.066284 132.526642 
1158.418091 121.516129 
1214.615845 142.002197 
1260.480713 178.422363 
1297.938232 145.1875 
1302.017212 134.177628 
1331.321411 136.878052 
1380.129883 159.529495 
1386.832275 132.574997 
1438.706787 162.314285 
1468.410889 126.929878 
1529.232544 155.5 
1662.320557 126.708336 
1680.511597 201.166672 
1686.546387 139.058823 
END IONS

BEGIN IONS
RTINSECONDS=270.802002
CHARGE=1-
MSLEVEL=2
PRECURSORINTENSITY=4209789.500000
SMILES=Cc1cc(=O)c2c(c(C)c(O)cc2O)o1
INCHI=InChI=1S/C11H10O4/c1-5-3-8(13)10-9(14)4-7(12)6(2)11(10)15-5/h3-4,12,14H,1-2H3
INCHIKEY=XSSGQRFNGHRFBC-UHFFFAOYSA-N
CLASS=Chromanes and Chromones
ADDUCT=[M-H]-
INSTRUMENT=Agilent Q-ToF 6530
PRECURSOR_MZ=205.0487
COMPOUND_NAME=Isoeugenitol
ION_MODE=negative
FORMULA=C11H10O4
118.660927 129046.140625 
121.028908 99493.3125 
133.055222 35057.078125 
135.044357 68756.125 
163.039673 136843.09375 
267.301147 111.449997 
292.326477 184.094238 
306.802124 131.625 
334.746552 140.889282 
360.848083 82.556816 
374.245239 116.002777 
387.552612 123.681602 
413.281464 123.040321 
420.317261 129.640961 
423.637726 118.654411 
433.851318 91.145409 
455.034546 143.680237 
490.216003 76.760414 
490.363068 83.670456 
494.02713 112.333336 
520.807617 80.01844 
526.865784 115.349136 
552.079163 155.636368 
555.111206 88.640152 
582.751404 99.617645 
585.108704 82.926285 
587.205933 102.088768 
598.002075 126.382935 
637.219666 86.021225 
644.286926 103.041664 
657.054443 85.409088 
695.817383 92.028847 
707.307617 90.020836 
717.481262 91.054825 
728.134644 127.8125 
729.381958 80.003784 
758.356628 136.390244 
779.553223 81.720589 
783.099304 124.081665 
784.868103 70.779411 
832.015564 80.53125 
848.563538 81.002449 
861.06311 84.23214 
908.428955 83.003784 
921.21344 102.18409 
934.710876 88.387932 
937.831055 93.551468 
968.089233 97.473686 
972.404175 107.001541 
972.729126 78.25 
997.268921 82.157051 
1001.814636 74.224998 
1037.094727 80.894737 
1055.140015 69.023933 
1060.408325 122.53186 
1076.733643 127.965515 
1085.00769 69.102272 
1111.303711 158.891891 
1123.057617 78.532898 
1180.155029 133.959503 
1214.232178 95.074997 
1216.97876 88.444771 
1234.102905 103.308823 
1251.17627 83.239998 
1271.015625 97.001923 
1282.952759 77.360291 
1285.690918 75.025002 
1295.510498 97.625 
1343.196289 77.5625 
1349.160522 69.142242 
1381.694824 74.307693 
1415.811646 82.440216 
1422.850098 74.347221 
1447.362183 84.419777 
1473.451416 106.074997 
1474.68457 161.320648 
1477.465454 62.160713 
1499.482788 74.125 
1526.349121 57.44643 
1532.183228 104.640152 
1532.55481 61.165539 
1577.028076 69.78125 
1584.46167 98.778572 
1605.508789 61.246952 
1607.650391 65.680557 
1628.798584 73.333336 
1669.103638 74.003571 
1677.300415 100.666664 
1683.739868 103.76136 
1688.154541 77.130318 
1692.447021 74.723213 
END IONS

BEGIN IONS
RTINSECONDS=303.171997
CHARGE=1-
MSLEVEL=2
PRECURSORINTENSITY=1797990.875000
SMILES=O=C1c2cc(O)cc(O)c2C(=O)c2c1cc(C(=O)O)cc2O
INCHI=InChI=1S/C15H8O7/c16-6-3-8-12(10(18)4-6)14(20)11-7(13(8)19)1-5(15(21)22)2-9(11)17/h1-4,16-18H,(H,21,22)
INCHIKEY=ZJXVNNSMRGTDBI-UHFFFAOYSA-N
CLASS=Quinones
ADDUCT=[M-H]-
INSTRUMENT=Agilent Q-ToF 6530
PRECURSOR_MZ=299.0118
COMPOUND_NAME=Emodic acid
ION_MODE=negative
FORMULA=C15H8O7
139.054459 4993.943848 
167.049301 16602.628906 
183.043793 30717.425781 
211.038162 145863.828125 
212.041245 26990.931641 
227.033081 86733.4375 
255.028198 178654.078125 
256.032043 34064.660156 
395.451202 130.030411 
398.940918 196.005554 
399.6763 54.939518 
417.340302 52.905487 
435.094116 98.85714 
452.905548 57.520832 
472.680542 96.026161 
474.356049 81.911362 
500.143036 66.01667 
500.384247 65.333336 
513.338745 93.458336 
534.970398 85.315216 
560.448303 173.360077 
572.447693 161.063141 
575.679077 84.142441 
597.083252 74.846153 
622.317627 102.59375 
650.8573 188.072052 
650.950623 69.351746 
658.0271 230.421875 
678.613098 59.18409 
688.471069 57.445 
711.480652 54.138512 
713.160278 63.285713 
748.854797 68.0 
775.801636 51.242645 
793.136902 180.320129 
801.325439 62.009258 
814.373291 52.03846 
824.55426 115.036293 
826.579224 55.521553 
867.608215 101.333336 
882.940674 37.5625 
899.158569 46.224998 
905.122742 67.25 
908.4505 66.191177 
935.933472 58.852272 
953.681091 215.898193 
957.647827 75.387817 
963.663635 69.612503 
1011.379456 94.556816 
1024.50354 61.173782 
1024.563843 61.140625 
1091.960815 55.681602 
1107.964966 52.728447 
1110.231079 71.449997 
1114.647217 59.347221 
1120.267212 53.816666 
1165.874756 47.025002 
1169.872559 72.594391 
1174.137939 101.493851 
1188.731934 63.080128 
1196.112549 73.002121 
1223.317139 60.387821 
1242.283447 59.5 
1248.335815 76.052963 
1249.702148 50.004311 
1263.0448 74.041664 
1299.36792 59.693966 
1310.858765 101.740944 
1313.15271 47.541668 
1317.326904 64.565216 
1337.655884 65.125 
1372.586182 51.235466 
1374.798096 55.671295 
1396.269897 60.315788 
1412.021118 77.0 
1421.121216 90.414215 
1444.094971 101.05896 
1478.761597 66.050003 
1478.893921 64.284088 
1489.87854 56.367424 
1492.642212 74.165695 
1519.427856 88.246948 
1564.038452 69.100807 
1571.092651 75.125 
1574.834961 173.333328 
1602.06311 69.761902 
1605.863159 60.521553 
1628.480225 140.765961 
1666.175903 81.025002 
1679.374512 58.061275 
1679.575562 172.789139 
1690.11499 125.26651 
1697.704956 53.81818 
1697.864014 47.100807 
END IONS

BEGIN IONS
RTINSECONDS=404.747986
CHARGE=1-
MSLEVEL=2
PRECURSORINTENSITY=1357298.000000
SMILES=O=C(OC)/C(=C\1/OC(=O)C(=C1O)c1ccccc1)/c1c(OC)cccc1
INCHI=InChI=1S/C20H16O6/c1-24-14-11-7-6-10-13(14)16(19(22)25-2)18-17(21)15(20(23)26-18)12-8-4-3-5-9-12/h3-11,21H,1-2H3/b18-16+
INCHIKEY=IWYVMUDIEOXASM-FBMGVBCBSA-N
CLASS=Pulvinic Acid Derivatives
ADDUCT=[M-H]-
INSTRUMENT=Agilent Q-ToF 6530
PRECURSOR_MZ=351.0841
COMPOUND_NAME=Leprapinic acid
ION_MODE=negative
FORMULA=C20H16O6
101.039581 26284.166016 
116.985512 160080.25 
118.037788 16364.333008 
132.022537 135795.84375 
133.025223 17511.34375 
191.035141 74458.734375 
193.064926 54755.96875 
205.066986 57026.957031 
233.06012 281626.65625 
234.06517 67805.132812 
263.08139 42946.65625 
264.078186 51493.730469 
279.101929 47140.402344 
291.065887 18955.986328 
292.072632 13001.067383 
439.074219 90.0 
449.77887 85.157051 
458.822144 128.469452 
467.617767 196.71698 
491.507477 68.625 
512.345764 73.959999 
518.262939 75.889282 
543.35614 77.108109 
552.469055 63.349998 
562.537598 69.020836 
594.835999 212.525986 
594.96582 52.291668 
639.746948 49.157051 
650.630676 51.976353 
659.293701 60.266304 
667.669922 53.265625 
699.72052 61.695515 
704.820068 55.28125 
707.968506 66.111366 
720.492676 80.181816 
760.854858 98.07692 
779.600525 60.084461 
788.288818 68.875 
790.793152 172.320755 
798.079224 90.396736 
802.592102 120.025002 
832.80365 80.25 
839.432312 106.34964 
846.74823 79.469444 
853.211426 104.960526 
863.089172 71.556816 
884.801208 70.736115 
913.602844 55.556034 
919.262817 64.041664 
930.287354 55.25 
940.479858 101.59259 
950.979309 58.11842 
991.819763 57.889286 
994.868835 64.560188 
996.747192 268.149689 
1011.553955 58.640152 
1069.700806 65.458336 
1079.908936 59.960526 
1091.089844 63.107758 
1095.909546 76.052963 
1104.874756 128.015625 
1116.071289 84.875 
1151.252441 83.25 
1154.034546 68.905487 
1156.029297 121.022728 
1189.600342 91.63269 
1206.457031 72.199997 
1221.337036 87.00338 
1229.521851 75.14959 
1244.248901 88.469444 
1264.023804 83.404999 
1285.742798 66.111115 
1288.103271 82.002777 
1308.756348 77.657608 
1340.084106 89.820457 
1340.847656 88.816666 
1345.074097 114.284088 
1359.073853 142.201187 
1364.977905 151.669113 
1414.415527 52.215427 
1425.285767 74.003571 
1463.848389 73.78125 
1469.855957 115.907257 
1469.955444 78.603569 
1479.872681 66.177635 
1502.502686 55.132355 
1533.114868 63.889153 
1564.714233 62.727272 
1571.30957 54.75 
1586.935425 77.559998 
1596.738892 56.67857 
1601.223389 92.449997 
1629.868042 79.905487 
1652.421875 70.14286 
1652.748047 54.671295 
1678.522217 73.979652 
1681.790161 58.857143 
1686.453491 49.5625 
END IONS

BEGIN IONS
RTINSECONDS=436.347992
CHARGE=1-
MSLEVEL=2
PRECURSORINTENSITY=315706.468750
SMILES=Oc1c2c(oc3c(c(C)cc(O)c3Cl)c2=O)c(Cl)c(OC)c1Cl
INCHI=InChI=1S/C15H9Cl3O5/c1-4-3-5(19)8(16)13-6(4)11(20)7-12(21)9(17)15(22-2)10(18)14(7)23-13/h3,19,21H,1-2H3
INCHIKEY=SWYXXNJANIXCRQ-UHFFFAOYSA-N
CLASS=Xanthones and bis-Xanthones
ADDUCT=[M-H]-
INSTRUMENT=Agilent Q-ToF 6530
PRECURSOR_MZ=372.9416
COMPOUND_NAME=Thuringione
ION_MODE=negative
FORMULA=C15H9Cl3O5
100.126076 98.206635 
104.075897 258.450684 
139.974457 1201.242676 
163.101379 3205.624512 
165.084641 733.038513 
174.040985 1545.172119 
201.980515 4178.405273 
229.983917 3476.636719 
237.955963 4296.637207 
265.963989 11413.289062 
267.948303 5180.629395 
429.402802 63.256355 
466.911285 58.190475 
472.09198 83.80278 
491.845642 48.165539 
525.962158 122.008331 
526.801636 71.045456 
542.38916 77.165321 
547.25415 67.047623 
556.090942 53.012501 
592.649109 124.0 
639.89917 114.816864 
647.846924 49.204544 
659.70282 59.200001 
663.962891 70.800003 
668.708801 60.0 
676.668579 65.10041 
702.490356 132.938889 
713.357727 50.100807 
719.538696 43.875 
744.764709 112.183823 
771.223267 53.445 
773.057922 72.570656 
774.944153 52.0 
799.702759 49.30682 
807.991089 83.708336 
836.866089 44.333332 
840.839722 43.01923 
870.926697 83.333336 
882.134644 54.18182 
898.084473 64.315216 
902.183838 78.820457 
908.894897 90.283447 
958.950012 48.016666 
965.987061 74.778847 
970.128357 124.022057 
970.244873 52.044998 
990.325562 57.125 
1020.01416 58.066666 
1024.617432 48.612499 
1026.678223 57.247952 
1035.115479 51.222221 
1058.141846 46.1875 
1081.374023 37.125 
1084.411255 45.044998 
1112.61792 65.100609 
1135.205566 56.30682 
1148.341919 45.160713 
1161.491699 35.360294 
1185.705933 59.882355 
1214.250977 51.349491 
1226.097656 132.094238 
1226.20874 39.0 
1236.642822 36.349136 
1244.900024 46.889286 
1247.370117 68.0 
1288.288696 43.083332 
1300.396118 98.802635 
1302.081543 145.53125 
1346.455811 66.148811 
1363.861206 81.3629 
1390.468262 59.172871 
1390.716675 54.645 
1393.657349 77.737244 
1402.057373 54.284092 
1452.146851 125.697784 
1469.161133 63.890625 
1484.963745 61.136364 
1488.794189 60.89352 
1541.102295 47.595589 
1545.649414 67.26667 
1548.869141 88.680557 
1550.672241 71.375 
1592.64563 54.211208 
1615.113281 46.674999 
1639.630493 61.017857 
1670.571655 59.431122 
1678.464722 66.034088 
1689.738159 57.432144 
1690.522339 44.642857 
1691.569824 56.094696 
1695.724487 57.929878 
END IONS

BEGIN IONS
RTINSECONDS=485.858002
CHARGE=1-
MSLEVEL=2
PRECURSORINTENSITY=89092.968750
SMILES=O=C(O)C[C@@H]([C@H](CCCCCCCCCCCCCC)C(=O)O)C(=O)OC
INCHI=InChI=1S/C21H38O6/c1-3-4-5-6-7-8-9-10-11-12-13-14-15-17(20(24)25)18(16-19(22)23)21(26)27-2/h17-18H,3-16H2,1-2H3,(H,22,23)(H,24,25)/t17-,18-/m0/s1
INCHIKEY=MZWQZYDNVSKPPF-ROUUACIJSA-N
CLASS=Acids
ADDUCT=[M-H]-
INSTRUMENT=Agilent Q-ToF 6530
PRECURSOR_MZ=385.2507
COMPOUND_NAME=Isorangiformic acid
ION_MODE=negative
FORMULA=C21H38O6
112.018051 208.221329 
112.9842 91.802635 
115.021072 97.307693 
124.0177 382.886597 
125.014183 126.690002 
129.062592 113.34259 
199.854248 187.507812 
255.232986 734.875 
265.251465 15710.957031 
266.255402 4179.126953 
267.259125 804.096313 
293.208252 1958.699219 
294.215912 997.347839 
309.253906 1355.001221 
353.229309 32242.912109 
354.235413 10948.384766 
355.233704 964.571411 
442.726929 79.470741 
443.464996 33.900002 
452.172699 59.004032 
453.815765 92.80278 
484.574341 48.657608 
497.232025 59.363636 
512.922607 46.222828 
533.995972 77.78125 
546.266785 64.900864 
550.415649 108.75 
566.362732 66.013885 
570.777832 99.210526 
602.84375 75.010872 
608.22522 60.882355 
629.506714 81.367424 
638.016785 98.787163 
639.013916 53.080883 
702.050171 78.510414 
708.215515 55.375 
712.62439 106.0 
716.057007 55.339287 
745.474243 82.769234 
768.952454 67.574997 
770.048462 84.398582 
780.932129 201.227112 
795.955078 133.864731 
803.185242 70.444771 
821.04541 72.462837 
830.782837 86.556816 
864.977234 65.680557 
866.189941 63.308674 
895.290894 41.440216 
900.172302 106.778847 
918.458618 38.005951 
922.098328 87.004036 
930.786438 102.708336 
946.280334 49.692307 
977.280945 40.642857 
1000.788208 46.440216 
1022.57251 44.244999 
1032.421265 61.285713 
1037.973389 37.094696 
1045.083252 92.056816 
1104.491089 34.307693 
1114.982788 41.150002 
1115.547241 27.445 
1132.327759 39.450001 
1168.34314 60.038792 
1191.799683 91.321426 
1203.415161 78.654068 
1203.682007 31.969828 
1241.596924 32.059212 
1245.164551 37.055557 
1279.890503 36.059212 
1283.486572 34.191177 
1307.947266 58.625 
1313.213623 31.961956 
1357.59668 37.125 
1363.204834 43.625 
1376.006836 34.111111 
1385.596191 48.721153 
1387.674561 71.644997 
1393.131226 47.455647 
1447.795654 25.022728 
1455.322021 48.969826 
1465.416138 43.599998 
1469.184204 37.208332 
1516.523804 94.612289 
1524.845947 44.240383 
1539.611328 52.013889 
1558.960571 51.882355 
1583.261719 39.326923 
1598.032715 44.693966 
1624.53418 62.014706 
1654.82251 102.675003 
1662.077759 45.625 
1676.080933 42.094696 
1684.538452 31.595589 
1688.837158 41.640152 
END IONS

BEGIN IONS
RTINSECONDS=397.43399
CHARGE=1-
MSLEVEL=2
PRECURSORINTENSITY=697816.562500
SMILES=O=C1c2c(CC(=O)CCCCC)cc(O)c(O)c2Oc2c(O1)cc(c(c2CCCCC)C(=O)O)O
INCHI=InChI=1S/C26H30O9/c1-3-5-7-9-15(27)11-14-12-18(29)22(30)24-20(14)26(33)34-19-13-17(28)21(25(31)32)16(23(19)35-24)10-8-6-4-2/h12-13,28-30H,3-11H2,1-2H3,(H,31,32)
INCHIKEY=BQHHNAPTXQOPBW-UHFFFAOYSA-N
CLASS=Depsidones
ADDUCT=[M-H]-
INSTRUMENT=Agilent Q-ToF 6530
PRECURSOR_MZ=485.1762
COMPOUND_NAME=3-Hydroxyphysodic acid
ION_MODE=negative
FORMULA=C26H30O9
109.009003 10831.605469 
137.023666 35604.695312 
137.098053 10828.614258 
137.817947 6583.029785 
179.108231 19734.546875 
205.085846 11593.665039 
207.100418 19191.054688 
233.078873 14177.03418 
235.0952 30315.521484 
236.099808 10534.230469 
261.07486 10250.439453 
277.106384 7843.689453 
300.10318 8945.22168 
301.103302 7577.312012 
324.09903 4274.746582 
373.19696 6524.562988 
399.177856 22417.908203 
400.181183 14646.022461 
423.176422 7320.647461 
424.180847 6357.696289 
441.188873 30806.230469 
442.192566 22768.074219 
562.591797 67.084015 
562.919556 74.592216 
600.385925 72.013885 
625.477417 150.605774 
627.926453 131.801666 
631.583191 92.78125 
631.989136 114.08036 
654.726074 71.59375 
679.59021 67.022057 
692.060791 105.199997 
725.97168 72.022728 
736.859802 87.049606 
755.920654 77.01667 
762.562927 84.045212 
785.527466 81.160088 
805.476929 203.125 
829.026428 145.005676 
841.03894 60.285713 
863.39386 73.625 
884.656189 154.001312 
918.463989 59.694443 
930.425964 49.976353 
955.050903 57.337963 
965.533875 53.280174 
972.698608 88.625 
983.947021 77.198532 
1002.343994 78.012497 
1047.035645 105.051231 
1051.969849 62.388889 
1059.410156 64.245689 
1073.819336 57.052631 
1077.25354 46.266666 
1100.55542 98.384094 
1132.272705 50.449074 
1158.566528 58.003204 
1169.72522 56.375 
1174.533813 60.040092 
1197.045654 77.002548 
1200.995361 87.028572 
1223.336182 107.0 
1224.900513 80.041664 
1225.007935 101.787163 
1225.494751 117.231483 
1257.279907 130.219208 
1278.077515 104.125 
1340.644531 54.599998 
1364.358643 61.679054 
1367.060425 54.901318 
1415.294556 48.25 
1415.86438 86.761902 
1453.489136 91.727272 
1477.580444 47.125 
1491.796631 47.782406 
1504.349731 56.224998 
1509.415771 59.038792 
1509.629639 166.001617 
1543.569702 49.375 
1560.847168 54.005001 
1561.60022 61.961956 
1630.751831 45.066666 
1635.139282 108.689651 
1637.22876 46.041668 
1640.734131 92.204544 
1668.482788 43.889706 
1673.572632 44.645 
1691.501221 43.625 
END IONS

BEGIN IONS
RTINSECONDS=235.792007
CHARGE=1-
MSLEVEL=2
PRECURSORINTENSITY=101110.789062
SMILES=Cc1cc(=O)c2c(cc3c(C(=CC(=O)C3=O)OC)c2OC)o1
INCHI=InChI=1S/C16H12O6/c1-7-4-9(17)14-12(22-7)5-8-13(16(14)21-3)11(20-2)6-10(18)15(8)19/h4-6H,1-3H3
INCHIKEY=GESAVORGYOGKOW-UHFFFAOYSA-N
CLASS=Quinones
ADDUCT=[M-H]-
INSTRUMENT=Agilent Q-ToF 6530
PRECURSOR_MZ=299.05
COMPOUND_NAME=Canarione dimethylether
ION_MODE=negative
FORMULA=C16H12O6
112.997925 1650.16687 
158.016129 1500.000854 
170.033875 2210.758789 
174.037094 5733.041992 
198.0327 3026.192139 
214.043808 5965.523438 
227.032471 6229.945801 
242.023041 15600.538086 
255.029358 3677.025635 
366.270721 57.083332 
369.250519 46.482143 
374.837952 63.432144 
403.168457 119.401924 
432.524933 31.6 
437.27771 34.5 
451.398651 40.004032 
468.43457 48.349998 
480.682007 87.30616 
487.984497 41.450001 
500.605743 108.2192 
522.307373 71.165543 
546.790161 31.226852 
555.832642 49.004311 
566.502991 54.017857 
593.738586 37.035713 
599.031738 33.520832 
632.40918 33.066666 
638.328125 35.482143 
645.761169 39.875 
659.39209 85.490387 
682.95459 86.777985 
718.573975 38.408333 
726.849976 44.173077 
736.374512 72.722221 
736.425476 53.0 
736.513428 73.578949 
799.183655 45.285713 
800.042358 50.680557 
830.060181 78.263161 
838.266541 45.066177 
847.023682 66.520164 
865.520447 45.142857 
906.789124 48.625 
907.919922 166.885864 
915.604431 50.482143 
930.929138 56.692307 
958.230469 40.205002 
980.316589 58.032143 
999.813782 74.01136 
1000.902344 55.013889 
1013.987305 36.244999 
1018.6073 50.880436 
1078.919189 56.80357 
1085.529297 28.0 
1085.957275 85.071426 
1107.471313 44.787163 
1132.790161 37.845001 
1138.307861 45.25 
1141.61084 59.00338 
1159.378418 40.349136 
1206.867798 63.010418 
1212.822388 54.222828 
1235.552734 26.363636 
1257.734497 59.035713 
1261.653809 56.266666 
1309.328979 111.044014 
1309.402466 46.520832 
1312.264038 47.308823 
1324.968018 58.055557 
1359.037842 50.666668 
1373.987061 43.005951 
1391.242554 28.226852 
1416.514526 30.446428 
1427.048462 29.205 
1471.577515 19.875 
1472.053223 25.367647 
1488.604736 77.727272 
1534.733643 30.471153 
1550.243286 32.004032 
1555.052856 33.599998 
1560.32251 58.240383 
1620.213989 41.191177 
1625.40332 45.047619 
1629.637207 55.055557 
1649.624023 36.125 
1653.769531 28.076923 
1684.405029 19.1875 
1695.64563 31.076923 
END IONS

BEGIN IONS
RTINSECONDS=347.75
CHARGE=1-
MSLEVEL=2
PRECURSORINTENSITY=289098.218750
SMILES=c1ccc(cc1)C1=C(C(=O)C(=C(C1=O)O)c1ccccc1)O
INCHI=InChI=1S/C18H12O4/c19-15-13(11-7-3-1-4-8-11)16(20)18(22)14(17(15)21)12-9-5-2-6-10-12/h1-10,19,22H
INCHIKEY=HZKFHDXTSAYOSN-UHFFFAOYSA-N
CLASS=Quinones
ADDUCT=[M-H]-
INSTRUMENT=Agilent Q-ToF 6530
PRECURSOR_MZ=291.0641
COMPOUND_NAME=Polyporic acid
ION_MODE=negative
FORMULA=C18H12O4
101.335159 4559.454102 
102.07737 550.467224 
117.034065 106239.398438 
117.805405 11101.966797 
118.360535 441.431152 
125.03849 499.02124 
173.171936 1572.431152 
190.079773 1749.359985 
191.085876 11132.456055 
192.08847 2676.940918 
234.069138 6878.293457 
247.059631 1787.602051 
263.071014 70901.367188 
264.074127 15324.40625 
318.627075 226.290817 
407.080872 63.052631 
415.802734 85.420456 
435.415344 106.61731 
441.272369 94.848076 
441.71402 123.3125 
454.31366 78.164474 
475.170563 100.727943 
514.384644 76.18409 
523.191528 71.263161 
533.523071 47.099998 
543.942871 50.875 
567.639893 59.265625 
572.775391 114.111488 
617.782593 56.521553 
636.577698 146.958328 
648.430298 71.003571 
651.576294 48.100807 
671.924316 90.578949 
681.801819 60.36842 
711.502869 70.222565 
713.893066 97.571426 
777.646973 56.692307 
779.315063 51.560184 
798.504761 51.1875 
801.000427 51.625 
810.916199 61.094696 
841.647522 62.363636 
854.02655 42.075001 
865.135986 81.721153 
895.269775 35.796051 
904.268799 78.284088 
927.605103 68.0 
938.253052 73.85714 
950.039001 49.197582 
995.783142 87.637192 
1003.207642 44.595589 
1011.439087 73.5 
1016.223572 46.322369 
1052.730835 62.125 
1058.378296 43.076218 
1068.155151 76.138512 
1070.86084 77.297623 
1112.737793 61.017857 
1115.692627 56.206635 
1122.31311 152.01355 
1125.985352 38.520161 
1163.075439 61.455647 
1182.178833 48.532894 
1188.359985 58.0 
1201.538086 76.19104 
1206.918457 97.653984 
1217.893066 46.086956 
1274.272095 68.034088 
1274.51123 44.017857 
1282.956909 92.284088 
1286.794312 69.005951 
1332.953979 71.111366 
1343.570557 61.026161 
1343.959106 37.91848 
1399.62207 55.015625 
1406.299072 53.0 
1407.733154 45.625 
1410.131836 50.112499 
1431.068237 51.03125 
1449.608887 50.083332 
1466.325195 47.190475 
1478.347168 40.5625 
1519.530762 82.615387 
1535.971069 34.148811 
1571.010376 47.008335 
1571.745972 51.0 
1572.093994 92.020454 
1616.361816 62.431122 
1620.908203 60.01923 
1640.931763 44.160713 
1645.196045 44.0 
1669.567749 77.551468 
1677.921875 35.605 
1687.685669 46.78125 
1692.624268 40.81818 
END IONS

BEGIN IONS
RTINSECONDS=436.843994
CHARGE=1-
MSLEVEL=2
PRECURSORINTENSITY=6059971.000000
SMILES=CCCCCc1cc(cc(c1C(=O)Oc1cc(c(c(c1)CCCCC)C(=O)O)O)O)O
INCHI=InChI=1S/C24H30O7/c1-3-5-7-9-15-11-17(25)13-19(26)22(15)24(30)31-18-12-16(10-8-6-4-2)21(23(28)29)20(27)14-18/h11-14,25-27H,3-10H2,1-2H3,(H,28,29)
INCHIKEY=BEFYPHLCGVCBFF-UHFFFAOYSA-N
CLASS=Depsides (Didepsides)
ADDUCT=[M-H]-
INSTRUMENT=Agilent Q-ToF 6530
PRECURSOR_MZ=429.1864
COMPOUND_NAME=Anziaic acid
ION_MODE=negative
FORMULA=C24H30O7
122.035629 25424.884766 
135.117386 184776.171875 
137.119034 276357.34375 
161.096832 126890.96875 
179.107559 2223648.0 
180.11055 394133.90625 
205.086746 626971.3125 
223.097321 3102031.75 
223.229279 189616.71875 
224.100739 593632.9375 
283.130737 1286.42627 
284.139313 592.766907 
299.19989 1184.222778 
300.202148 492.50647 
341.211914 12363.243164 
342.215973 4409.998535 
367.192932 505.726654 
397.203369 432.654419 
509.441071 75.666664 
538.86908 45.013157 
553.91571 62.022961 
562.82782 64.675003 
585.944275 64.069443 
593.388977 47.24662 
607.962402 47.125 
639.475403 49.367645 
655.94989 70.011902 
662.384094 52.368904 
682.638794 54.04348 
693.569153 77.145409 
714.792542 38.027779 
736.282227 48.55682 
757.466736 77.01667 
777.811707 57.028847 
831.751343 55.727272 
842.312622 81.222565 
844.209534 77.6875 
851.823792 79.0 
885.318665 58.889286 
899.15033 117.789474 
910.166626 52.117645 
934.638855 120.816666 
937.234375 73.281975 
958.068909 67.681816 
963.318176 102.368423 
975.783508 84.722221 
1016.712158 62.841217 
1031.800659 67.09375 
1036.133545 55.0625 
1060.848633 50.375 
1064.078735 84.820457 
1109.529907 64.416664 
1124.863281 61.440216 
1145.534546 54.25 
1147.953613 59.191177 
1159.130981 91.520271 
1162.72876 54.907257 
1202.321045 68.223686 
1202.568726 36.117645 
1254.699585 71.100609 
1263.18335 62.041668 
1273.560059 56.11842 
1279.14502 54.084461 
1293.201416 58.223682 
1341.641113 110.181816 
1365.68811 58.5 
1374.080688 59.669445 
1423.079224 39.375 
1423.529175 51.490383 
1444.66272 42.089287 
1468.850708 68.670456 
1473.904785 55.066666 
1475.030762 53.030407 
1476.385132 38.022728 
1485.730103 39.041668 
1544.980225 187.529495 
1571.491211 40.099998 
1583.812866 42.020832 
1588.771118 57.521553 
1589.111084 44.625 
1597.612549 62.720589 
1643.111938 54.480263 
1652.241455 90.757812 
1660.946533 48.666668 
1680.870972 62.142441 
1694.062622 50.266304 
1698.027588 67.100609 
END IONS

BEGIN IONS
RTINSECONDS=28.222
CHARGE=1-
MSLEVEL=2
PRECURSORINTENSITY=81745.250000
SMILES=COC1=C(NC(CO)CCC(=O)O)CC(CO)(O)CC1=O
INCHI=InChI=1S/C13H21NO7/c1-21-12-9(4-13(20,7-16)5-10(12)17)14-8(6-15)2-3-11(18)19/h8,14-16,20H,2-7H2,1H3,(H,18,19)
INCHIKEY=AOLLRBVQJZTTPF-UHFFFAOYSA-N
CLASS=Mycosporines
ADDUCT=[M-H]-
INSTRUMENT=Agilent Q-ToF 6530
PRECURSOR_MZ=302.127
COMPOUND_NAME=Mycosporine glutamicol
ION_MODE=negative
FORMULA=C13H21NO7
100.092758 458.444672 
112.059486 401.074066 
153.052704 4109.125488 
172.092026 1472.882812 
178.050659 855.756226 
194.082611 1868.656372 
202.10498 974.379211 
207.131424 1493.235229 
234.135681 910.3255 
251.025085 2606.388672 
252.105469 709.082703 
284.112488 1268.554443 
346.030823 128.413467 
363.69693 77.800003 
380.899078 66.778847 
403.021423 57.157051 
434.462616 63.852272 
443.878906 95.719337 
449.374023 41.0 
475.889008 38.778225 
499.618256 59.007355 
511.033173 45.75 
545.566895 55.48077 
545.684814 171.117645 
545.762024 61.0 
546.494263 49.882355 
569.244019 90.157051 
607.224976 40.654411 
624.471741 81.784088 
631.855713 39.05357 
632.7854 43.56818 
638.678711 49.5625 
677.723877 52.462837 
691.350342 64.416664 
738.815186 50.191177 
741.018799 66.04348 
745.333374 58.625 
766.258301 47.289288 
779.133789 106.33532 
783.443237 81.485291 
829.180542 31.728449 
843.712952 86.015625 
851.403564 52.680557 
855.591553 45.900864 
883.654907 50.259617 
910.984924 46.008335 
913.484985 68.367424 
933.445923 48.6875 
940.678711 51.183823 
959.830017 39.058823 
988.383972 142.688889 
1025.133911 61.400002 
1032.934692 36.004311 
1038.68335 41.339287 
1050.842285 98.088768 
1071.827026 47.76923 
1092.147339 66.111839 
1130.110352 39.57143 
1140.732544 48.75 
1143.104004 110.125 
1143.189453 42.32143 
1212.486816 45.644737 
1217.789185 51.880436 
1229.398682 48.375 
1236.651978 47.016666 
1237.144775 53.244999 
1259.718506 105.314285 
1319.262573 34.361111 
1332.501465 42.337963 
1332.905518 49.328949 
1337.03479 39.25 
1353.362061 37.326614 
1391.346924 33.400002 
1392.740234 33.011364 
1402.985596 43.190475 
1437.958496 111.71627 
1445.981445 65.014709 
1446.580078 55.565216 
1455.408203 49.25 
1498.192993 129.247955 
1499.031494 109.556816 
1511.755615 41.408783 
1564.642456 33.183823 
1566.463989 34.016666 
1572.627197 54.489864 
1584.932129 67.556816 
1591.346802 39.224998 
1633.08252 33.6875 
1652.625732 38.25 
1655.035034 43.532894 
1669.7229 96.84375 
1686.124634 44.78125 
1686.451904 33.969826 
1686.59668 23.4 
END IONS

BEGIN IONS
RTINSECONDS=403.084991
CHARGE=1-
MSLEVEL=2
PRECURSORINTENSITY=1985817.750000
SMILES=O=C1c2c(C)c(Cl)c(O)c(Cl)c2Oc2c(O1)c(c(c(c2C)C(=O)OC)O)C
INCHI=InChI=1S/C18H14Cl2O7/c1-5-9-16(11(20)13(22)10(5)19)26-14-6(2)8(17(23)25-4)12(21)7(3)15(14)27-18(9)24/h21-22H,1-4H3
INCHIKEY=RCLFRVZNHRFQGE-UHFFFAOYSA-N
CLASS=Depsidones
ADDUCT=[M-H]-
INSTRUMENT=Agilent Q-ToF 6530
PRECURSOR_MZ=411.0021
COMPOUND_NAME=Leoidin
ION_MODE=negative
FORMULA=C18H14Cl2O7
117.035316 262.512604 
151.044952 1643.578979 
172.955719 4628.547852 
174.993896 2039.982544 
179.04953 5642.472168 
207.045898 8084.043457 
243.021835 13913.90625 
279.000366 23338.931641 
296.971924 117789.84375 
298.970154 62985.519531 
306.991913 73384.101562 
334.98764 509361.0 
335.99057 125077.703125 
336.984741 272395.96875 
485.424561 93.625 
487.020447 110.906746 
495.448486 166.5 
519.286743 124.28125 
523.860962 122.111115 
540.569458 95.049416 
563.335327 87.013885 
614.934204 95.165543 
620.478577 93.25 
643.479126 121.03125 
654.270752 252.214691 
659.601135 92.007576 
677.205322 100.019737 
726.632263 135.320648 
733.628601 104.224998 
736.952881 78.132248 
741.968506 86.044014 
786.012207 93.844299 
787.579895 115.0 
788.339539 127.284485 
815.928406 102.045288 
853.345093 83.242645 
855.364258 93.245689 
857.036926 91.045288 
865.760315 64.1875 
874.358459 63.976353 
923.367554 73.125 
939.6828 64.573982 
955.716003 64.395164 
963.049072 128.008331 
966.61792 77.556038 
1005.958557 69.185608 
1016.011536 78.537788 
1028.329102 158.07692 
1079.145874 119.336113 
1083.726318 78.310349 
1085.621094 84.391304 
1092.301025 121.555855 
1101.616333 98.333336 
1123.249512 100.469444 
1163.336426 92.625 
1179.744385 78.083336 
1181.440918 106.555855 
1192.343384 102.635201 
1196.438232 73.859695 
1222.359619 71.408333 
1263.574341 80.235466 
1272.958008 113.640961 
1276.220947 89.457146 
1294.282471 129.199997 
1297.609863 134.007568 
1309.157349 123.422226 
1351.111206 79.141304 
1360.218384 139.682693 
1372.01709 75.493423 
1420.780518 89.737244 
1433.275391 80.515625 
1437.873047 104.444443 
1459.60022 83.939514 
1475.240845 117.25 
1478.783081 127.03846 
1483.554199 83.125 
1524.96167 101.5 
1539.286865 68.041664 
1574.720947 93.400002 
1577.719116 130.755142 
1586.211182 247.82692 
1594.982788 114.526642 
1603.174561 145.734756 
1631.955322 84.315788 
1633.835205 81.004997 
1672.778931 67.025002 
END IONS

BEGIN IONS
RTINSECONDS=270.813995
CHARGE=1-
MSLEVEL=2
PRECURSORINTENSITY=2995247.250000
SMILES=O=C1c2c(C)cc(O)c(C=O)c2Oc2c(O1)c(c(c1c2C(O)OC1=O)O)CO
INCHI=InChI=1S/C18H12O10/c1-5-2-8(21)6(3-19)13-9(5)16(23)27-14-7(4-20)12(22)10-11(15(14)26-13)18(25)28-17(10)24/h2-3,18,20-22,25H,4H2,1H3
INCHIKEY=QQTKVXCQLZIJPP-UHFFFAOYSA-N
CLASS=Depsidones
ADDUCT=[M-H]-
INSTRUMENT=Agilent Q-ToF 6530
PRECURSOR_MZ=387.0283
COMPOUND_NAME=Salazinic acid
ION_MODE=negative
FORMULA=C18H12O10
121.028976 118498.960938 
123.034409 18560.050781 
135.008041 30245.869141 
151.039047 69920.039062 
187.040207 31995.011719 
213.05304 41066.6875 
225.052841 81522.132812 
227.032776 175895.671875 
241.047394 110731.273438 
243.027786 162216.65625 
269.042297 201354.78125 
270.045349 53206.882812 
299.049164 48558.679688 
325.040222 68216.773438 
343.038574 756036.9375 
344.042084 202444.375 
464.845276 117.189392 
465.188171 135.78125 
469.636566 151.682693 
492.807861 107.041664 
514.972107 102.230766 
515.710266 117.720238 
537.797729 106.266304 
585.56366 110.375 
596.557556 105.23214 
601.571045 123.08036 
608.557678 113.958336 
622.46875 105.25 
633.309448 182.56514 
677.11322 98.107758 
687.646667 104.125 
710.090332 104.939392 
717.24884 120.248291 
719.527527 125.404854 
735.281067 109.510246 
770.350647 100.001663 
772.20752 97.964287 
801.546997 147.73558 
815.263977 120.125 
840.836304 119.0 
845.269226 112.30616 
853.475037 104.347221 
874.706177 119.054825 
883.228821 111.0 
916.657654 105.0 
931.658569 107.737244 
951.59845 97.917557 
957.773438 170.022217 
960.293213 107.224998 
974.269958 115.735001 
997.87439 96.573982 
1067.600098 82.939514 
1081.121216 91.727272 
1088.072388 88.537788 
1089.782593 129.322586 
1094.008545 124.385277 
1117.959229 93.355766 
1148.407471 99.153847 
1153.735718 95.375 
1170.651367 103.444672 
1205.811279 146.364899 
1215.486206 107.300003 
1230.119019 154.362946 
1269.21521 85.245003 
1284.552124 116.129036 
1303.139282 189.048996 
1347.184204 160.410217 
1356.413086 111.240082 
1359.013062 101.398582 
1361.484009 108.242645 
1367.097168 117.510414 
1413.40625 93.556816 
1420.422485 100.60714 
1428.810181 96.406914 
1449.390259 126.0 
1452.876831 92.404999 
1482.273315 90.920456 
1486.880981 107.333336 
1516.604248 94.210526 
1518.748901 102.133331 
1544.749878 113.8125 
1548.543945 129.0 
1554.535034 112.432144 
1570.061523 133.086868 
1571.805664 120.125 
1577.98938 132.066483 
1610.187134 102.51136 
1634.917725 98.448273 
1652.444946 91.055557 
1669.969482 132.34259 
1687.164307 122.735291 
1688.459717 80.900002 
END IONS

BEGIN IONS
RTINSECONDS=285.277008
CHARGE=1-
MSLEVEL=2
PRECURSORINTENSITY=42896.453125
SMILES=Cc1cc(c2c(c1O)C(=O)c1cc(cc(c1C2=O)O)OC)O
INCHI=InChI=1S/C16H12O6/c1-6-3-9(17)12-13(14(6)19)15(20)8-4-7(22-2)5-10(18)11(8)16(12)21/h3-5,17-19H,1-2H3
INCHIKEY=VUUONEBXXLQCQX-UHFFFAOYSA-N
CLASS=Quinones
ADDUCT=[M-H]-
INSTRUMENT=Agilent Q-ToF 6530
PRECURSOR_MZ=299.05
COMPOUND_NAME=Erythroglaucin
ION_MODE=negative
FORMULA=C16H12O6
113.06601 65.693962 
122.264885 54.232143 
136.809601 75.223686 
141.518005 95.08654 
174.043808 77.012497 
183.045792 111.666664 
197.062332 111.938828 
199.053848 101.074997 
226.034149 119.333336 
253.092056 221.391129 
255.056885 125.272728 
281.109833 91.008331 
333.69632 54.512501 
355.450226 44.099998 
377.892914 43.680557 
379.710205 58.224998 
408.165039 36.125 
415.166412 39.765625 
445.304138 33.185608 
458.095367 32.208332 
458.379395 42.240383 
475.37973 34.875 
486.132111 26.0 
503.11377 26.321428 
545.001709 28.778847 
586.370483 22.666666 
590.921814 50.0625 
615.821472 48.028847 
621.545227 55.30682 
638.141663 113.402779 
668.215576 38.53125 
672.543091 64.784088 
692.185852 31.011364 
702.101013 43.0 
725.107788 82.33532 
750.368591 84.416664 
764.617371 39.036289 
767.605896 42.728447 
777.858887 46.6875 
800.927307 51.685974 
823.861755 29.25 
837.768372 56.400002 
873.522766 30.796053 
875.9729 87.297623 
880.24884 61.575001 
892.308411 55.347221 
906.476196 46.32143 
927.870728 56.117645 
954.174255 44.25 
954.946167 46.219593 
971.166077 69.573982 
971.98761 39.11842 
1014.890869 47.107758 
1040.90625 38.694443 
1051.325806 32.142857 
1066.430908 34.090908 
1072.380371 33.57143 
1086.95813 49.6875 
1119.791992 33.782406 
1129.520752 38.007355 
1140.490601 22.0 
1156.578491 24.25 
1161.08252 23.568182 
1162.425903 52.041668 
1235.639893 61.398586 
1247.9104 44.642857 
1248.53186 53.765625 
1248.592163 36.284092 
1258.125977 40.315788 
1276.494751 75.693962 
1316.886108 40.245689 
1321.877686 51.875 
1336.161865 48.75 
1360.374268 39.013889 
1366.953735 23.694445 
1404.469238 21.03125 
1427.244019 48.076923 
1430.056396 30.025 
1442.529907 100.533333 
1466.622559 27.0 
1479.685059 23.041666 
1500.355103 59.119186 
1501.565918 20.568182 
1522.687988 43.81686 
1535.291748 23.13587 
1586.424561 65.760132 
1587.956543 50.520161 
1594.619385 19.440218 
1612.861084 21.450001 
1629.951538 30.11574 
1650.851562 21.444445 
1660.192749 25.0 
1678.130493 22.166666 
1695.205811 21.245001 
1697.557983 21.020834 
END IONS

BEGIN IONS
RTINSECONDS=347.675995
CHARGE=1-
MSLEVEL=2
PRECURSORINTENSITY=2324062.000000
SMILES=Oc1c(C(=O)Oc2cc(C)c(c(O)c2C)C(=O)O)c(C)cc(OC)c1C(=O)O
INCHI=InChI=1S/C19H18O9/c1-7-5-10(9(3)15(20)12(7)17(22)23)28-19(26)13-8(2)6-11(27-4)14(16(13)21)18(24)25/h5-6,20-21H,1-4H3,(H,22,23)(H,24,25)
INCHIKEY=WCWYEXBIRSSVGF-UHFFFAOYSA-N
CLASS=Depsides (Didepsides)
ADDUCT=[M-H]-
INSTRUMENT=Agilent Q-ToF 6530
PRECURSOR_MZ=389.0783
COMPOUND_NAME=Squamatic acid
ION_MODE=negative
FORMULA=C19H18O9
119.049942 221143.78125 
122.03643 41583.152344 
137.060211 217041.421875 
163.039398 550263.8125 
164.042526 66214.164062 
181.050049 1086222.25 
182.053131 134486.828125 
225.040451 661138.9375 
226.070831 86428.320312 
227.049286 6943.643555 
283.092712 2467.360352 
284.097382 979.668396 
301.105652 1039.059448 
327.0849 10970.641602 
328.088562 2812.552734 
345.092896 32710.976562 
346.09848 8809.751953 
470.931091 110.043106 
498.338287 128.151123 
502.077545 204.309067 
521.942627 82.07692 
539.823425 119.558823 
561.650208 105.057693 
581.388794 129.314102 
582.786133 128.939651 
590.291809 106.165985 
603.46344 125.449715 
650.638916 120.440002 
659.735474 128.002274 
663.336121 141.0 
687.035095 124.001984 
690.068359 131.657608 
714.012512 188.861115 
716.485901 117.911362 
749.753967 119.097221 
752.306091 118.642044 
801.638 114.001923 
804.545288 123.59259 
805.636414 225.44458 
836.107361 114.565216 
842.566101 155.155762 
880.125244 93.708336 
898.703552 94.375 
906.085144 111.347221 
912.131348 100.020454 
935.913696 171.440216 
955.914551 124.883476 
963.550293 102.778847 
967.193237 132.043472 
982.607361 154.734848 
1014.494995 75.480766 
1026.605103 141.274384 
1032.645264 234.617996 
1065.064453 112.841217 
1066.085815 99.668648 
1066.897095 90.556816 
1101.759033 139.719345 
1120.757812 129.017303 
1143.202759 101.515625 
1144.879395 102.003204 
1161.22876 99.420456 
1162.619629 195.166351 
1196.50061 105.064514 
1222.86499 153.446426 
1223.170898 103.375 
1227.437866 173.053574 
1243.619507 152.240677 
1257.157471 102.976349 
1270.644165 123.007576 
1313.710083 134.714279 
1320.705933 90.905487 
1322.189331 116.210526 
1333.266968 137.656815 
1345.234253 172.021042 
1390.912842 162.347229 
1393.8396 207.225006 
1394.238403 133.13443 
1400.588745 133.532898 
1430.755737 103.48214 
1430.855835 100.004631 
1465.632812 89.574997 
1469.563843 79.570946 
1495.248169 76.881096 
1503.529053 83.512497 
1518.507324 119.375 
1563.376221 93.066177 
1569.301636 80.25 
1599.333008 102.265625 
1606.185791 203.978058 
1610.972168 104.125 
1633.215942 127.654411 
1644.708862 115.032143 
1676.599731 82.396736 
1676.839355 103.019066 
1681.638794 108.017311 
END IONS

BEGIN IONS
RTINSECONDS=304.953003
CHARGE=1-
MSLEVEL=2
PRECURSORINTENSITY=130680.898438
SMILES=O=C1c2c(C)cc(O)c(C=O)c2Oc2c(O1)c(c(cc2C(=O)O)OC)C
INCHI=InChI=1S/C18H14O8/c1-7-4-11(20)10(6-19)15-13(7)18(23)26-14-8(2)12(24-3)5-9(17(21)22)16(14)25-15/h4-6,20H,1-3H3,(H,21,22)
INCHIKEY=FUCWJKJZOHOLEO-UHFFFAOYSA-N
CLASS=Depsidones
ADDUCT=[M-H+HCOOH]-
INSTRUMENT=Agilent Q-ToF 6530
PRECURSOR_MZ=389.0793
COMPOUND_NAME=Psoromic acid
ION_MODE=negative
FORMULA=C18H14O8
105.033783 1010.801575 
122.036255 249.36734 
149.053406 1314.528931 
181.061829 2429.257812 
209.052292 9176.1875 
225.052734 4492.333984 
226.059113 3322.370605 
237.059921 4439.743164 
253.048935 4911.338379 
254.060638 8105.626953 
281.041595 3067.750488 
313.066071 6159.150879 
314.068848 1366.008423 
357.054138 2594.202881 
358.058441 725.477539 
411.813629 76.845001 
420.392609 79.471153 
458.304596 71.520836 
462.897278 55.400002 
500.771057 57.388889 
506.322357 67.598404 
513.151489 93.633774 
531.685059 72.471153 
540.595337 65.761902 
562.073181 61.515625 
589.619019 77.80278 
603.023132 68.85714 
621.448486 108.445312 
640.661682 63.612499 
653.390381 61.185608 
657.67334 107.382812 
688.143738 74.012497 
733.354553 45.521553 
738.268433 67.065788 
743.256287 64.125 
768.747009 57.223682 
787.342163 52.603573 
799.7099 78.686401 
809.767151 53.0 
838.298096 70.404999 
860.762939 39.125 
870.502625 92.402779 
895.293945 44.032143 
902.828491 81.76136 
930.600342 41.599998 
934.355957 59.3125 
959.092285 45.041668 
967.745544 69.222221 
986.231506 75.125 
1008.384827 42.760136 
1019.795166 37.347221 
1028.646851 87.53186 
1038.950684 41.265625 
1048.151489 75.002663 
1083.425781 42.556034 
1084.780762 42.135868 
1121.249756 44.25 
1150.281006 31.005434 
1151.259399 28.005953 
1168.505127 61.416668 
1179.556396 29.782408 
1187.945068 44.204544 
1205.1604 33.805 
1239.670532 27.009615 
1258.027466 43.272728 
1259.283081 32.642857 
1277.101929 65.242645 
1278.674194 31.242647 
1291.134521 56.671295 
1310.152344 41.5 
1331.87439 128.074997 
1354.165405 52.183823 
1358.166626 77.490387 
1382.103271 54.44643 
1387.358643 104.333336 
1399.112915 85.787041 
1423.755371 72.055557 
1456.679932 124.007355 
1480.718872 34.205002 
1483.561768 32.164474 
1493.825928 154.140823 
1499.940552 43.785713 
1510.938965 41.625 
1543.375488 88.285378 
1546.225098 31.142857 
1553.243408 35.090908 
1592.68042 41.135868 
1598.386108 38.16346 
1622.584473 158.209305 
1655.877686 108.625 
1665.483521 88.086861 
1670.102051 51.349998 
1684.85791 26.148809 
1688.544189 25.568182 
1694.887939 59.026161 
END IONS

BEGIN IONS
RTINSECONDS=435.674011
CHARGE=1-
MSLEVEL=2
PRECURSORINTENSITY=37104.238281
SMILES=Cc1c(c(O)c(C=O)c(O)c1)C(=O)OCc1cc(O)c(C=O)c(O)c1C(=O)O
INCHI=InChI=1S/C18H14O10/c1-7-2-11(21)9(4-19)15(23)13(7)18(27)28-6-8-3-12(22)10(5-20)16(24)14(8)17(25)26/h2-5,21-24H,6H2,1H3,(H,25,26)
INCHIKEY=QAUIZXBSXBMGCF-UHFFFAOYSA-N
CLASS=Benzyldepsides
ADDUCT=[M-H]-
INSTRUMENT=Agilent Q-ToF 6530
PRECURSOR_MZ=389.05
COMPOUND_NAME=Barbatolic acid
ION_MODE=negative
FORMULA=C18H14O10
109.027817 464.019073 
123.514168 2114.518066 
137.020004 370.283813 
149.20166 562.850342 
151.529648 1467.000244 
195.031021 54409.578125 
195.425797 1052.333374 
196.324753 8689.493164 
199.589035 698.904358 
208.87175 588.571411 
257.50769 136.580261 
281.191956 187.410263 
281.769867 111.559998 
324.658234 218.682541 
371.291229 296.601196 
461.921509 75.027435 
470.00824 78.315216 
495.30719 102.484848 
550.870728 72.007812 
555.482788 46.347221 
557.050171 55.969826 
566.857239 78.041664 
598.717224 46.005436 
644.762451 56.714287 
654.98291 47.462837 
659.406982 73.125 
675.620605 43.23077 
682.843689 44.036289 
697.87146 52.240383 
735.080261 109.132812 
735.147766 58.022728 
744.955811 100.002274 
762.898438 70.185608 
788.397095 52.685974 
820.7677 71.005951 
829.615662 60.81686 
856.768799 35.102272 
888.423096 90.462837 
897.005249 41.0 
916.842407 60.416668 
920.833069 112.785713 
944.664185 63.003788 
945.858398 45.025002 
981.365723 53.020832 
1015.032288 38.520832 
1053.552124 64.08654 
1054.318481 30.405001 
1074.257935 30.6 
1091.4823 33.048912 
1099.628662 39.923077 
1116.654663 57.489864 
1117.933228 77.25 
1135.21167 27.0 
1169.182007 58.125 
1185.615845 45.204544 
1195.778931 41.005001 
1221.116699 45.008335 
1256.568115 42.44643 
1258.744629 55.560184 
1279.581177 40.363636 
1314.064819 49.625 
1317.892822 36.556034 
1337.056641 57.059212 
1338.118164 25.901316 
1349.138062 46.222828 
1364.12207 25.4 
1415.618286 38.570652 
1421.588867 55.185608 
1424.469849 96.484848 
1429.479858 30.625 
1454.935181 266.822723 
1482.06543 33.349998 
1483.659546 51.020832 
1484.206543 27.920454 
1543.379028 29.222826 
1561.856934 26.222826 
1562.981567 31.666666 
1565.607056 68.003784 
1607.78894 32.266304 
1624.667358 68.83696 
1641.750488 40.521553 
1652.076172 47.489864 
1659.993286 115.979729 
1672.373291 58.727272 
1685.129761 61.055557 
END IONS

BEGIN IONS
RTINSECONDS=427.824005
CHARGE=1-
MSLEVEL=2
PRECURSORINTENSITY=2479357.750000
SMILES=O=C1c2c(CC(=O)CCCCC)cc(O)cc2Oc2c(O1)cc(c(c2CCCCC)C(=O)O)O
INCHI=InChI=1S/C26H30O8/c1-3-5-7-9-16(27)11-15-12-17(28)13-20-22(15)26(32)34-21-14-19(29)23(25(30)31)18(24(21)33-20)10-8-6-4-2/h12-14,28-29H,3-11H2,1-2H3,(H,30,31)
INCHIKEY=KVTYWHGIZSCFLG-UHFFFAOYSA-N
CLASS=Depsidones
ADDUCT=[M-H]-
INSTRUMENT=Agilent Q-ToF 6530
PRECURSOR_MZ=469.181
COMPOUND_NAME=Physodic acid
ION_MODE=negative
FORMULA=C26H30O8
105.033318 2456.054932 
123.044823 5125.5625 
133.10083 14783.131836 
134.104279 2945.988281 
149.023758 13006.917969 
161.022415 3904.018799 
225.053146 10021.817383 
226.061432 22707.992188 
247.095383 37769.351562 
283.131104 89548.484375 
284.127136 27559.763672 
285.112183 27734.09375 
310.118317 35029.847656 
324.13382 52605.730469 
357.204346 41428.988281 
381.203888 319833.90625 
382.206879 142962.671875 
383.18399 271157.375 
384.186584 112750.4375 
425.194214 275009.125 
545.039185 90.598404 
564.815918 101.023933 
570.868347 99.14286 
578.610901 92.761902 
579.754822 77.149391 
626.856567 111.24662 
634.302612 129.102844 
662.932861 90.066177 
674.152283 166.451538 
678.268982 124.235466 
702.353638 107.653229 
716.18811 77.573982 
719.994324 77.400002 
795.770264 110.5 
827.43689 80.120094 
847.499939 124.471153 
859.824768 113.786392 
876.524475 93.069443 
921.575867 80.673508 
929.995178 83.666664 
939.28241 106.100807 
950.153137 84.5 
976.121887 115.451614 
999.362488 101.722221 
1005.622253 101.820457 
1067.86377 107.275002 
1091.710693 78.408333 
1111.433716 87.430557 
1139.564453 114.890625 
1143.534668 74.78125 
1187.310181 106.037041 
1189.700073 116.171608 
1208.900757 97.041664 
1213.362671 82.763885 
1250.257812 108.441177 
1253.306641 110.430557 
1313.045288 105.408333 
1318.085815 99.010414 
1336.6521 73.77594 
1390.223633 73.004036 
1408.245361 93.336113 
1409.901489 79.347824 
1419.341675 76.512497 
1489.370483 126.640625 
1501.769043 110.112068 
1528.200439 123.462837 
1543.82019 92.786766 
1578.277954 126.666664 
1594.34375 78.086266 
1597.452759 82.010414 
1602.233521 97.68145 
1604.828613 178.331085 
1637.343872 117.34259 
1645.884277 157.176468 
1662.473999 202.256577 
1691.663696 132.074997 
END IONS

BEGIN IONS
RTINSECONDS=270.60199
CHARGE=1+
MSLEVEL=2
SMILES=Cc1cc(=O)c2c(cc3c(C(=CC(=O)C3=O)OC)c2OC)o1
INCHI=InChI=1S/C16H12O6/c1-7-4-9(17)14-12(22-7)5-8-13(16(14)21-3)11(20-2)6-10(18)15(8)19/h4-6H,1-3H3
INCHIKEY=GESAVORGYOGKOW-UHFFFAOYSA-N
CLASS=Quinones
ADDUCT=[M+H+CH3OH]+
INSTRUMENT=Agilent Q-ToF 6530
PRECURSOR_MZ=333.0974
COMPOUND_NAME=Canarione dimethylether
ION_MODE=positive
FORMULA=C16H12O6
175.029709 13906.547852 
177.044434 10556.748047 
190.016861 9028.323242 
205.040039 19358.304688 
218.009552 16751.566406 
233.032944 55750.929688 
246.003189 13791.813477 
261.026825 445243.09375 
262.030121 7343.996582 
301.053406 7245.03418 
442.179016 78.355392 
442.838959 72.315788 
463.021881 64.529411 
465.68515 66.181816 
471.778046 103.432693 
509.919952 112.446426 
516.968201 75.46154 
527.730652 76.285378 
536.802185 79.5625 
570.00531 57.79348 
594.965698 51.961956 
603.736877 54.115742 
619.695679 55.049999 
621.005737 62.723362 
653.900635 45.842106 
704.111938 78.198532 
743.622742 55.065788 
757.561157 75.512497 
765.849182 55.693966 
765.881897 90.610001 
774.711548 49.75 
830.847961 51.875 
833.804688 47.083332 
862.539734 68.400002 
864.14447 47.222561 
869.034973 48.529411 
878.507324 104.125 
901.253113 54.25 
955.473328 48.014706 
965.639282 73.204544 
974.218811 139.880951 
981.127686 50.875 
991.398193 79.469444 
1014.876953 85.320122 
1037.189575 48.458332 
1067.664062 51.644737 
1094.526855 51.11842 
1115.341064 57.246952 
1120.023315 79.633331 
1131.097534 73.455643 
1165.767456 85.568184 
1187.192627 72.639999 
1208.997925 47.040001 
1235.608765 82.84375 
1246.605347 75.003784 
1282.12207 52.375 
1292.759155 48.778225 
1333.178345 49.013889 
1398.902344 46.336113 
1424.651733 51.24662 
1427.253784 80.654068 
1436.789307 51.714287 
1562.737549 79.116806 
1607.682373 152.853394 
1625.439087 88.457146 
1663.993408 47.68145 
END IONS

BEGIN IONS
RTINSECONDS=351.19101
CHARGE=1+
MSLEVEL=2
SMILES=c1ccc(cc1)C1=C(C(=O)C(=C(C1=O)O)c1ccccc1)O
INCHI=InChI=1S/C18H12O4/c19-15-13(11-7-3-1-4-8-11)16(20)18(22)14(17(15)21)12-9-5-2-6-10-12/h1-10,19,22H
INCHIKEY=HZKFHDXTSAYOSN-UHFFFAOYSA-N
CLASS=Quinones
ADDUCT=[M+H+HCOOH]+
INSTRUMENT=Agilent Q-ToF 6530
PRECURSOR_MZ=339.0869
COMPOUND_NAME=Polyporic acid
ION_MODE=positive
FORMULA=C18H12O4
105.026947 1103.36853 
107.042519 371.457062 
117.027809 1543.064087 
145.019211 8036.529297 
161.022141 11136.992188 
173.009705 36223.492188 
203.017853 112477.890625 
205.048798 58351.320312 
233.041504 72859.875 
261.034241 298754.25 
263.050873 10521.435547 
265.064575 15745.578125 
289.026947 23407.925781 
307.056 23523.583984 
321.050659 514584.46875 
322.054443 9856.509766 
406.661713 61.072674 
422.039001 87.875 
428.607819 57.211208 
454.484741 154.63269 
481.576691 94.30867 
486.737854 67.851418 
517.551208 57.765625 
526.227051 63.375 
529.286682 54.41346 
541.328125 58.640152 
584.891357 69.938828 
585.772156 77.004311 
589.190674 67.778847 
616.063843 57.462837 
625.809875 72.25 
648.280579 59.18182 
681.918823 65.009262 
692.929565 72.083336 
693.944641 110.161293 
697.222168 71.112068 
700.140564 115.875 
718.718933 67.900864 
763.990234 79.165985 
780.849365 60.923077 
785.586304 80.083336 
794.355469 63.224998 
799.589783 74.471153 
831.608215 68.905487 
848.427551 47.117645 
872.954224 82.920456 
889.479797 65.136108 
896.234436 47.0 
907.465271 59.0 
970.174133 123.023933 
989.781555 86.492348 
999.924072 76.248291 
1005.730469 154.485825 
1033.608276 63.094696 
1035.768921 48.521553 
1094.687256 48.015625 
1153.786743 50.125 
1166.807861 63.531864 
1175.935059 62.33654 
1176.660889 66.612808 
1188.560913 54.979652 
1207.097412 67.959999 
1216.395264 80.241379 
1225.814941 53.190475 
1238.764282 52.3125 
1251.543335 53.047619 
1270.299805 52.245689 
1277.229492 48.926281 
1333.662476 59.224998 
1355.620605 47.084461 
1384.639648 50.132355 
1402.965576 49.347221 
1435.620483 56.680557 
1443.206299 50.391129 
1456.343262 149.435242 
1457.040771 63.929878 
1497.525024 57.066666 
1528.862305 89.021225 
1533.814941 72.926285 
1536.641724 55.223682 
1560.71814 80.16346 
1582.001221 64.259613 
1595.2052 64.032143 
1600.256226 56.875 
1624.469238 49.333332 
1625.142944 57.720238 
1640.618652 81.191177 
1679.346191 69.875 
1679.84436 53.125 
1685.426392 58.802776 
1694.014893 44.765625 
1697.358765 54.015625 
1697.471069 46.36842 
END IONS

BEGIN IONS
RTINSECONDS=229.570007
CHARGE=1+
MSLEVEL=2
SMILES=Cc1cc(=O)c2c(o1)cc1c(c2O)C(=CC(=O)C1=O)O
INCHI=InChI=1S/C14H8O6/c1-5-2-7(15)12-10(20-5)3-6-11(14(12)19)8(16)4-9(17)13(6)18/h2-4,16,19H,1H3
INCHIKEY=NPUXQAACUNUHIX-UHFFFAOYSA-N
CLASS=Quinones
ADDUCT=[2M+Na]+
INSTRUMENT=Agilent Q-ToF 6530
PRECURSOR_MZ=567.0539
COMPOUND_NAME=Canarione
ION_MODE=positive
FORMULA=C14H8O6
111.086288 161.68161 
115.393806 102.072578 
117.061157 127.357674 
150.133057 151.698227 
155.631851 277.252869 
170.075974 106.556252 
190.131165 189.800003 
202.787079 135.199997 
220.170074 148.280701 
230.969696 125.59259 
243.164963 121.810814 
267.019867 543.36084 
295.015259 229651.046875 
295.171204 743.765503 
295.230713 478.19519 
296.018005 7147.812988 
296.206482 410.779327 
378.303162 394.654541 
379.308563 135.454544 
383.775024 162.00676 
396.320435 130.698273 
434.975006 112.654411 
435.286011 104.592216 
453.014496 116.969826 
478.256897 107.0625 
488.284363 110.840279 
627.320374 201.462601 
653.479126 135.495972 
681.149963 159.525986 
687.260071 87.120766 
693.590088 175.053268 
702.999451 133.961533 
728.902344 74.020836 
745.758362 177.471161 
789.887756 91.333336 
799.146362 88.002357 
814.480896 116.809998 
824.570435 95.388885 
849.914795 86.006409 
858.297729 87.900002 
883.285583 82.686401 
896.066162 71.08696 
919.66333 70.612808 
929.9104 65.004036 
982.790222 65.736115 
984.617798 74.175003 
987.053894 63.259617 
990.743225 65.760132 
1020.615784 81.08696 
1035.0177 83.297623 
1048.563232 105.285446 
1058.683716 75.408333 
1070.230347 119.5 
1077.884888 139.810806 
1112.840576 57.882355 
1117.03479 77.544495 
1145.525879 58.49128 
1167.210449 116.130432 
1202.877563 113.224998 
1203.398071 158.0 
1204.924683 61.603573 
1205.44873 77.46154 
1232.39856 71.265625 
1258.419922 62.26651 
1266.321899 67.008621 
1272.125488 92.945419 
1294.291016 65.520836 
1303.246948 75.934319 
1312.498047 57.066666 
1312.561768 60.666668 
1366.106567 107.485214 
1369.678711 101.125 
1371.279175 87.760132 
1390.86438 112.894737 
1403.305908 109.260803 
1432.002319 122.612289 
1452.71582 60.909092 
1478.342285 63.265625 
1511.011597 63.011906 
1511.725708 161.130432 
1522.18457 87.315216 
1531.751953 99.047623 
1552.75415 61.79348 
1598.223511 53.333332 
1605.547974 64.58036 
1621.438721 61.280174 
1631.498535 98.740944 
1636.544189 58.728447 
1652.644897 111.125 
1671.393799 56.094696 
1676.687988 54.222561 
1677.199707 55.219593 
END IONS

BEGIN IONS
RTINSECONDS=397.76001
CHARGE=1+
MSLEVEL=2
SMILES=C[C@@H]1CC(=O)C2=C(c3c(ccc(c3O)c3c(c4c(cc3)O[C@@]3([C@H]([C@@H](CC(=O)C3=C4O)C)O)C(=O)OC)O)O[C@@]2([C@H]1O)C(=O)OC)O
INCHI=InChI=1S/C32H30O14/c1-11-9-15(33)21-25(37)19-17(45-31(21,27(11)39)29(41)43-3)7-5-13(23(19)35)14-6-8-18-20(24(14)36)26(38)22-16(34)10-12(2)28(40)32(22,46-18)30(42)44-4/h5-8,11-12,27-28,35-40H,9-10H2,1-4H3/t11-,12-,27+,28+,31+,32+/m1/s1
INCHIKEY=NFZJAYYORNVZNI-ZKHWAINJSA-N
CLASS=Xanthones and bis-Xanthones
ADDUCT=[M+NH4]+
INSTRUMENT=Agilent Q-ToF 6530
PRECURSOR_MZ=656.1979
COMPOUND_NAME=Secalonic acid A
ION_MODE=positive
FORMULA=C32H30O14
123.043877 31287.896484 
151.037888 72247.476562 
155.069946 20350.066406 
161.022675 11916.146484 
183.064468 126039.351562 
193.048477 134916.640625 
211.058167 17047.867188 
245.042633 1353.562012 
281.08139 811.233154 
323.092896 3412.653076 
349.069275 4731.045898 
351.084595 13491.698242 
369.09552 3957.623535 
377.064362 36604.804688 
379.08139 3432.473389 
405.058807 11525.410156 
437.086182 9352.359375 
455.107819 12281.425781 
469.090332 17043.990234 
473.122864 12689.239258 
483.10614 43634.953125 
501.116852 115384.140625 
511.100037 37378.183594 
529.111084 45029.96875 
561.138184 283169.4375 
571.122925 96284.695312 
579.148376 163569.5 
589.132874 69611.828125 
639.108521 14475.438477 
991.680969 120.003204 
1204.617432 269.960114 
1547.763672 132.001923 
1614.451904 123.558136 
1648.58313 154.618149 
END IONS

BEGIN IONS
RTINSECONDS=243.238998
CHARGE=1+
MSLEVEL=2
SMILES=O=C1C=C(OC)C(=O)c2c1c(c1c(c2O)C[C@H](C)OC1=O)O
INCHI=InChI=1S/C15H12O7/c1-5-3-6-9(15(20)22-5)14(19)10-7(16)4-8(21-2)13(18)11(10)12(6)17/h4-5,17,19H,3H2,1-2H3/t5-/m0/s1
INCHIKEY=VZSFONBSZGFZNH-YFKPBYRVSA-N
CLASS=Quinones
ADDUCT=[M+H+HCOOH]+
INSTRUMENT=Agilent Q-ToF 6530
PRECURSOR_MZ=351.0716
COMPOUND_NAME=Haemoventosine
ION_MODE=positive
FORMULA=C15H12O7
101.057816 174.0401 
137.019165 358.001556 
220.030594 1640.261597 
221.036484 1595.903198 
245.039383 1990.143799 
263.047119 4612.699219 
273.034821 2749.306152 
275.048615 3420.351807 
291.041565 3794.818115 
319.040405 7251.613281 
333.057892 3133.32666 
462.323853 42.75 
474.952545 76.0 
486.625702 57.125 
497.765533 77.635567 
508.152374 54.344513 
530.112366 70.063774 
542.913208 50.900002 
564.681519 73.090912 
579.259583 61.375 
584.722595 50.222221 
613.310852 64.077583 
629.686462 56.047619 
647.664917 55.736111 
665.837708 64.094696 
711.228333 60.045456 
711.94397 72.065788 
721.131592 80.08654 
727.861938 84.689651 
735.512939 51.149391 
785.337341 59.551472 
797.431519 44.140625 
803.668701 47.297619 
809.032532 51.01923 
839.869751 48.578949 
850.339905 93.371216 
875.724792 73.884804 
899.334351 55.570946 
914.598694 50.066666 
919.608032 49.263157 
925.758423 43.367424 
963.084229 43.471153 
968.634033 42.173077 
970.209595 61.529411 
983.662842 40.969826 
1022.31781 34.111111 
1050.824585 47.671295 
1056.389893 38.013889 
1059.961792 56.0 
1103.27832 37.157051 
1113.339233 32.059212 
1120.975586 46.089287 
1142.834351 68.041664 
1179.117554 155.0 
1188.442871 164.680557 
1189.400513 87.007355 
1200.500977 40.0 
1209.77478 39.160713 
1233.155273 57.778225 
1277.587036 102.778061 
1288.869629 46.337963 
1307.91687 98.275002 
1308.22522 39.920456 
1316.704712 50.224998 
1321.385864 58.48077 
1359.74353 56.089287 
1379.2052 54.923077 
1395.23999 42.529411 
1403.174194 39.003048 
1406.539673 39.205002 
1428.507202 112.0 
1446.641968 34.185608 
1477.733398 52.852272 
1508.147217 46.961956 
1511.607056 48.512501 
1532.40332 58.889706 
1554.058228 42.888889 
1556.07605 43.805 
1600.098755 48.391129 
1615.813843 48.520161 
1620.519409 31.066177 
1627.880859 35.640152 
1642.766968 37.16346 
1645.818481 47.185608 
1688.071045 36.020832 
1688.603271 30.125 
1696.37146 38.0 
1696.469116 28.291666 
END IONS

BEGIN IONS
RTINSECONDS=273.36499
CHARGE=1+
MSLEVEL=2
SMILES=O=C1C=C(OC)C(=O)c2c1c(c1c(c2O)C[C@H](C)OC1=O)O
INCHI=InChI=1S/C15H12O7/c1-5-3-6-9(15(20)22-5)14(19)10-7(16)4-8(21-2)13(18)11(10)12(6)17/h4-5,17,19H,3H2,1-2H3/t5-/m0/s1
INCHIKEY=VZSFONBSZGFZNH-YFKPBYRVSA-N
CLASS=Quinones
ADDUCT=[M+H+CH3OH]+
INSTRUMENT=Agilent Q-ToF 6530
PRECURSOR_MZ=337.0923
COMPOUND_NAME=Haemoventosine
ION_MODE=positive
FORMULA=C15H12O7
131.05098 368.089539 
153.016891 1069.349731 
167.031723 636.630432 
181.013306 578.42218 
235.042801 737.712097 
249.063828 769.137939 
255.028412 774.003235 
259.058685 1808.536377 
261.034912 1075.830444 
263.046112 961.710632 
287.051575 7656.049316 
305.062134 5914.58252 
319.077759 8101.709961 
404.48056 50.07143 
415.064972 58.005436 
420.369476 41.640152 
450.71106 58.003571 
450.930878 59.038792 
470.371033 66.370613 
485.479584 44.333332 
505.061829 76.007576 
507.931396 39.075001 
508.243622 41.907257 
548.399841 40.157051 
565.218811 38.059212 
593.688049 70.347824 
597.846741 41.015625 
617.846741 52.125 
636.816772 66.480263 
637.708374 57.061275 
666.8479 149.115387 
673.931519 51.875 
692.217896 63.010868 
704.394287 69.960106 
729.601135 57.211208 
744.969421 45.694443 
746.258118 66.6875 
781.19635 53.367424 
795.817383 52.520832 
804.960266 39.30682 
840.887024 57.5625 
865.987549 53.671295 
866.715393 52.923077 
867.974609 258.325439 
873.562195 40.458332 
875.532288 46.785713 
895.873291 39.5625 
929.022766 33.041668 
991.883972 43.920456 
992.987061 41.816666 
994.975037 38.008335 
1003.831177 51.020832 
1017.099182 41.00338 
1034.543579 194.397537 
1060.164429 74.727272 
1078.458496 82.29657 
1104.44873 50.722221 
1107.69812 41.150002 
1111.06604 37.515625 
1129.757812 39.025002 
1166.062744 49.111843 
1176.148193 44.875 
1204.83728 48.066177 
1218.934448 73.471153 
1219.999146 68.049606 
1232.115112 53.5 
1242.112671 28.480263 
1279.880127 47.00338 
1293.763916 52.388889 
1319.830444 50.022728 
1345.530518 46.0 
1351.233765 34.778847 
1358.386353 63.094696 
1364.088623 35.480263 
1368.628906 55.961956 
1405.529541 26.487904 
1415.662598 28.053572 
1443.895752 27.066668 
1465.468506 44.112499 
1478.48584 31.625 
1484.718384 37.674999 
1491.021851 31.818182 
1524.987183 42.48077 
1540.425659 41.059212 
1551.409424 24.339285 
1563.798218 32.222828 
1613.951538 40.100807 
1633.193115 31.595589 
1637.100952 28.111111 
1649.358521 49.117645 
1688.592529 43.022728 
1688.843384 28.008333 
1694.427734 30.782408 
1696.395996 38.347221 
END IONS

BEGIN IONS
RTINSECONDS=262.143005
CHARGE=1+
MSLEVEL=2
SMILES=Oc1c2c([C@@H](OC)[C@H](C)OC2=O)c(O)c2c1C(=O)C=C(OC)C2=O
INCHI=InChI=1S/C16H14O8/c1-5-15(23-3)10-11(16(21)24-5)13(19)8-6(17)4-7(22-2)12(18)9(8)14(10)20/h4-5,15,19-20H,1-3H3/t5-,15-/m0/s1
INCHIKEY=WPHIVUBMBWBSCK-SPHRHWQCSA-N
CLASS=Quinones
ADDUCT=[2M+Na]+
INSTRUMENT=Agilent Q-ToF 6530
PRECURSOR_MZ=691.1275
COMPOUND_NAME=Methoxyhaemoventosine
ION_MODE=positive
FORMULA=C16H14O8
122.632431 102.001808 
133.08075 145.177628 
141.330154 68.160713 
159.328918 75.881096 
203.06514 78.814812 
208.586929 58.681602 
220.468536 63.018444 
223.836502 57.224998 
225.073288 80.26667 
267.56189 57.351746 
299.016815 399.254547 
307.011078 376.378143 
325.033569 1551.459839 
357.056427 173161.046875 
358.059326 6130.640137 
358.233124 241.798508 
358.823669 231.881485 
359.648529 212.793274 
453.764496 52.136112 
466.440765 65.284088 
466.924988 121.285378 
504.364594 75.675003 
541.014832 95.010414 
567.177429 95.400002 
571.092407 80.347221 
581.975037 107.320122 
584.079224 104.723358 
597.084656 117.155769 
629.023682 62.561047 
775.882141 53.449467 
801.279663 67.884804 
804.078491 54.3125 
809.907532 51.012501 
868.230347 90.446426 
881.951843 79.556816 
894.263489 71.321426 
895.763306 39.666668 
902.092834 39.125 
933.467773 48.44643 
947.372375 38.224998 
950.401733 36.889286 
975.73584 80.246948 
988.279358 41.520161 
1026.31665 54.387821 
1048.264648 36.289288 
1048.325317 40.923077 
1050.3396 32.44643 
1069.443359 77.002052 
1095.85083 30.680555 
1116.898682 54.39674 
1146.650269 83.040321 
1154.401611 59.44643 
1171.859131 41.280174 
1184.278931 85.084015 
1199.028931 50.793606 
1228.186035 63.0 
1239.614258 59.041668 
1257.126343 34.226852 
1264.409912 32.44643 
1279.36438 32.004311 
1311.234253 68.181816 
1333.911743 28.893518 
1343.015015 32.259617 
1344.164307 30.6 
1360.193604 30.148809 
1400.152466 24.053572 
1408.421875 28.570652 
1438.642456 27.015625 
1454.393677 47.0 
1478.804077 28.942308 
1498.406128 43.259617 
1502.301392 40.89352 
1516.079468 35.480263 
1531.437866 34.055557 
1553.116699 26.408333 
1566.286743 31.322369 
1589.925171 30.605 
1593.647949 54.845001 
1614.002441 51.211208 
1625.373779 36.25 
1632.852173 37.272728 
1661.995483 39.030407 
1675.695312 83.26667 
1683.936646 38.432144 
1690.090942 76.349487 
1693.122681 38.599998 
END IONS

BEGIN IONS
RTINSECONDS=375.675995
CHARGE=1+
MSLEVEL=2
SMILES=C[C@@H]1CC(=O)C2=C(c3c(ccc(c3O)c3c(c4c(cc3)O[C@@]3([C@H]([C@@H](CC(=O)C3=C4O)C)O)C(=O)OC)O)O[C@@]2([C@H]1O)C(=O)OC)O
INCHI=InChI=1S/C32H30O14/c1-11-9-15(33)21-25(37)19-17(45-31(21,27(11)39)29(41)43-3)7-5-13(23(19)35)14-6-8-18-20(24(14)36)26(38)22-16(34)10-12(2)28(40)32(22,46-18)30(42)44-4/h5-8,11-12,27-28,35-40H,9-10H2,1-4H3/t11-,12-,27+,28+,31+,32+/m1/s1
INCHIKEY=NFZJAYYORNVZNI-ZKHWAINJSA-N
CLASS=Xanthones and bis-Xanthones
ADDUCT=[M+H+CH3OH]+
INSTRUMENT=Agilent Q-ToF 6530
PRECURSOR_MZ=671.1976
COMPOUND_NAME=Secalonic acid A
ION_MODE=positive
FORMULA=C32H30O14
121.062134 120.96196 
123.039948 120.75 
151.039673 440.791656 
155.068634 312.986694 
183.068558 301.728882 
193.051392 808.10321 
193.09726 168.723221 
194.045441 258.024719 
231.051315 136.898148 
235.893173 93.25 
254.38913 85.138512 
282.033478 66.181816 
291.064331 91.448273 
301.034515 75.045212 
327.075378 101.571426 
355.642181 111.864288 
369.061157 92.568184 
377.060516 540.39801 
380.078796 91.019737 
389.092804 97.76136 
395.066284 96.083336 
455.107788 1282.662842 
456.098328 243.313629 
459.116058 190.612503 
473.113922 317.0 
501.11142 757.172485 
533.137085 464.788452 
561.138 1718.007324 
562.142212 616.020813 
579.14801 2398.614258 
589.137146 694.46875 
611.170898 681.102173 
621.159241 728.342773 
638.166077 1105.40625 
640.165771 842.951111 
653.178894 675.658203 
728.095642 92.801666 
765.875549 29.0 
776.56604 38.013889 
779.980103 28.333334 
843.738892 167.219208 
850.41748 47.25 
851.085388 81.384094 
872.200195 279.7742 
877.981445 48.100807 
882.095825 68.0 
916.842346 51.004631 
936.204651 63.55682 
947.826172 51.130318 
969.172424 45.328949 
977.913696 47.003571 
979.194153 40.210526 
1033.317993 71.26667 
1033.530151 38.015625 
1047.444336 36.0 
1047.504395 32.799999 
1083.38916 49.920456 
1098.586182 41.111488 
1120.424683 90.492348 
1146.623413 56.285378 
1175.080566 90.47406 
1175.168091 50.266666 
1180.696777 83.125 
1207.2229 42.041668 
1214.214478 52.695515 
1239.746704 39.25 
1256.208252 48.026161 
1256.879761 34.333332 
1262.778076 35.135868 
1265.092285 34.004311 
1308.702393 31.125 
1329.249146 41.224998 
1331.23645 52.787163 
1355.488892 33.0625 
1360.118896 51.036289 
1399.394653 108.146736 
1428.720337 37.025002 
1435.090942 35.91848 
1447.666382 34.013157 
1447.924316 34.337963 
1457.783813 69.083336 
1501.741333 73.782608 
1514.858643 30.666666 
1526.839478 38.107758 
1550.182739 42.482143 
1558.187622 41.205002 
1581.338867 37.942307 
1598.700439 45.089287 
1600.271729 48.125 
1628.290771 61.941177 
1665.029663 35.005951 
1668.3479 27.140625 
1677.709351 36.011364 
1692.352539 41.28125 
1694.345947 19.666666 
END IONS

BEGIN IONS
RTINSECONDS=369.743011
CHARGE=1+
MSLEVEL=2
SMILES=C[C@H]1CC(=O)C2=C(c3c(ccc(c3O)c3c(c4c(cc3)O[C@]3([C@@H]([C@H](CC(=O)C3=C4O)C)O)C(=O)OC)O)O[C@]2([C@@H]1O)C(=O)OC)O
INCHI=InChI=1S/C32H30O14/c1-11-9-15(33)21-25(37)19-17(45-31(21,27(11)39)29(41)43-3)7-5-13(23(19)35)14-6-8-18-20(24(14)36)26(38)22-16(34)10-12(2)28(40)32(22,46-18)30(42)44-4/h5-8,11-12,27-28,35-40H,9-10H2,1-4H3/t11-,12-,27+,28+,31+,32+/m0/s1
INCHIKEY=NFZJAYYORNVZNI-OCHURCMPSA-N
CLASS=Xanthones and bis-Xanthones
ADDUCT=[M+NH4]+
INSTRUMENT=Agilent Q-ToF 6530
PRECURSOR_MZ=656.1979
COMPOUND_NAME=Secalonic acid D
ION_MODE=positive
FORMULA=C32H30O14
123.043556 29851.060547 
151.03801 61658.320312 
155.069183 16052.255859 
161.022156 9126.253906 
183.064423 111688.195312 
193.048752 122511.101562 
211.058945 15143.731445 
245.042542 1129.188477 
271.034119 639.800537 
293.081757 677.085449 
309.077271 1161.911377 
323.088562 3564.378174 
349.064911 3198.758545 
351.084808 10003.623047 
377.063843 28698.3125 
405.060272 9495.612305 
411.104218 3770.280518 
437.084747 7502.169434 
455.102997 9353.201172 
469.087585 14822.518555 
473.121979 9563.802734 
483.104523 36438.078125 
501.115479 95756.828125 
511.100006 30699.992188 
529.110046 34108.234375 
561.136963 270433.59375 
571.121094 177394.609375 
579.147339 217000.671875 
589.130798 209028.625 
621.157532 335956.5 
639.16864 627212.25 
782.858154 151.391022 
1105.82373 168.155762 
1357.491943 141.767853 
1506.624512 155.287338 
1576.642822 269.089294 
END IONS

BEGIN IONS
RTINSECONDS=438.927002
CHARGE=1+
MSLEVEL=2
SMILES=C[C@@H]1CC(=O)C2=C(c3c(ccc(c3O)c3c(c4c(cc3)O[C@@]3([C@H]([C@@H](CC(=O)C3=C4O)C)O)C(=O)OC)O)O[C@@]2([C@H]1O)C(=O)OC)O
INCHI=InChI=1S/C32H30O14/c1-11-9-15(33)21-25(37)19-17(45-31(21,27(11)39)29(41)43-3)7-5-13(23(19)35)14-6-8-18-20(24(14)36)26(38)22-16(34)10-12(2)28(40)32(22,46-18)30(42)44-4/h5-8,11-12,27-28,35-40H,9-10H2,1-4H3/t11-,12-,27+,28+,31+,32+/m1/s1
INCHIKEY=NFZJAYYORNVZNI-ZKHWAINJSA-N
CLASS=Xanthones and bis-Xanthones
ADDUCT=[M+Na]+
INSTRUMENT=Agilent Q-ToF 6530
PRECURSOR_MZ=661.1533
COMPOUND_NAME=Secalonic acid A
ION_MODE=positive
FORMULA=C32H30O14
105.437225 69.85714 
108.987312 150.435242 
122.979698 72.26651 
148.00676 84.654411 
183.062668 132.28125 
192.053726 178.6129 
217.251602 109.0 
219.01181 230.254242 
234.031265 172.235458 
277.813721 140.136108 
299.116394 131.668655 
303.512848 113.490387 
311.252472 82.83696 
328.338593 79.555855 
332.785461 119.75 
338.992493 90.49128 
379.851959 101.049416 
391.028625 359.825012 
391.072845 515.450684 
432.097412 179.6875 
451.055756 488.975433 
451.097595 539.892212 
477.028107 290.081665 
477.061981 159.568176 
601.082886 1245.002686 
601.128967 1294.223145 
643.078369 3544.011963 
643.14093 2650.213623 
730.033875 119.026314 
737.658264 96.360001 
771.957947 56.778225 
773.217041 129.280701 
791.421875 103.617645 
792.789734 60.01923 
799.260864 47.027439 
844.140015 57.941177 
859.758301 47.440475 
878.295715 55.680557 
909.171936 54.150002 
909.333618 50.685974 
917.179016 55.882355 
918.600525 48.224998 
969.829834 54.521553 
991.707397 59.80357 
992.302795 59.449467 
1033.250977 61.036289 
1035.253906 72.020836 
1041.408936 80.698273 
1058.258545 60.531864 
1076.565552 193.375 
1080.028442 178.371216 
1131.229858 48.185608 
1135.023193 51.011364 
1144.414551 57.336113 
1170.314575 69.45153 
1174.55188 74.034088 
1195.47583 54.5625 
1232.066895 56.142441 
1239.136719 53.113636 
1246.322876 63.41346 
1259.106812 47.485294 
1260.398926 71.130318 
1297.827393 51.048912 
1310.354004 56.020832 
1322.651367 52.326923 
1368.150269 76.071426 
1368.540161 47.890625 
1370.33313 53.75 
1379.638794 59.570652 
1410.233765 65.669441 
1422.288696 42.368904 
1424.067993 169.349716 
1439.311646 37.125 
1456.545044 187.765625 
1486.435303 57.900864 
1492.686035 37.0 
1517.900513 43.222828 
1523.217529 50.458332 
1546.053711 59.136364 
1547.079956 36.875 
1559.733765 47.578949 
1597.784668 58.011906 
1600.143066 52.512501 
1610.628418 90.235466 
1618.931274 51.173077 
1669.033691 75.020836 
1672.597534 47.368904 
1682.107422 43.450001 
1695.173584 34.125 
1698.712524 56.0625 
END IONS

BEGIN IONS
RTINSECONDS=240.473007
CHARGE=1+
MSLEVEL=2
SMILES=Cc1cc(=O)c2c(cc3c(C(=CC(=O)C3=O)OC)c2OC)o1
INCHI=InChI=1S/C16H12O6/c1-7-4-9(17)14-12(22-7)5-8-13(16(14)21-3)11(20-2)6-10(18)15(8)19/h4-6H,1-3H3
INCHIKEY=GESAVORGYOGKOW-UHFFFAOYSA-N
CLASS=Quinones
ADDUCT=[2M+Na]+
INSTRUMENT=Agilent Q-ToF 6530
PRECURSOR_MZ=623.1165
COMPOUND_NAME=Canarione dimethylether
ION_MODE=positive
FORMULA=C16H12O6
101.579834 63.138512 
121.468735 57.215427 
127.757187 82.89286 
135.40419 128.781784 
136.016251 58.27174 
149.490784 102.909088 
203.457855 70.181816 
207.016678 97.64286 
207.721176 80.760132 
235.081711 96.001984 
249.966217 113.440475 
309.037048 1116.56958 
323.021973 320510.34375 
323.051239 54086.425781 
323.20578 999.430115 
324.026031 12541.016602 
324.054016 1394.89856 
419.077148 64.002777 
423.929535 132.695312 
424.527222 96.355766 
472.527557 188.396744 
485.863281 92.061272 
486.765228 255.208328 
512.01709 110.346153 
534.982117 133.324997 
562.571045 79.814812 
682.785706 133.041672 
709.986694 65.020836 
725.128967 76.016792 
730.502563 69.307693 
755.581848 70.839996 
771.732666 112.669121 
781.568665 92.051231 
807.930542 63.680557 
830.289062 69.4879 
853.15033 69.36364 
853.68158 98.349487 
860.273071 81.0 
881.342224 61.333332 
887.058105 57.020832 
895.079895 74.280739 
905.182007 51.285713 
941.044067 48.765625 
949.077026 46.961956 
961.597351 71.809998 
971.184937 81.019066 
1002.515625 60.003048 
1030.064941 59.0 
1060.833862 78.227272 
1081.999268 72.281975 
1096.683228 107.183823 
1107.185669 79.165695 
1111.642334 61.84 
1113.759033 104.165321 
1159.222412 58.450001 
1176.276733 97.441177 
1183.473755 68.071426 
1185.051025 66.805 
1220.229126 61.003571 
1238.007812 71.476692 
1251.861328 56.644737 
1269.934692 76.165543 
1272.543091 58.138512 
1272.954224 59.349491 
1306.757324 51.404999 
1317.0448 115.349998 
1392.306885 48.115742 
1402.216797 47.695652 
1406.124878 53.555557 
1406.642578 63.640625 
1429.261963 70.490387 
1431.304443 64.14286 
1476.932617 64.909088 
1493.630981 88.330879 
1495.536987 57.133064 
1497.055054 59.266304 
1497.224487 54.728447 
1522.977783 65.761902 
1561.178101 54.132355 
1565.768555 68.206635 
1596.082031 73.64286 
1607.120972 81.632812 
1622.386719 132.198776 
1648.30957 69.28125 
1663.717896 81.45153 
1672.977295 66.889282 
1677.592407 45.002907 
1698.294434 47.034092 
END IONS

BEGIN IONS
RTINSECONDS=325.282013
CHARGE=1+
MSLEVEL=2
SMILES=C[C@@H]1OC(=O)/C=C/[C@H]([C@H]([C@@H](CCCCCCCCCC1)O)O)O
INCHI=InChI=1S/C18H32O5/c1-14-10-8-6-4-2-3-5-7-9-11-15(19)18(22)16(20)12-13-17(21)23-14/h12-16,18-20,22H,2-11H2,1H3/b13-12+/t14-,15+,16+,18-/m0/s1
INCHIKEY=KECCBFYFEOTIBV-KHDHUXSVSA-N
CLASS=Aliphatic and Cycloaliphatic Compounds
ADDUCT=[M+NH4]+
INSTRUMENT=Agilent Q-ToF 6530
PRECURSOR_MZ=346.2593
COMPOUND_NAME=Aspicilin
ION_MODE=positive
FORMULA=C18H32O5
105.070427 78736.46875 
107.085403 78677.03125 
109.101585 349370.65625 
115.039902 690095.625 
121.101143 98620.992188 
123.117165 221662.125 
179.180496 164536.953125 
189.164505 77251.40625 
191.179688 69420.476562 
197.191803 417672.78125 
209.190811 47627.367188 
229.199112 93925.578125 
247.206436 44269.132812 
257.191803 40055.351562 
275.20282 129720.273438 
293.213959 576297.875 
311.221161 1036006.4375 
311.24295 246683.953125 
329.235687 3594282.75 
432.321625 166.360291 
623.925049 184.068817 
737.375732 247.283585 
789.135132 221.0 
848.492859 180.449997 
861.68689 164.471161 
873.763855 171.73558 
935.792297 266.088776 
998.205627 173.579224 
1009.803467 189.375 
1114.252563 191.029755 
1383.961182 165.820312 
END IONS

BEGIN IONS
RTINSECONDS=361.596008
CHARGE=1+
MSLEVEL=2
SMILES=COc1cc2c(c(=O)oc(CCCCC)c2)c(OC)c1
INCHI=InChI=1S/C16H20O4/c1-4-5-6-7-12-8-11-9-13(18-2)10-14(19-3)15(11)16(17)20-12/h8-10H,4-7H2,1-3H3
INCHIKEY=NKYAIPHVDQBFLF-UHFFFAOYSA-N
CLASS=Cleavage Products of Depsides and Depsidones
ADDUCT=[2M+Na]+
INSTRUMENT=Agilent Q-ToF 6530
PRECURSOR_MZ=575.2621
COMPOUND_NAME="2,4-Di-O-methylolivetonide"
ION_MODE=positive
FORMULA=C16H20O4
107.854546 100.173912 
113.130295 77.765625 
116.710983 99.322365 
119.577118 91.111115 
126.223305 176.344177 
167.098694 156.035721 
179.831696 82.111366 
191.617935 82.760132 
196.342636 107.760056 
299.124359 633998.25 
299.992157 475.206299 
300.127289 23924.042969 
300.280334 963.985962 
300.344543 661.75177 
300.684723 536.961243 
372.976013 70.367424 
385.237518 119.472061 
436.183594 144.0 
436.231781 93.49128 
436.612549 94.002357 
436.690094 190.173615 
436.866699 85.4879 
438.225006 96.01786 
498.86734 102.9375 
519.789062 71.640961 
520.601807 72.0 
654.475403 213.136261 
668.965393 72.04808 
681.007812 260.653076 
700.913391 71.662735 
723.3526 80.14286 
724.940735 90.211205 
730.035583 64.10714 
754.460266 104.275002 
780.852234 69.076218 
792.223328 90.959999 
792.930664 70.206635 
821.633301 82.285713 
830.982239 77.675003 
840.443604 100.633774 
852.903564 117.891891 
856.722656 99.240387 
893.843201 80.025002 
921.149048 77.130432 
925.000854 117.444672 
926.384094 75.0 
944.398071 71.266304 
948.849182 61.155769 
981.284546 62.5625 
1001.284668 82.125 
1014.251282 76.001709 
1017.683899 59.080883 
1021.407532 62.047619 
1071.998413 63.802776 
1075.319824 77.632812 
1089.519409 90.889709 
1130.016113 70.349136 
1140.389282 123.090912 
1141.754517 70.0 
1154.895508 65.007355 
1175.293091 72.510414 
1187.856079 71.471153 
1207.471436 79.336113 
1215.505493 67.489998 
1244.68396 87.112503 
1254.491699 74.328949 
1271.516479 60.431122 
1276.295898 72.185608 
1278.343262 67.612503 
1312.78833 81.574326 
1329.251465 54.685974 
1349.086426 60.532894 
1362.191406 104.677818 
1365.541992 100.959999 
1382.944702 66.009613 
1383.845703 79.041664 
1423.087036 53.892857 
1433.132324 69.416664 
1452.766113 75.598686 
1504.357422 95.491379 
1504.464355 57.05357 
1510.994873 67.802635 
1537.876953 65.18409 
1538.27002 63.905487 
1559.661499 90.493423 
1565.996948 64.493423 
1593.38562 80.14286 
1598.455078 83.01786 
1627.659058 89.898148 
1651.608398 81.033333 
1664.61084 145.931335 
1678.7323 73.781776 
1691.269653 58.002048 
1693.612793 71.64286 
END IONS

BEGIN IONS
RTINSECONDS=262.769012
CHARGE=1+
MSLEVEL=2
SMILES=O=c1cc(C)oc2c1c(OC)cc(OC)c2C
INCHI=InChI=1S/C13H14O4/c1-7-5-9(14)12-11(16-4)6-10(15-3)8(2)13(12)17-7/h5-6H,1-4H3
INCHIKEY=MJHNYZONVLZSNB-UHFFFAOYSA-N
CLASS=Chromanes and Chromones
ADDUCT=[2M+Na]+
INSTRUMENT=Agilent Q-ToF 6530
PRECURSOR_MZ=491.1682
COMPOUND_NAME="2,8-Dimethyl-5,7-dimethoxychromone"
ION_MODE=positive
FORMULA=C13H14O4
121.357414 122.78125 
125.053032 103.125 
129.681213 85.035713 
138.026947 111.138512 
138.941895 143.321609 
177.116257 127.094231 
242.046768 6019.380371 
257.071869 489290.78125 
257.20813 1773.196533 
257.872009 622.524109 
258.074554 15277.524414 
258.283508 558.843262 
317.439178 127.009613 
326.629181 132.640457 
343.062256 111.681602 
369.947449 98.225746 
372.123413 89.028847 
373.606415 347.796295 
378.303101 158.289383 
424.670258 102.240669 
566.312744 87.001984 
571.760315 103.259262 
588.8573 102.508926 
612.234558 86.120094 
621.678833 111.885872 
635.14856 76.387817 
664.04425 122.016792 
685.186584 134.088882 
700.280151 85.484848 
705.438354 194.793472 
721.87915 100.474998 
735.073181 75.263161 
737.787903 71.347824 
763.497192 73.290321 
767.138428 64.708336 
789.656006 67.410004 
820.000671 84.456818 
846.384644 62.120369 
856.88269 102.016304 
864.266174 76.052635 
893.000366 69.779411 
897.361511 73.594391 
905.336121 90.368423 
915.827637 78.335526 
915.887451 66.26535 
932.189819 68.019737 
966.188232 74.384613 
982.052246 64.205002 
985.309387 91.171608 
1024.608032 74.032143 
1030.541382 72.01786 
1039.940308 72.71627 
1070.932861 75.880432 
1091.3302 70.014709 
1104.08313 226.45192 
1136.142456 53.190475 
1138.436157 56.889286 
1154.491211 52.565216 
1156.299683 74.639999 
1169.075562 136.401672 
1200.569336 52.089287 
1242.429443 50.032143 
1247.10022 55.315216 
1262.949219 66.130318 
1276.347656 63.545456 
1292.812012 73.615387 
1292.884766 71.010002 
1298.64978 129.600006 
1341.696045 75.013885 
1351.454834 62.367424 
1383.756714 85.324997 
1415.338501 86.903229 
1421.766846 54.490002 
1422.627319 101.445656 
1424.719238 58.185608 
1437.11438 66.111366 
1474.44812 54.125 
1486.090942 59.375 
1492.182861 64.141891 
1492.506836 101.952705 
1533.960693 56.25 
1551.444824 56.46154 
1569.785034 53.020832 
1581.466675 78.355392 
1598.032349 55.603573 
1619.859985 68.289284 
1636.498047 72.690002 
1658.147949 53.482143 
1681.121826 51.244999 
1682.655518 65.076218 
1694.093384 258.328369 
END IONS

BEGIN IONS
RTINSECONDS=248.516006
CHARGE=1+
MSLEVEL=2
PRECURSORINTENSITY=1561173.750000
SMILES=Cc1cc(=O)c2c(cc3c(C(=CC(=O)C3=O)OC)c2OC)o1
INCHI=InChI=1S/C16H12O6/c1-7-4-9(17)14-12(22-7)5-8-13(16(14)21-3)11(20-2)6-10(18)15(8)19/h4-6H,1-3H3
INCHIKEY=GESAVORGYOGKOW-UHFFFAOYSA-N
CLASS=Quinones
ADDUCT=[M+H]+
INSTRUMENT=Agilent Q-ToF 6530
PRECURSOR_MZ=301.0704
COMPOUND_NAME=Canarione dimethylether
ION_MODE=positive
FORMULA=C16H12O6
115.053711 3954.824463 
144.055389 16404.4375 
200.046494 78308.882812 
201.053879 49075.566406 
228.041992 44122.6875 
229.049133 132312.203125 
258.052124 50003.773438 
273.075165 121299.5 
445.03186 69.719337 
453.641205 71.290321 
459.129852 71.265625 
459.637054 84.446426 
466.1763 100.223213 
472.684967 95.131493 
501.62207 77.523552 
515.367493 54.102272 
539.226013 72.015625 
552.13916 63.032143 
558.471863 46.779411 
566.824036 68.132355 
574.389771 38.242645 
614.8526 37.204544 
630.736023 74.681816 
669.575439 73.034088 
671.510254 44.840908 
713.596619 37.041668 
732.922974 42.322369 
742.607361 94.0 
750.65094 47.190475 
796.960938 47.416668 
798.122253 186.290909 
806.633911 52.003204 
820.732788 53.003571 
822.657532 47.18182 
828.592407 73.939651 
910.707703 155.540176 
934.808289 58.408783 
941.197144 152.213028 
975.305542 42.605 
991.440918 39.005951 
1010.864868 47.882355 
1082.323975 49.799999 
1114.321777 45.265625 
1126.05603 102.833336 
1129.206177 42.75 
1142.383789 102.239998 
1194.082886 38.556034 
1196.933472 107.160713 
1226.467896 88.01667 
1296.355713 45.852272 
1313.078491 47.157051 
1314.494873 167.0 
1334.267334 79.960106 
1344.954468 105.632812 
1373.701904 137.568176 
1386.75647 37.840908 
1429.699707 45.939518 
1430.3302 49.113636 
1471.08374 49.012501 
1477.676636 43.003571 
1501.868652 67.04348 
1521.21814 66.900421 
1543.033691 45.017857 
1561.737183 50.160713 
1610.455444 45.030407 
1618.453491 37.337963 
1628.035034 45.575001 
1638.829712 48.045456 
1654.468506 44.337963 
1667.833008 69.444443 
END IONS

BEGIN IONS
RTINSECONDS=381.200989
CHARGE=1+
MSLEVEL=2
PRECURSORINTENSITY=207463.531250
SMILES=Cc1cc(OC)cc2c1c(=O)c1c(cc(O)c(Cl)c1O)o2
INCHI=InChI=1S/C15H11ClO5/c1-6-3-7(20-2)4-9-11(6)14(18)12-10(21-9)5-8(17)13(16)15(12)19/h3-5,17,19H,1-2H3
INCHIKEY=VZYXHXRKFKLWJI-UHFFFAOYSA-N
CLASS=Xanthones and bis-Xanthones
ADDUCT=[M+H]+
INSTRUMENT=Agilent Q-ToF 6530
PRECURSOR_MZ=307.035
COMPOUND_NAME=2-Chloro-6-O-methylnorlichexanthone
ION_MODE=positive
FORMULA=C15H11ClO5
101.358368 72.530663 
107.088539 70.30867 
142.96669 87.625 
149.055176 79.053574 
187.217163 109.765625 
191.092499 135.840271 
200.057083 132.801666 
218.011749 169.837021 
233.073975 1037.044556 
248.97168 145.149994 
263.010193 2256.484375 
264.011261 1777.9104 
390.127625 43.135868 
396.323914 40.529411 
405.019775 45.390625 
421.324097 39.907257 
436.448639 68.247643 
437.846375 36.375 
496.046173 44.076923 
507.208771 41.125 
517.860718 34.480263 
527.170166 36.107758 
546.784241 38.125 
552.481873 46.805 
569.242676 56.573978 
598.272888 63.799999 
599.468323 41.222221 
650.467224 51.044998 
659.810852 58.320122 
666.41803 58.833332 
669.135559 53.263157 
671.499817 79.842102 
692.840332 56.23148 
754.789795 35.113636 
756.856812 85.036018 
776.380249 32.022728 
789.174744 41.013889 
809.858032 34.036289 
839.193359 36.273647 
851.446655 79.013161 
862.181152 35.881096 
871.690552 49.680557 
881.224792 71.881096 
891.128052 42.969826 
937.831177 33.458332 
942.399353 27.6 
947.123596 31.125 
962.748413 61.841217 
1005.516418 54.852272 
1011.253113 44.805 
1059.583496 34.125 
1061.351685 54.003571 
1070.031738 35.25 
1080.825439 33.969826 
1107.772827 45.032143 
1117.363281 47.44643 
1136.141846 53.028847 
1139.247192 42.363636 
1181.815674 28.349138 
1191.308105 29.226852 
1191.665405 36.008335 
1206.032593 29.242647 
1235.187256 32.014706 
1264.526978 25.889706 
1272.711426 41.25 
1289.062256 51.072674 
1296.036621 52.017857 
1308.650513 48.200001 
1316.52124 35.404999 
1324.863037 29.390625 
1349.454468 56.81686 
1374.998413 34.845001 
1390.455688 42.470589 
1405.939941 30.003571 
1410.351196 73.346313 
1422.630371 43.367424 
1436.029175 32.53125 
1461.034302 26.13587 
1476.287476 53.657608 
1479.0354 31.9 
1487.616699 29.347221 
1547.192627 50.939518 
1554.288696 38.11842 
1558.327148 36.272728 
1572.93811 26.076923 
1586.552002 36.5625 
1608.950806 33.07143 
1643.301392 126.01786 
1657.103394 76.406914 
1659.666504 57.416668 
1672.798096 24.444445 
1683.699219 58.889286 
1696.904297 25.408333 
END IONS

BEGIN IONS
RTINSECONDS=403.510986
CHARGE=1+
MSLEVEL=2
PRECURSORINTENSITY=326659.937500
SMILES=O=c1c2c(oc3c1c(C)cc(OC)c3Cl)c(Cl)c(O)c(Cl)c2O
INCHI=InChI=1S/C15H9Cl3O5/c1-4-3-5(22-2)8(16)14-6(4)11(19)7-12(20)9(17)13(21)10(18)15(7)23-14/h3,20-21H,1-2H3
INCHIKEY=SMLUHOHPDVBXKH-UHFFFAOYSA-N
CLASS=Xanthones and bis-Xanthones
ADDUCT=[M+H]+
INSTRUMENT=Agilent Q-ToF 6530
PRECURSOR_MZ=374.9573
COMPOUND_NAME=6-O-Methylarthothelin
ION_MODE=positive
FORMULA=C15H9Cl3O5
108.984711 83.25 
111.038048 117.5 
114.040291 98.370613 
129.065079 125.727943 
149.027252 175.183823 
160.031281 143.232559 
203.99324 203.916962 
223.003799 341.0625 
232.998383 374.349152 
296.967926 6050.37793 
321.979004 8127.779785 
330.930725 22478.595703 
331.937256 38508.136719 
339.986877 20101.097656 
467.962921 75.08036 
472.202454 83.083336 
480.15799 56.80357 
524.988647 44.130318 
529.996094 72.571426 
533.809143 42.115742 
547.396057 56.008335 
548.841248 59.066666 
580.355347 51.107143 
597.870056 50.326614 
601.841553 44.235294 
624.679138 45.570946 
626.031311 83.209999 
634.272705 52.142857 
669.775879 125.444771 
691.956055 44.907257 
710.892578 76.5625 
717.959839 39.25 
733.529358 40.035713 
791.623718 81.008621 
806.593933 56.259617 
810.33728 54.487904 
812.274231 60.328949 
841.764404 68.041664 
842.831909 69.462837 
861.724243 51.761364 
888.190186 38.111111 
910.701294 37.969826 
921.88269 33.07143 
922.089783 36.785713 
948.503479 42.785713 
985.854919 168.025406 
994.583923 46.23077 
995.930115 39.796051 
1001.309448 36.520832 
1029.771118 66.551468 
1066.224365 35.211208 
1067.267334 35.160713 
1070.079102 39.020832 
1087.747925 88.889282 
1110.762939 101.878426 
1118.892578 40.016666 
1148.336426 63.603573 
1150.672852 111.5 
1184.077393 46.84375 
1209.044189 40.387821 
1219.7052 56.693966 
1223.77478 78.635201 
1234.4104 44.892857 
1286.790894 58.041668 
1291.428467 50.939518 
1298.060669 43.462837 
1318.160156 52.689999 
1351.582764 40.224998 
1353.917236 37.204544 
1356.389771 43.961956 
1371.211182 47.017857 
1393.934326 64.669441 
1429.276978 59.083332 
1447.362183 55.185608 
1456.47876 31.333334 
1478.497925 35.603573 
1481.912476 54.040001 
1513.447388 37.016666 
1521.004395 91.089287 
1548.117065 84.884804 
1564.125854 66.653984 
1570.870117 48.148811 
1584.824829 47.1875 
1586.931396 54.901318 
1630.967041 79.111115 
1646.288818 57.727272 
1654.22998 58.637196 
1660.436157 44.779411 
1667.338745 42.976353 
1674.315308 72.387817 
END IONS

BEGIN IONS
RTINSECONDS=549.825989
CHARGE=1+
MSLEVEL=2
PRECURSORINTENSITY=7985313.000000
SMILES=CC1(C)C2[C@@](CCC1)(C)[C@H]1CC[C@@H]3[C@@]4(C)CC[C@H](C(C)(O)C)[C@@H]4CC[C@@]3(C)[C@]1(C)CC2=O
INCHI=InChI=1S/C30H50O2/c1-25(2)14-9-15-28(6)23-11-10-22-27(5)16-12-19(26(3,4)32)20(27)13-17-29(22,7)30(23,8)18-21(31)24(25)28/h19-20,22-24,32H,9-18H2,1-8H3/t19-,20-,22+,23+,24?,27-,28+,29+,30+/m0/s1
INCHIKEY=MAVUFYZBQWGXHD-GZTHSXTLSA-N
CLASS=Terpenoids : Triterpenes
ADDUCT=[M+H]+
INSTRUMENT=Agilent Q-ToF 6530
PRECURSOR_MZ=443.3825
COMPOUND_NAME=22-hydroxy-6-hopanone
ION_MODE=positive
FORMULA=C30H50O2
109.082703 81588.28125 
121.089157 70059.117188 
149.13028 103693.742188 
161.13063 72375.359375 
163.145874 87203.742188 
177.161148 107619.179688 
191.177032 142898.5625 
203.176697 216749.09375 
217.190872 225506.59375 
221.187088 92489.21875 
271.238281 15662.945312 
311.266205 16228.041016 
315.26236 7805.22998 
329.276306 16024.463867 
367.33078 50744.441406 
369.306335 5641.838379 
385.3414 36957.441406 
407.358948 69885.867188 
425.372711 217388.71875 
426.375885 125328.578125 
502.726532 29.011906 
538.36908 35.285713 
545.285034 29.671297 
578.072449 27.0 
578.535706 93.841217 
589.408569 24.125 
604.739563 39.408783 
612.156494 54.308823 
651.664307 49.75 
679.0625 46.100609 
692.369751 158.46022 
692.449341 64.235466 
731.232239 47.227272 
748.098816 28.692308 
764.060425 59.157051 
765.77655 42.445 
810.540344 42.612804 
827.636719 29.222826 
841.807922 28.003788 
854.619873 48.0 
867.47113 32.083332 
890.251892 30.76923 
906.282349 27.4 
907.446106 35.142857 
910.263977 49.003204 
939.712097 32.222828 
949.143066 26.125 
970.865784 24.446428 
973.275146 26.728449 
1001.33606 26.446428 
1030.371216 20.532894 
1060.399414 26.446428 
1064.374512 23.875 
1122.46936 25.1875 
1130.578125 25.125 
1140.395752 24.961956 
1173.716797 65.165695 
1178.692383 32.778847 
1186.803833 30.164474 
1194.506714 38.367424 
1243.393555 55.875 
1251.528076 53.375 
1283.972656 22.025 
1298.081055 23.1 
1310.845337 20.160715 
1343.020386 22.307692 
1343.442871 21.005953 
1345.744263 40.375 
1393.175537 24.245001 
1407.522705 37.25 
1419.315674 25.053572 
1438.537842 27.058823 
1449.235229 39.020832 
1476.446899 26.923077 
1495.57605 29.285715 
1522.398071 26.148809 
1533.519409 52.198528 
1535.417603 38.035713 
1561.042358 41.761364 
1571.730103 25.004311 
1581.907227 24.0 
1590.874023 23.375 
1626.112549 30.375 
1640.747559 28.004311 
1657.739258 31.471153 
1659.296021 26.020834 
1662.000977 44.099998 
1668.610107 29.5625 
END IONS

BEGIN IONS
RTINSECONDS=403.371002
CHARGE=1+
MSLEVEL=2
PRECURSORINTENSITY=4514639.000000
SMILES=O=c1c2c(cc(OC)c(Cl)c2OC)oc2c1c(cc(c2Cl)OC)C
INCHI=InChI=1S/C17H14Cl2O5/c1-7-5-9(21-2)14(19)17-11(7)15(20)12-8(24-17)6-10(22-3)13(18)16(12)23-4/h5-6H,1-4H3
INCHIKEY=QCVBBEYCXWJERE-UHFFFAOYSA-N
CLASS=Xanthones and bis-Xanthones
ADDUCT=[M+H]+
INSTRUMENT=Agilent Q-ToF 6530
PRECURSOR_MZ=369.0307
COMPOUND_NAME="2,5-Dichlor-1,3,6-tri-O-methylnorlichexanthone"
ION_MODE=positive
FORMULA=C17H14Cl2O5
111.004204 167.637192 
127.070282 188.625 
128.060837 289.591858 
154.016373 333.891144 
155.051163 336.385498 
233.036118 2805.40625 
247.018051 2910.231201 
290.034088 33455.5 
291.043579 15487.670898 
310.987305 16749.375 
325.00412 54824.074219 
427.917206 124.40625 
431.589874 77.0 
467.875488 61.662235 
477.192627 43.796051 
536.160217 37.111488 
544.567932 52.017857 
545.48114 39.041668 
572.463318 56.115742 
585.001465 44.075001 
597.761414 50.072674 
615.299744 96.012497 
623.44812 42.00338 
658.464355 42.760136 
658.924683 130.600006 
686.75592 37.244999 
715.904663 57.695515 
728.672546 49.200001 
737.083801 57.816666 
761.888916 53.432144 
769.196289 47.160713 
772.391296 68.761902 
807.854187 64.583336 
814.549805 41.391129 
862.845886 31.694445 
867.100037 40.289288 
879.289062 48.570652 
889.618225 31.840117 
923.209106 100.78125 
940.4198 50.115742 
957.379028 50.09375 
965.109131 50.336113 
997.823975 47.75 
1004.873962 41.416668 
1005.749084 40.449467 
1059.234009 57.48077 
1060.639282 179.149994 
1060.72937 40.075001 
1066.260742 43.140625 
1113.202271 68.185608 
1150.813477 50.5 
1157.287964 44.125 
1161.664917 45.025002 
1161.927979 121.702705 
1182.961792 67.469444 
1214.442871 32.135868 
1250.756104 43.408783 
1262.325439 31.028847 
1314.387939 37.642857 
1315.580933 31.164474 
1315.658447 44.224998 
1327.760498 45.005001 
1350.623413 35.361111 
1363.729736 51.339287 
1370.155273 30.307692 
1401.983154 91.555771 
1403.198853 32.875 
1435.014771 132.005432 
1462.319946 41.337963 
1465.123657 38.693966 
1470.198608 78.375 
1471.11084 47.400002 
1510.548584 45.004032 
1525.827515 45.30682 
1528.641479 34.094696 
1576.030518 38.367424 
1593.912964 60.5625 
1597.053223 50.041668 
1598.059326 49.512501 
1611.414062 35.39674 
1621.815674 33.265625 
END IONS

BEGIN IONS
RTINSECONDS=307.049988
CHARGE=1+
MSLEVEL=2
PRECURSORINTENSITY=131217.421875
SMILES=O=c1cc(C)oc2c1c(O)c(C)c(O)c2C
INCHI=InChI=1S/C12H12O4/c1-5-4-8(13)9-11(15)6(2)10(14)7(3)12(9)16-5/h4,14-15H,1-3H3
INCHIKEY=ODNMTIVRLHXQTE-UHFFFAOYSA-N
CLASS=Chromanes and Chromones
ADDUCT=[M+H]+
INSTRUMENT=Agilent Q-ToF 6530
PRECURSOR_MZ=221.0819
COMPOUND_NAME="5,7-Dihydroxy-2,6,8-trimethylchromone"
ION_MODE=positive
FORMULA=C12H12O4
105.044235 753.765442 
107.106422 1303.971924 
119.08709 1054.235962 
135.047195 3411.0625 
151.061768 2051.281982 
175.036697 2406.312012 
181.044525 2671.179932 
294.839172 49.44643 
331.187103 64.198532 
339.790833 96.227272 
339.865601 37.337963 
365.282166 38.0 
372.810883 37.444443 
409.849335 39.173077 
427.218201 90.0 
448.526062 85.002274 
477.287628 38.240383 
481.947723 48.080128 
486.664307 43.666668 
506.136627 67.333336 
519.164917 41.016666 
531.27356 48.55682 
567.409668 39.816666 
568.073853 39.048912 
572.725586 88.972977 
624.828613 43.005436 
637.654114 70.112503 
640.122681 43.041668 
660.800537 89.5625 
668.950867 57.058823 
678.285156 52.816666 
706.700928 44.390625 
715.468445 51.727272 
735.498596 33.038792 
740.829773 198.242645 
740.939148 35.0 
794.094543 55.289288 
803.610718 32.5625 
805.067444 38.400002 
807.636353 54.894737 
856.731812 42.976353 
856.920776 51.036289 
864.616882 34.390625 
899.737915 35.090908 
904.346008 35.183823 
919.050293 34.111111 
925.264099 36.041668 
946.994141 29.6875 
950.852661 30.148809 
960.847351 28.75 
1010.186584 23.102272 
1017.982178 29.39674 
1038.134277 21.920454 
1070.604858 21.568182 
1076.038452 26.086538 
1086.974365 42.027439 
1095.293091 23.75 
1115.356201 47.013889 
1121.892334 29.048914 
1126.087402 27.118422 
1161.750977 38.044998 
1176.215332 40.75 
1202.646118 29.326612 
1205.425781 47.149391 
1222.321045 49.375 
1275.723145 34.00658 
1282.453369 70.521736 
1284.58728 49.592106 
1288.241821 89.800003 
1304.335449 75.408333 
1308.037842 64.160713 
1335.927002 35.363636 
1341.199463 26.020834 
1361.637573 61.297619 
1367.624512 26.333334 
1403.731201 45.367424 
1424.077271 26.4 
1427.261353 21.777779 
1432.310059 25.01923 
1437.179932 22.13587 
1494.751953 28.25 
1499.314331 29.674999 
1509.131836 38.720238 
1509.207642 50.090908 
1513.749634 40.78125 
1537.512939 36.007355 
1572.651855 24.125 
1574.446777 23.007353 
1583.134155 32.208332 
1595.911865 31.05921 
1638.270142 23.844999 
1640.393066 27.204546 
1648.424927 47.205002 
1663.873047 29.053572 
1672.561035 44.066177 
1692.186157 24.408333 
END IONS

BEGIN IONS
RTINSECONDS=348.65799
CHARGE=1+
MSLEVEL=2
PRECURSORINTENSITY=4025998.750000
SMILES=C[C@H]1CC(=O)C2=C(c3c(ccc(c3O)c3c(c4c(cc3)O[C@]3([C@@H]([C@H](CC(=O)C3=C4O)C)O)C(=O)OC)O)O[C@]2([C@@H]1O)C(=O)OC)O
INCHI=InChI=1S/C32H30O14/c1-11-9-15(33)21-25(37)19-17(45-31(21,27(11)39)29(41)43-3)7-5-13(23(19)35)14-6-8-18-20(24(14)36)26(38)22-16(34)10-12(2)28(40)32(22,46-18)30(42)44-4/h5-8,11-12,27-28,35-40H,9-10H2,1-4H3/t11-,12-,27+,28+,31+,32+/m0/s1
INCHIKEY=NFZJAYYORNVZNI-OCHURCMPSA-N
CLASS=Xanthones and bis-Xanthones
ADDUCT=[M+H]+
INSTRUMENT=Agilent Q-ToF 6530
PRECURSOR_MZ=639.1686
COMPOUND_NAME=Secalonic acid D
ION_MODE=positive
FORMULA=C32H30O14
123.044479 111248.203125 
151.038681 210789.015625 
155.06842 45950.726562 
161.021744 28622.609375 
183.064651 248836.890625 
193.048401 234476.15625 
211.05899 22478.105469 
245.044037 5000.845215 
271.032898 6044.041504 
279.072113 2282.567383 
323.089905 4760.359863 
349.077087 10658.209961 
351.082764 22869.734375 
369.094666 10990.825195 
377.064301 159881.859375 
395.075806 11415.900391 
405.061249 23511.361328 
437.094818 24544.347656 
455.094482 138128.625 
469.089905 44961.695312 
483.104279 134565.09375 
501.115631 196764.46875 
502.125641 65823.3125 
511.101776 79159.265625 
543.128235 112454.492188 
561.136719 444312.34375 
579.147522 256829.734375 
589.131165 283202.65625 
621.156677 250984.609375 
850.263245 183.272064 
859.957275 239.523651 
866.397888 195.172409 
1095.287231 203.357666 
1500.297241 225.929214 
END IONS

BEGIN IONS
RTINSECONDS=259.143005
CHARGE=1+
MSLEVEL=2
PRECURSORINTENSITY=1830443.375000
SMILES=Oc1c2c([C@@H](OC)[C@H](C)OC2=O)c(O)c2c1C(=O)C=C(OC)C2=O
INCHI=InChI=1S/C16H14O8/c1-5-15(23-3)10-11(16(21)24-5)13(19)8-6(17)4-7(22-2)12(18)9(8)14(10)20/h4-5,15,19-20H,1-3H3/t5-,15-/m0/s1
INCHIKEY=WPHIVUBMBWBSCK-SPHRHWQCSA-N
CLASS=Quinones
ADDUCT=[M+H]+
INSTRUMENT=Agilent Q-ToF 6530
PRECURSOR_MZ=335.0751
COMPOUND_NAME=Methoxyhaemoventosine
ION_MODE=positive
FORMULA=C16H14O8
115.116646 511.841217 
130.059418 350.698273 
159.029373 442.508942 
173.045944 541.037476 
205.051743 928.189575 
242.018967 3424.199951 
257.042847 9620.367188 
277.031769 66436.648438 
285.037445 19595.902344 
303.056335 53549.328125 
317.062988 122885.390625 
416.07605 32.034092 
445.440125 34.39674 
452.265625 26.004999 
468.172943 33.796051 
469.90332 54.489864 
478.288544 39.041668 
507.230621 97.986938 
517.970886 36.0 
530.712158 33.244999 
533.768799 33.961956 
558.03479 54.55682 
571.347595 34.036289 
620.86731 35.272728 
657.040161 44.28125 
657.577942 33.375 
661.643677 44.265625 
664.264893 46.133064 
677.086731 38.140625 
713.201355 36.005001 
715.489624 37.520832 
756.347595 27.416666 
761.178894 22.694445 
766.275391 33.083332 
815.795776 25.796053 
830.815796 67.211205 
834.545044 38.485294 
843.541748 30.333334 
843.991211 56.0 
867.404419 34.107758 
895.405762 34.132355 
940.251343 34.5625 
943.960022 41.445 
948.090332 36.173077 
955.744507 31.408333 
957.93396 193.314285 
1009.372681 22.13587 
1011.918213 20.11574 
1040.121704 40.570946 
1051.819336 21.333334 
1088.873047 21.113636 
1090.857422 21.075001 
1091.61377 58.041668 
1107.192627 23.920454 
1150.020874 31.285715 
1158.563965 31.1 
1170.327637 33.0 
1209.909668 27.225 
1214.101196 40.923077 
1222.011841 28.027779 
1230.33606 34.674999 
1261.704102 51.125 
1264.4198 33.720238 
1319.774048 32.57143 
1322.902832 37.901318 
1342.780762 40.005951 
1363.130371 53.263157 
1378.62085 37.0 
1388.036133 41.094696 
1417.195801 35.799999 
1419.900024 34.102272 
1441.597412 47.040001 
1470.270508 26.681452 
1491.030884 32.041668 
1506.266113 27.083334 
1517.624023 29.361111 
1525.965698 34.280174 
1531.768188 31.1 
1541.010376 49.003571 
1564.75769 53.404999 
1574.992798 30.568182 
1604.999268 24.13587 
1607.182495 51.375 
1628.414795 28.05921 
1633.62146 20.666666 
1654.11853 34.375 
1679.105103 19.322369 
1691.725098 42.560184 
END IONS

BEGIN IONS
RTINSECONDS=555.153992
CHARGE=1+
MSLEVEL=2
PRECURSORINTENSITY=380730.781250
SMILES=CC1(C)C2CC(=O)[C@@]3([C@@H]([C@]2(CCC1)C)CC[C@@H]1[C@@]2(C)CC[C@H](C(C)(O)C)[C@@H]2CC[C@@]31C)C
INCHI=InChI=1S/C30H50O2/c1-25(2)14-9-15-28(6)22-11-10-21-27(5)16-12-19(26(3,4)32)20(27)13-17-29(21,7)30(22,8)24(31)18-23(25)28/h19-23,32H,9-18H2,1-8H3/t19-,20-,21+,22+,23?,27-,28+,29+,30-/m0/s1
INCHIKEY=ZEVZEKQZSJYHOF-GMXIBUEMSA-N
CLASS=Terpenoids : Triterpenes
ADDUCT=[M+H]+
INSTRUMENT=Agilent Q-ToF 6530
PRECURSOR_MZ=443.38
COMPOUND_NAME=22-hydroxy-7-hopanone
ION_MODE=positive
FORMULA=C30H50O2
107.128372 7831.604004 
109.083244 12223.841797 
121.099739 9043.493164 
123.080894 16180.166992 
135.114441 9841.548828 
163.145966 7942.156738 
177.162277 5824.722168 
189.160004 5101.967285 
229.189819 1623.994141 
245.22171 1430.844727 
269.22348 3383.9729 
271.237244 1363.392456 
283.207672 1187.950684 
287.237946 1974.306274 
367.333099 6017.42041 
368.469452 278.061554 
407.364014 14938.495117 
425.373108 29159.771484 
515.39032 154.629623 
527.23999 120.923912 
551.059753 141.030945 
604.66333 118.448273 
610.922791 116.633331 
630.091492 139.176468 
632.931335 165.281662 
650.732849 179.827209 
666.449402 129.273056 
716.471985 130.617996 
720.040161 135.024994 
732.571594 124.8834 
736.292542 154.155167 
775.85376 133.805328 
779.503296 148.10527 
797.045471 210.199997 
804.257263 122.422226 
846.331421 126.117645 
869.494751 135.07843 
875.976868 134.960007 
892.711243 136.59314 
895.305847 125.130432 
908.696594 161.82843 
952.265076 144.02063 
985.253906 120.322365 
991.058228 118.037651 
1021.654236 163.742432 
1029.204712 122.680084 
1039.542847 123.284088 
1061.845581 128.001175 
1069.676758 139.529495 
1078.999512 123.014244 
1116.221802 129.4375 
1131.187378 132.232697 
1142.393799 137.410263 
1166.972046 118.901314 
1179.713501 126.015411 
1191.117798 132.46521 
1210.164307 118.40625 
1216.209717 119.272728 
1241.579834 133.98027 
1257.494141 117.840912 
1273.169067 114.25 
1273.942139 140.258072 
1277.251221 116.430557 
1328.165283 126.031563 
1348.092896 129.183823 
1372.699463 131.758499 
1383.247559 133.17308 
1389.213379 119.094231 
1434.481567 129.219208 
1438.938965 123.71627 
1471.50708 111.448273 
1480.384277 119.330879 
1492.661011 125.445 
1498.340088 115.125 
1525.212158 119.371948 
1531.872681 115.689651 
1576.233521 143.734756 
1580.595459 118.555855 
1597.161499 119.165985 
1613.697021 126.446426 
1616.543457 126.720505 
1631.797241 144.415237 
1651.295166 124.166046 
1670.186768 115.11364 
END IONS

BEGIN IONS
RTINSECONDS=436.281006
CHARGE=1+
MSLEVEL=2
PRECURSORINTENSITY=66070.062500
SMILES=O=c1c2c(oc3c1c(C)cc(OC)c3Cl)c(Cl)c(OC)c(Cl)c2OC
INCHI=InChI=1S/C17H13Cl3O5/c1-6-5-7(22-2)10(18)15-8(6)13(21)9-14(23-3)11(19)17(24-4)12(20)16(9)25-15/h5H,1-4H3
INCHIKEY=WIWXESWGHSIZFN-UHFFFAOYSA-N
CLASS=Xanthones and bis-Xanthones
ADDUCT=[M+H]+
INSTRUMENT=Agilent Q-ToF 6530
PRECURSOR_MZ=402.9876
COMPOUND_NAME="1,3,6-tri-O-methylarthothelin"
ION_MODE=positive
FORMULA=C17H13Cl3O5
109.638268 97.556816 
111.210907 87.089996 
139.03215 172.44458 
149.206696 108.166664 
158.878357 62.011364 
162.020844 70.820457 
213.062454 63.764706 
217.054779 122.333336 
236.607758 90.297623 
237.955994 85.920456 
258.973633 86.765625 
310.955994 383.555908 
316.924988 262.33197 
323.991058 861.113647 
325.027832 384.125 
344.948944 989.202271 
468.52533 69.0 
473.954834 57.010418 
477.813507 43.244999 
494.193115 40.78125 
536.171265 45.00658 
548.872253 28.160715 
565.638245 39.57143 
587.176758 51.367424 
607.116943 24.225 
615.854492 28.520834 
621.304688 41.164474 
662.584961 29.125 
665.820312 25.440218 
719.776001 28.016666 
721.92926 29.066668 
722.301697 48.016666 
735.480957 66.074997 
740.059082 52.802776 
767.878967 54.761906 
771.196594 43.115742 
794.296875 35.880436 
804.744812 38.765625 
805.865234 59.5625 
852.399719 44.923077 
853.793274 72.223213 
865.744995 39.900864 
898.624817 154.845001 
904.275208 42.599998 
919.981812 50.761906 
926.502747 37.083332 
941.126404 34.059212 
962.290588 32.285713 
964.670898 29.107759 
1040.974854 51.149391 
1064.506958 30.0625 
1065.50647 33.036289 
1096.53064 51.24662 
1098.681763 33.81818 
1103.537109 64.028847 
1134.469849 32.148811 
1183.239502 29.142857 
1195.714111 69.008331 
1198.263306 43.041668 
1200.414062 33.1875 
1230.07605 44.375 
1255.684448 49.603573 
1255.759277 26.027779 
1301.973755 52.25 
1320.08374 35.266666 
1321.460449 49.721153 
1352.85437 41.005951 
1356.731567 78.612503 
1362.821533 60.072674 
1399.018799 40.266666 
1402.725464 56.328949 
1431.493896 104.574997 
1449.132324 46.291668 
1465.565186 32.408333 
1481.605591 37.907257 
1486.971191 36.693966 
1497.494019 40.799999 
1536.750488 61.80357 
1549.903442 30.446428 
1563.53125 65.048912 
1576.96521 52.0 
1586.816406 43.44643 
1591.72876 50.785713 
1614.116089 98.206635 
1635.905518 43.557693 
1655.333374 43.845001 
1657.436646 37.173077 
1673.291016 39.404999 
1685.736572 32.408333 
1689.182861 33.022728 
END IONS

BEGIN IONS
RTINSECONDS=315.085999
CHARGE=1+
MSLEVEL=2
PRECURSORINTENSITY=828983.312500
SMILES=Cc1cc(=O)c2c(o1)c(c(c(c2O)C)O)Cl
INCHI=InChI=1S/C11H9ClO4/c1-4-3-6(13)7-9(14)5(2)10(15)8(12)11(7)16-4/h3,14-15H,1-2H3
INCHIKEY=OFIWISPGMYFUGQ-UHFFFAOYSA-N
CLASS=Chromanes and Chromones
ADDUCT=[M+H]+
INSTRUMENT=Agilent Q-ToF 6530
PRECURSOR_MZ=241.0281
COMPOUND_NAME=Rupicolin (sordidone)
ION_MODE=positive
FORMULA=C11H9ClO4
102.876762 5843.162598 
103.052147 9697.443359 
126.978447 8294.180664 
155.043777 21436.912109 
177.034256 10978.246094 
198.976547 32768.3125 
200.99144 31261.552734 
205.045334 21301.539062 
206.052567 14955.004883 
327.283173 47.111488 
341.618286 68.076218 
345.755066 124.0 
362.707642 45.670456 
369.48526 47.670456 
369.874878 47.066666 
412.90213 46.76923 
433.692932 82.515244 
439.126038 60.890625 
443.463531 40.25 
466.5383 109.721153 
501.123108 77.005951 
519.832214 106.125 
526.599731 37.142857 
562.616882 32.090908 
569.743286 98.669121 
577.943054 140.151123 
612.599365 42.032143 
630.045959 31.455645 
644.642639 31.721153 
649.454651 50.185608 
652.75708 45.454544 
672.824951 44.125 
698.129272 103.816864 
701.461731 41.692307 
728.679688 104.601669 
749.000549 56.5625 
771.670105 70.165543 
793.577698 110.15625 
801.182312 44.005001 
819.179626 67.339287 
829.337585 73.157051 
856.362854 27.0 
885.918884 24.025 
887.568542 23.049999 
898.431519 29.0 
911.899536 24.225 
915.269836 22.480263 
938.236084 89.925003 
1022.356201 38.852272 
1025.28833 31.4 
1028.920532 42.444443 
1029.945068 76.800003 
1060.213745 50.487904 
1078.30603 57.520832 
1101.155273 26.0 
1101.520752 24.322369 
1104.912842 92.008331 
1108.936523 24.015625 
1166.419678 55.55682 
1166.497192 26.291666 
1167.818726 26.720238 
1197.360596 29.778225 
1200.634521 25.125 
1223.130005 68.445 
1252.318115 24.367647 
1252.653687 27.75 
1275.191528 24.458334 
1285.897705 23.086538 
1294.587158 24.53125 
1329.064331 48.0625 
1354.575195 56.875 
1355.901733 24.15 
1397.875977 27.521551 
1405.627075 28.291666 
1444.86853 23.01923 
1449.600464 21.889706 
1475.713257 23.416666 
1498.50354 25.642857 
1506.192993 34.333332 
1514.525513 34.013157 
1514.637695 42.012501 
1546.372803 61.011364 
1546.505859 29.532894 
1574.497559 34.164474 
1605.722168 22.004629 
1625.280884 25.0 
1627.466431 23.01923 
1678.93689 23.125 
END IONS

BEGIN IONS
RTINSECONDS=369.622986
CHARGE=1+
MSLEVEL=2
PRECURSORINTENSITY=262118.625000
SMILES=Cc1cc(O)c2c(C(=O)c3cc(O)cc(O)c3C2=O)c1
INCHI=InChI=1S/C15H10O5/c1-6-2-8-12(10(17)3-6)15(20)13-9(14(8)19)4-7(16)5-11(13)18/h2-5,16-18H,1H3
INCHIKEY=RHMXXJGYXNZAPX-UHFFFAOYSA-N
CLASS=Quinones
ADDUCT=[M+H]+
INSTRUMENT=Agilent Q-ToF 6530
PRECURSOR_MZ=271.0602
COMPOUND_NAME=Emodin
ION_MODE=positive
FORMULA=C15H10O5
115.265091 5819.382812 
117.049606 1897.821167 
135.044662 5823.520508 
141.170151 8799.431641 
145.132141 6996.273438 
169.080231 11164.394531 
173.061005 12415.108398 
197.069412 21709.847656 
201.054337 10035.847656 
225.054932 12230.413086 
229.048233 22870.6875 
332.416199 48.016666 
333.312683 49.058823 
366.671021 87.248077 
374.840027 45.003571 
383.113159 44.003571 
393.176147 53.80357 
415.887329 56.120098 
449.163086 47.598404 
452.98291 34.025002 
454.897491 52.245689 
505.106262 45.115742 
520.001831 62.721153 
522.920105 261.0625 
548.021851 57.680557 
555.293335 59.685974 
556.315369 50.09 
578.500977 46.642857 
633.558838 36.0 
639.112915 49.560184 
674.043335 40.44643 
683.93042 35.027779 
690.007996 48.41346 
706.209106 33.720238 
727.485718 31.6 
751.021362 36.066666 
762.393188 48.002777 
797.20636 36.244999 
803.227051 60.165985 
803.32074 42.575001 
842.089966 43.532894 
846.515381 75.34375 
860.539368 32.0 
862.061707 33.00658 
862.319275 37.363636 
905.054382 46.0 
916.550049 51.640625 
918.036255 135.22377 
928.060547 47.888889 
939.585754 48.112499 
999.495361 74.410004 
1014.463989 119.155769 
1035.408569 58.41346 
1042.650146 74.160004 
1043.835938 82.695511 
1061.050903 69.094231 
1066.542725 49.005436 
1099.499023 41.020454 
1106.240479 55.360001 
1151.195068 25.004311 
1158.232422 30.9 
1165.99231 24.038794 
1175.776489 24.520834 
1209.80896 57.066666 
1229.410889 49.480263 
1233.713013 30.532894 
1260.304077 39.44643 
1286.177979 41.011364 
1287.626099 40.005951 
1297.816162 50.450001 
1303.50293 187.011139 
1336.957764 40.076218 
1348.262207 55.190475 
1351.652344 36.094696 
1388.035034 26.482143 
1392.208496 40.232143 
1419.983032 30.007353 
1442.113403 52.125 
1465.318115 52.859695 
1482.613647 52.226852 
1482.777832 60.01923 
1487.924316 47.449074 
1509.006226 63.551472 
1515.56543 35.113636 
1576.641479 38.224998 
1582.729858 128.510422 
1591.53833 71.014709 
1596.15918 29.200001 
1630.973755 29.069445 
1636.643555 47.75 
1666.069458 49.291668 
1686.347534 36.23077 
1688.666504 59.49128 
1695.038452 31.125 
END IONS

BEGIN IONS
RTINSECONDS=502.496002
CHARGE=1+
MSLEVEL=2
PRECURSORINTENSITY=72576.585938
SMILES=COc1cc(O)c2c(C(=O)c3c(C2=O)c(O)c(C(=O)CCCCC)c(O)c3)c1
INCHI=InChI=1S/C21H20O7/c1-3-4-5-6-13(22)18-15(24)9-12-17(21(18)27)20(26)16-11(19(12)25)7-10(28-2)8-14(16)23/h7-9,23-24,27H,3-6H2,1-2H3
INCHIKEY=MLTVHORGISIISB-UHFFFAOYSA-N
CLASS=Quinones
ADDUCT=[M+H]+
INSTRUMENT=Agilent Q-ToF 6530
PRECURSOR_MZ=385.1268
COMPOUND_NAME=Solorinic acid
ION_MODE=positive
FORMULA=C21H20O7
110.146584 97.881096 
121.358002 91.272728 
132.547974 121.035713 
173.041107 85.049416 
174.012634 94.907257 
175.035538 111.920456 
191.09938 98.490387 
225.047195 132.014618 
243.067688 219.556824 
245.08696 139.911362 
271.136719 260.010712 
282.034424 247.679352 
299.053741 5390.591797 
313.074188 582.509094 
325.068115 1422.474609 
367.119965 7641.822266 
367.444 303.609772 
438.231842 50.308823 
439.338348 61.172871 
446.871857 66.727272 
453.405457 39.285713 
460.509247 34.408333 
465.84375 95.125 
507.928436 34.027779 
514.832275 30.901316 
541.354248 30.654411 
556.046936 61.25 
567.667725 34.125 
606.405151 33.416668 
622.045898 49.100807 
623.760498 63.142857 
652.925354 43.027779 
661.072998 245.355652 
661.180115 62.400002 
677.524414 148.75 
677.62207 33.0625 
744.305115 123.025642 
761.267822 29.818182 
795.752014 34.00658 
797.830811 20.889706 
800.034058 29.777779 
825.59729 34.005951 
858.075623 35.142857 
862.243591 44.041668 
862.521606 60.336113 
879.058167 44.150002 
905.163513 61.185608 
906.580261 50.575001 
934.739746 40.360294 
939.6922 39.01923 
942.424744 39.115742 
983.305908 121.410004 
1012.237671 49.333332 
1016.383484 84.010414 
1019.062012 76.409088 
1032.336548 59.041668 
1060.260254 116.432693 
1087.008545 40.265625 
1087.17395 30.875 
1087.49707 83.489868 
1127.785645 58.349136 
1159.210449 23.1 
1181.045044 31.164474 
1183.717773 52.025002 
1225.336914 30.642857 
1229.657349 35.041668 
1236.084351 93.875 
1263.628174 42.57143 
1293.985352 32.007355 
1298.306641 43.266666 
1347.078491 47.390625 
1351.224243 48.200001 
1383.888916 100.223213 
1385.342041 44.557693 
1390.363403 46.272728 
1444.400269 76.019737 
1452.917725 44.80357 
1459.765747 51.133064 
1460.400146 44.003571 
1513.711304 33.219593 
1520.514526 46.011906 
1520.617798 36.326923 
1522.088501 39.0 
1531.975708 36.165321 
1579.349487 35.599998 
1617.131104 26.694445 
1629.994507 42.025002 
1641.089111 55.888889 
1645.277588 26.363636 
1653.629272 29.242647 
1662.583496 37.174999 
1692.419922 19.017857 
1696.699951 55.367645 
END IONS

BEGIN IONS
RTINSECONDS=229.509995
CHARGE=1+
MSLEVEL=2
PRECURSORINTENSITY=37778.929688
SMILES=O[C@H]1[C@H](O)[C@@H](OC(=O)C)[C@H](Oc2cc3oc(C)cc(=O)c3c(O)c2C)O[C@@H]1CO
INCHI=InChI=1S/C19H22O10/c1-7-4-10(22)14-12(26-7)5-11(8(2)15(14)23)28-19-18(27-9(3)21)17(25)16(24)13(6-20)29-19/h4-5,13,16-20,23-25H,6H2,1-3H3/t13-,16-,17+,18-,19-/m1/s1
INCHIKEY=LBPJJBJKHHBVBI-LQDZTQBFSA-N
CLASS=Chromanes and Chromones
ADDUCT=[M+H]+
INSTRUMENT=Agilent Q-ToF 6530
PRECURSOR_MZ=411.1307
COMPOUND_NAME=Mollin
ION_MODE=positive
FORMULA=C19H22O10
113.007431 204.373169 
124.509483 60.42857 
125.677711 69.297623 
142.924042 62.882355 
151.053482 92.240387 
165.111343 87.786766 
205.060364 71.727272 
207.056015 12266.192383 
207.317215 420.128571 
207.726791 91.541664 
208.067322 82.510414 
264.904938 44.349136 
286.899261 206.044571 
287.704773 49.455647 
299.064789 53.852272 
309.875702 51.603573 
316.923096 50.363636 
333.276672 53.884804 
357.819977 76.347221 
465.193817 50.360294 
502.096893 42.363636 
503.131714 41.307693 
524.539001 31.375 
541.447815 42.720238 
549.780151 45.004311 
578.696411 60.36842 
585.233765 45.785713 
591.250793 48.0625 
593.440979 109.555557 
593.493286 75.094696 
603.160278 43.555557 
660.733276 37.68145 
666.101685 47.297619 
695.87677 49.603573 
698.786316 45.041668 
702.658508 65.002663 
704.38031 35.008335 
760.917358 37.111111 
771.346191 24.666666 
784.058655 26.674999 
805.870056 29.066177 
805.93103 30.4 
832.09314 49.520832 
836.375916 42.133064 
858.70105 38.28125 
879.080017 65.080132 
879.224121 38.016666 
898.55011 44.91848 
935.19812 26.13587 
940.967773 32.532894 
973.567932 69.133064 
986.460449 36.445 
990.363098 41.0 
1013.444153 115.723213 
1016.486328 39.205002 
1032.438232 71.375 
1083.026489 36.008335 
1084.582031 35.625 
1085.207764 43.052631 
1088.537476 28.1875 
1121.217407 66.571426 
1150.101318 32.0 
1150.221924 20.321428 
1176.915894 56.284092 
1180.984375 34.020832 
1217.762207 37.185608 
1219.274902 50.529411 
1230.498291 37.693966 
1250.500977 43.761364 
1261.197754 36.084461 
1267.189087 42.349998 
1298.154785 33.083332 
1315.958618 23.482143 
1327.221558 44.39674 
1328.915039 30.605 
1358.774536 58.510418 
1371.902344 34.68145 
1381.019287 72.941177 
1401.170654 49.761364 
1406.959717 50.016666 
1429.967529 42.273647 
1463.570068 68.976349 
1466.540771 76.680557 
1482.826294 52.57143 
1510.660889 37.339287 
1512.110962 64.165985 
1531.817871 37.670456 
1563.364136 60.107143 
1581.599731 43.923077 
1600.713257 37.240383 
1620.879395 29.347221 
1621.766113 81.120094 
1626.812744 46.778225 
1649.287598 41.094696 
1679.783569 18.480263 
1695.451416 24.240385 
END IONS

BEGIN IONS
RTINSECONDS=358.747986
CHARGE=1+
MSLEVEL=2
PRECURSORINTENSITY=618668.500000
SMILES=COc1cc(c2c(c1)C(=O)c1cc(cc(c1C2=O)O)C=O)O
INCHI=InChI=1S/C16H10O6/c1-22-8-4-10-14(12(19)5-8)16(21)13-9(15(10)20)2-7(6-17)3-11(13)18/h2-6,18-19H,1H3
INCHIKEY=MCPKJGRRWINKOH-UHFFFAOYSA-N
CLASS=Quinones
ADDUCT=[M+H]+
INSTRUMENT=Agilent Q-ToF 6530
PRECURSOR_MZ=299.0547
COMPOUND_NAME=Fallacinal
ION_MODE=positive
FORMULA=C16H10O6
107.038788 5454.750977 
121.028229 6443.678711 
151.03772 9977.680664 
155.048187 7265.82373 
183.045029 11911.360352 
197.057419 10177.052734 
211.038239 10484.782227 
228.040543 13381.961914 
239.033676 9502.489258 
256.035675 10114.520508 
271.059448 170536.421875 
366.663086 83.281975 
421.277527 65.142441 
423.86377 49.222221 
436.173462 87.714287 
448.262238 48.48077 
497.858582 36.245689 
523.495056 66.284088 
547.56665 38.090908 
562.739441 85.845001 
579.972961 68.003784 
584.748291 46.900864 
609.382202 74.033333 
638.338135 58.183823 
664.330078 35.796051 
676.112122 36.390625 
679.459167 77.185608 
686.865356 31.041666 
692.327026 47.25 
738.760742 82.58036 
750.207031 90.190475 
756.358887 61.066666 
763.421997 75.256355 
780.675964 68.266304 
812.239929 46.210526 
824.899841 66.802635 
845.217957 43.387821 
855.225037 51.003204 
877.724487 57.045456 
888.568848 33.022728 
896.025635 32.599998 
899.568848 38.038792 
924.599365 30.148809 
952.406128 31.728449 
985.760193 35.041668 
1004.324829 35.654411 
1013.975952 45.012501 
1028.051147 48.045456 
1036.590698 42.224998 
1039.172974 40.515244 
1073.370361 62.076218 
1110.810791 49.964287 
1133.084229 32.375 
1142.103149 33.450001 
1150.940552 31.041666 
1171.78833 75.04808 
1174.290894 50.599998 
1192.278687 28.595589 
1206.422974 37.375 
1221.386353 70.045456 
1248.130371 72.14286 
1277.983154 29.01923 
1293.966064 61.014706 
1316.077026 95.025002 
1336.355713 35.625 
1337.673584 26.728449 
1341.899536 35.208332 
1354.85083 26.066668 
1368.092407 90.454544 
1407.679688 88.206635 
1433.865234 27.84091 
1452.430908 25.25 
1460.907227 30.337963 
1478.590576 32.778225 
1492.385376 25.11574 
1523.288452 77.911293 
1536.991943 31.1875 
1550.651245 53.222221 
1571.286377 43.012501 
1587.744019 30.173077 
1604.616699 86.191177 
1604.753906 31.892857 
1607.045288 27.163462 
1649.370361 38.204544 
1664.032471 26.242647 
1669.683716 34.0625 
1674.431763 28.969828 
END IONS

BEGIN IONS
RTINSECONDS=404.065002
CHARGE=1+
MSLEVEL=2
PRECURSORINTENSITY=185990.593750
SMILES=Cc1c2c(c(c(c1Cl)O)Cl)oc1c(c2=O)c(c(c(c1Cl)O)Cl)O
INCHI=InChI=1S/C14H6Cl4O5/c1-2-3-9(19)4-10(20)6(16)12(22)8(18)14(4)23-13(3)7(17)11(21)5(2)15/h20-22H,1H3
INCHIKEY=MYBIAUJNAXMGTF-UHFFFAOYSA-N
CLASS=Xanthones and bis-Xanthones
ADDUCT=[M+H]+
INSTRUMENT=Agilent Q-ToF 6530
PRECURSOR_MZ=394.9028
COMPOUND_NAME=Thiophanic acid
ION_MODE=positive
FORMULA=C14H6Cl4O5
101.458359 270.628876 
106.948059 108.120094 
115.068459 97.089287 
123.06723 155.762192 
146.932968 222.003677 
166.987274 244.52272 
171.075485 160.857147 
233.013062 293.340424 
234.009491 336.432526 
238.965958 486.326599 
267.963989 1112.690308 
297.089569 1963.663696 
302.940308 1589.351196 
320.901398 4228.317871 
324.961365 2627.383789 
330.924835 5783.649902 
331.938293 2740.710449 
358.927704 7673.368164 
359.932434 66079.703125 
454.565338 54.010418 
471.824371 66.75 
501.635986 45.487904 
515.024048 40.090908 
520.083557 47.285713 
534.939758 37.44643 
541.805725 39.140625 
575.768799 36.322369 
576.293274 47.636364 
603.573853 36.557693 
645.380249 40.923077 
651.777466 32.30682 
676.344727 42.080128 
677.009888 43.0625 
678.048218 60.149391 
716.942932 64.235466 
730.620239 52.368904 
755.778442 61.094696 
758.756226 38.142857 
764.78949 38.487904 
795.904663 35.44643 
828.846313 46.521553 
832.874573 39.100807 
850.209045 88.223213 
869.236938 44.020832 
874.459351 44.75 
895.875916 39.0 
901.569824 69.78125 
919.532227 49.0625 
959.271851 25.111111 
970.87146 36.113636 
981.77655 31.11574 
1021.179199 32.5625 
1032.927856 31.375 
1034.694214 31.5 
1058.953369 59.100609 
1065.938354 43.174999 
1076.392334 58.112499 
1084.103027 41.68145 
1093.903687 44.01923 
1112.139404 45.223682 
1122.882324 41.671295 
1166.901001 120.010872 
1182.416138 47.892857 
1212.482666 49.23077 
1223.079346 49.210526 
1236.88147 50.520161 
1245.224487 68.56144 
1258.851562 106.166138 
1303.75 48.273647 
1305.187988 43.347221 
1309.440552 45.035713 
1315.179565 122.471153 
1349.558716 61.920456 
1380.84668 27.027779 
1416.404297 32.875 
1422.017456 72.24662 
1433.975586 61.625 
1438.757568 45.066666 
1440.587036 28.291666 
1443.651489 28.75 
1497.435669 80.470741 
1516.431274 47.888889 
1525.254883 53.009617 
1527.425903 32.765625 
1527.536987 35.0 
1583.03894 34.005436 
1583.559326 26.347221 
1589.216675 28.017857 
1612.767578 35.035713 
1645.633301 32.440216 
1656.238647 29.568182 
1678.643433 52.75 
1680.38208 30.183823 
1684.850098 26.0 
1697.653931 24.025 
END IONS

BEGIN IONS
RTINSECONDS=413.764008
CHARGE=1+
MSLEVEL=2
PRECURSORINTENSITY=87785.429688
SMILES=O=C1c2c(cc(c(c2O)Cl)OC)C(=O)c2c1c(O)cc(C)c2
INCHI=InChI=1S/C16H11ClO5/c1-6-3-7-11(9(18)4-6)15(20)12-8(14(7)19)5-10(22-2)13(17)16(12)21/h3-5,18,21H,1-2H3
INCHIKEY=RTBAOFRCWWQFHB-UHFFFAOYSA-N
CLASS=Quinones
ADDUCT=[M+H]+
INSTRUMENT=Agilent Q-ToF 6530
PRECURSOR_MZ=319.0357
COMPOUND_NAME=Fragilin
ION_MODE=positive
FORMULA=C16H11ClO5
107.028053 78.574997 
115.046463 69.25 
121.509804 66.094696 
123.074844 85.852272 
133.199615 117.224998 
166.996765 214.205002 
202.104843 276.101624 
213.062988 252.951614 
245.040726 351.603577 
248.092163 239.08696 
276.015625 2173.133789 
378.45752 70.886627 
398.91391 41.416668 
423.871307 55.157051 
450.011414 40.347221 
457.27359 51.799999 
474.370911 38.485294 
477.488739 46.487904 
480.131348 64.727272 
505.5224 67.979652 
535.536072 42.57143 
541.46991 51.454544 
544.852478 40.326614 
594.875977 43.089287 
605.771423 44.084461 
623.372681 48.5 
627.05188 61.011906 
629.698242 58.038792 
647.766235 51.862068 
660.736145 82.75 
701.405212 45.557693 
711.804932 65.003784 
753.032532 41.020832 
760.317749 31.025 
768.271301 32.076923 
781.254822 31.09091 
781.686035 45.557693 
833.658752 29.53125 
834.211487 23.889706 
849.010132 31.349138 
888.870117 31.020834 
894.566833 38.520161 
905.40863 38.291668 
935.151611 73.385635 
954.688721 38.375 
971.252441 39.487904 
972.775513 45.012501 
982.629761 39.360294 
1017.141113 77.355766 
1017.827515 34.361111 
1052.026001 84.300003 
1070.751587 58.654411 
1074.708618 62.107758 
1074.811401 38.900002 
1091.560791 50.551723 
1102.981567 71.003571 
1136.618042 39.272728 
1138.512451 90.013885 
1155.893311 61.07143 
1162.120117 61.235294 
1223.548462 48.272728 
1224.145142 39.0 
1247.53479 54.515244 
1265.87146 39.016666 
1274.45752 59.42857 
1302.632812 46.25 
1305.293213 32.055557 
1305.474609 64.923912 
1327.173218 28.125 
1366.666992 22.570652 
1387.731934 44.004032 
1411.27478 49.272728 
1412.758179 21.245001 
1424.752563 28.125 
1430.34436 21.004999 
1459.449219 23.245001 
1491.861816 31.285715 
1497.31311 20.25 
1500.568359 44.570946 
1502.596191 27.694445 
1528.828857 30.923077 
1566.268066 22.173077 
1596.625122 31.003788 
1602.668579 29.642857 
1626.654297 28.361111 
1648.007935 140.142853 
1658.091187 28.818182 
1674.986084 25.083334 
1685.066284 28.142857 
1694.163086 32.115742 
END IONS

BEGIN IONS
RTINSECONDS=403.11499
CHARGE=1+
MSLEVEL=2
PRECURSORINTENSITY=395689.843750
SMILES=Oc1c2c(oc3c(c(C)cc(OC)c3)c2=O)c(Cl)c(O)c1Cl
INCHI=InChI=1S/C15H10Cl2O5/c1-5-3-6(21-2)4-7-8(5)12(18)9-13(19)10(16)14(20)11(17)15(9)22-7/h3-4,19-20H,1-2H3
INCHIKEY=PCGGYLLGIFFWCT-UHFFFAOYSA-N
CLASS=Xanthones and bis-Xanthones
ADDUCT=[M+H]+
INSTRUMENT=Agilent Q-ToF 6530
PRECURSOR_MZ=340.9974
COMPOUND_NAME=Thiophaninic acid
ION_MODE=positive
FORMULA=C15H10Cl2O5
102.960541 198.222229 
105.029976 249.820892 
106.053238 184.69397 
160.006607 344.026276 
171.048737 254.446426 
219.934647 1442.2677 
249.03154 5188.135742 
251.972351 2559.228516 
266.992737 13363.776367 
296.970764 29410.994141 
297.976013 32520.023438 
306.039703 5972.311523 
406.745361 149.030411 
407.875031 111.432693 
411.154999 59.445652 
469.778198 65.239998 
482.374176 52.09375 
507.886627 46.449074 
523.737061 43.799999 
529.914734 48.206635 
554.11145 45.471153 
564.76062 66.6875 
576.52948 49.004032 
640.282532 59.512501 
641.835999 40.0 
648.9198 41.222828 
664.192444 52.537792 
689.217102 40.0 
690.914734 38.035713 
711.118042 50.004032 
748.478455 79.25798 
751.554138 61.727272 
754.837952 52.941177 
769.216797 131.215515 
784.452332 57.736111 
799.085022 60.625 
818.69635 58.002777 
835.610107 98.571426 
839.384583 66.716835 
867.896179 67.028847 
895.718384 32.027779 
900.537048 27.058823 
926.280334 53.022728 
961.652161 42.625 
963.316162 231.02063 
965.640442 57.246952 
967.598572 55.076923 
971.223328 50.416668 
1017.190613 83.011902 
1043.641846 49.065788 
1058.081299 42.013889 
1092.481689 50.695515 
1108.508423 34.900864 
1115.978882 49.842106 
1144.174438 26.408333 
1153.575928 86.034485 
1177.580811 31.041666 
1178.962891 28.165541 
1199.21106 33.901318 
1226.257812 55.24662 
1245.558594 45.907257 
1251.869263 40.004032 
1256.721924 39.125 
1288.186157 154.057236 
1291.005005 50.307693 
1327.0354 56.449074 
1343.862549 64.107758 
1348.437866 85.934319 
1350.211304 55.409092 
1393.260742 38.183823 
1429.210693 44.0 
1435.332397 37.520832 
1435.439941 36.25 
1453.133057 46.017857 
1476.258911 40.015625 
1489.755371 63.235294 
1517.331421 27.339285 
1538.919922 39.235294 
1579.507935 42.003788 
1580.467651 94.014709 
1582.366455 47.674999 
1588.238892 58.41346 
1615.516846 43.470589 
1627.274658 68.027435 
1630.544067 56.0625 
1632.338013 42.57143 
1642.897949 41.777779 
1678.041626 23.48077 
1688.572632 19.339285 
1691.658691 47.400002 
END IONS

BEGIN IONS
RTINSECONDS=425.281006
CHARGE=1+
MSLEVEL=2
PRECURSORINTENSITY=354707.031250
SMILES=O=c1c2c(c(Cl)c(cc2C)OC)oc2c1c(O)c(c(OC)c2)Cl
INCHI=InChI=1S/C16H12Cl2O5/c1-6-4-8(21-2)13(18)16-10(6)14(19)11-7(23-16)5-9(22-3)12(17)15(11)20/h4-5,20H,1-3H3
INCHIKEY=IXVOEBPULFILGH-UHFFFAOYSA-N
CLASS=Xanthones and bis-Xanthones
ADDUCT=[M+H]+
INSTRUMENT=Agilent Q-ToF 6530
PRECURSOR_MZ=355.0113
COMPOUND_NAME="2,5-Dichlorolichexanthone"
ION_MODE=positive
FORMULA=C16H12Cl2O5
103.110077 122.598404 
113.011261 82.032143 
119.088005 52.81818 
131.067139 86.889282 
153.134888 86.551727 
175.202133 126.280739 
179.330048 108.681816 
203.872131 113.668648 
233.052063 248.057968 
234.009354 123.289948 
244.953827 165.438019 
266.978943 239.047867 
305.026459 196.027771 
310.982971 664.931335 
450.422546 41.003788 
472.944519 46.25 
495.955139 72.0 
508.120728 49.489864 
517.705872 79.049606 
530.714661 46.066666 
545.509216 41.125 
555.033386 41.900864 
602.734497 42.084461 
614.60144 39.666668 
615.730347 61.349491 
638.871399 39.066666 
640.526855 55.680557 
654.04541 65.458336 
695.134766 50.185608 
698.917603 57.778225 
702.175537 60.235466 
708.85321 59.040092 
729.793457 89.209999 
773.287109 74.938828 
778.191162 34.333332 
789.037231 43.728447 
830.09436 49.779411 
834.238464 54.150002 
834.883423 41.454544 
857.900574 51.923077 
865.936523 57.6875 
894.607422 72.191177 
894.680542 42.004631 
934.953186 44.5 
941.033447 66.510414 
955.03479 95.03846 
987.51123 36.003204 
989.483887 90.920456 
989.554504 43.44643 
1027.65271 76.889999 
1042.323975 40.333332 
1044.307129 37.041668 
1055.937378 46.882355 
1060.960083 40.333332 
1083.042725 32.907257 
1087.817505 50.599998 
1120.532837 36.11842 
1136.35498 35.487904 
1141.711792 38.5625 
1144.769043 35.529411 
1147.38147 47.150002 
1206.00647 107.439186 
1219.25 61.049999 
1240.073975 83.157051 
1240.766846 50.003204 
1256.083374 42.115742 
1279.445435 47.125 
1279.505493 39.416668 
1294.533569 50.595589 
1329.583862 53.692307 
1346.559448 62.778225 
1347.865967 44.076923 
1349.850098 37.05357 
1366.072388 47.375 
1387.470703 41.244999 
1423.941162 33.25 
1428.699707 53.75 
1429.949829 38.090908 
1485.844116 37.0 
1501.205933 81.695511 
1501.381714 41.337963 
1505.565918 54.44643 
1553.512451 43.487904 
1559.275024 57.449074 
1562.259766 58.595589 
1562.381958 59.440475 
1604.484985 55.125 
1628.400635 49.375 
1639.857056 38.089287 
1646.648804 21.799999 
1650.089111 37.777779 
1689.468384 16.482143 
END IONS

BEGIN IONS
RTINSECONDS=326.050995
CHARGE=1+
MSLEVEL=2
PRECURSORINTENSITY=1076603.250000
SMILES=Clc1c(O)cc(O)c2c1oc1cc(O)cc(C)c1c2=O
INCHI=InChI=1S/C14H9ClO5/c1-5-2-6(16)3-9-10(5)13(19)11-7(17)4-8(18)12(15)14(11)20-9/h2-4,16-18H,1H3
INCHIKEY=BKLLYUDFOSSKSW-UHFFFAOYSA-N
CLASS=Xanthones and bis-Xanthones
ADDUCT=[M+H]+
INSTRUMENT=Agilent Q-ToF 6530
PRECURSOR_MZ=293.0202
COMPOUND_NAME=4-Chloronorlichexanthone
ION_MODE=positive
FORMULA=C14H9ClO5
107.027603 1986.47937 
114.992828 2050.237793 
127.051483 2227.34082 
128.060333 3011.722168 
151.037155 8209.043945 
184.053085 6658.818848 
187.001251 8039.646973 
219.019867 10203.044922 
229.051224 15508.277344 
247.013718 14137.93457 
250.006973 15335.0625 
258.050568 79036.65625 
346.366821 225.557693 
358.860626 77.666664 
411.761353 35.875 
415.436188 198.835114 
422.510162 55.010418 
432.921234 46.408783 
442.777802 40.416668 
444.359161 42.133064 
469.096191 34.307693 
512.331116 31.006578 
525.785522 30.339285 
546.301636 32.445 
557.953918 34.75 
569.584595 33.197582 
582.787781 30.285715 
588.579651 31.148809 
622.638855 48.032143 
639.253601 35.25 
702.063904 57.390625 
704.02356 28.016666 
745.178406 37.289288 
752.895325 29.022728 
760.743958 66.833336 
785.677307 39.640152 
785.732727 31.480263 
816.539246 76.29657 
819.381531 175.040909 
840.958618 60.111488 
844.175903 36.102272 
903.838196 32.480263 
912.445312 29.003788 
919.581604 34.266666 
947.235535 31.148809 
960.120789 33.480263 
981.087402 50.450001 
1013.045654 30.0 
1013.248474 29.125 
1031.715332 33.083332 
1034.330933 59.008335 
1036.441772 28.173077 
1068.271851 50.266666 
1129.913086 32.721153 
1130.362671 105.612289 
1141.515015 76.25 
1160.094849 53.260418 
1171.905029 37.022728 
1172.810913 104.632812 
1187.51062 42.00338 
1206.139771 32.160713 
1265.032471 45.880436 
1281.01709 35.333332 
1346.499512 27.532894 
1348.509888 43.388889 
1372.598755 33.25 
1406.198486 38.107758 
1423.95166 67.375 
1425.420532 29.002907 
1431.207397 44.205002 
1480.940308 36.142857 
1500.722534 36.349998 
1503.316406 164.837021 
1518.115479 58.469444 
1518.233643 32.125 
1555.337646 88.370613 
1573.210327 53.157051 
1583.986084 35.113636 
1595.995239 48.23077 
1628.935059 53.734756 
END IONS

BEGIN IONS
RTINSECONDS=358.411011
CHARGE=1+
MSLEVEL=2
PRECURSORINTENSITY=12325916.000000
SMILES=O=c1oc(CCCCC)cc2c1c(cc(c2)O)O
INCHI=InChI=1S/C14H16O4/c1-2-3-4-5-11-7-9-6-10(15)8-12(16)13(9)14(17)18-11/h6-8,15-16H,2-5H2,1H3
INCHIKEY=FIMFRMRZGBUYMV-UHFFFAOYSA-N
CLASS=Cleavage Products of Depsides and Depsidones
ADDUCT=[M+H]+
INSTRUMENT=Agilent Q-ToF 6530
PRECURSOR_MZ=249.1122
COMPOUND_NAME=Olivetonide
ION_MODE=positive
FORMULA=C14H16O4
115.053772 130470.71875 
119.049301 343311.375 
131.04924 144523.9375 
147.044052 500020.25 
161.059677 327657.8125 
175.039825 756380.625 
176.046707 147480.421875 
189.056046 231475.71875 
231.100983 433109.6875 
332.161102 88.050003 
342.511597 85.408333 
345.443237 98.15625 
375.474579 102.157051 
394.798981 88.0625 
427.567688 91.678574 
432.849823 81.61364 
441.509064 100.121216 
456.40033 132.53186 
461.895233 87.840912 
488.507507 108.480766 
538.46228 118.882355 
556.70929 83.223686 
599.829468 79.893517 
629.965149 96.007576 
709.737671 97.662231 
736.139893 82.76136 
771.631165 81.010872 
791.147949 79.195312 
825.037292 80.493423 
835.583008 299.173065 
835.678467 90.818184 
844.652527 88.10714 
858.292664 83.020836 
903.744202 120.0625 
926.892517 86.344513 
950.237488 110.046638 
982.283264 114.040001 
1019.886902 81.875 
1042.821167 165.093018 
1063.267456 105.111115 
1109.004272 80.419777 
1180.114746 87.796051 
1241.547241 98.344513 
1251.975708 94.047623 
1267.770142 86.656815 
1286.81311 136.001984 
1326.63501 179.729736 
1331.490601 90.492348 
1349.224487 139.07692 
1364.77063 83.239998 
1366.425659 93.153847 
1453.750244 124.025002 
1508.565186 90.360847 
1522.538818 92.231483 
1600.654297 97.41346 
1602.180786 98.428574 
END IONS

BEGIN IONS
RTINSECONDS=237.612
CHARGE=1+
MSLEVEL=2
PRECURSORINTENSITY=648224.625000
SMILES=Cc1cc(=O)c2c(o1)cc1c(c2O)C(=CC(=O)C1=O)O
INCHI=InChI=1S/C14H8O6/c1-5-2-7(15)12-10(20-5)3-6-11(14(12)19)8(16)4-9(17)13(6)18/h2-4,16,19H,1H3
INCHIKEY=NPUXQAACUNUHIX-UHFFFAOYSA-N
CLASS=Quinones
ADDUCT=[M+H]+
INSTRUMENT=Agilent Q-ToF 6530
PRECURSOR_MZ=273.0388
COMPOUND_NAME=Canarione
ION_MODE=positive
FORMULA=C14H8O6
107.012695 31900.460938 
131.011963 6201.892578 
149.021088 2553.387939 
162.99968 8167.058105 
175.039658 12242.420898 
189.056458 6403.839844 
199.037903 10019.455078 
203.031158 126950.726562 
205.011093 30925.853516 
245.043533 348253.09375 
339.236908 69.469444 
365.706238 40.165539 
369.407532 47.173077 
384.734558 56.260418 
417.983429 45.25 
452.476288 46.157051 
468.428284 54.560184 
471.355713 127.453766 
471.435333 53.612499 
484.173615 53.173912 
491.482605 61.135868 
545.424133 61.336113 
590.078125 83.92308 
591.423096 53.107758 
625.100281 84.008926 
637.314941 159.69397 
637.397644 50.25 
646.42511 49.900864 
658.169128 80.453705 
707.200256 73.120094 
710.312256 89.57341 
712.210144 80.769234 
737.81134 170.272217 
762.311462 68.157051 
763.848022 51.226852 
768.418884 123.880493 
782.611938 54.720589 
825.520142 46.00338 
835.540833 42.049419 
864.366028 44.06649 
864.946899 57.065788 
885.738586 79.198532 
895.716736 235.088028 
895.80188 65.019234 
925.37561 58.450001 
956.649841 61.016666 
959.014832 35.57143 
965.96405 31.482143 
1018.662109 34.022728 
1023.73761 61.6875 
1028.930908 36.449074 
1051.215942 38.941177 
1085.888184 44.537792 
1088.96875 42.059212 
1091.95874 56.215427 
1092.162109 69.610001 
1104.659668 79.288269 
1129.276123 256.038147 
1151.076538 37.390625 
1161.259033 34.892857 
1179.180664 31.011364 
1232.350952 42.020832 
1232.749146 84.909088 
1233.137207 35.482143 
1255.162476 36.165321 
1262.775513 59.013157 
1277.044312 46.777779 
1293.978027 58.840908 
1320.859253 31.0 
1320.962402 27.0 
1353.118164 73.100609 
1362.843628 24.020834 
1369.935059 55.515625 
1414.874268 24.5625 
1426.44751 40.333332 
1433.067627 167.475006 
1442.768311 95.056252 
1444.414551 84.840912 
1466.014526 81.13636 
1495.677246 43.942307 
1519.22583 112.306252 
1522.006714 68.778229 
1549.950928 65.013885 
1553.666626 46.133064 
1582.17041 60.289288 
1585.952393 50.047619 
1645.868164 63.16346 
1647.501343 35.289288 
1668.088501 43.190475 
1682.877686 25.892857 
1687.954224 24.568182 
1695.80127 43.149391 
END IONS

BEGIN IONS
RTINSECONDS=360.032013
CHARGE=1+
MSLEVEL=2
PRECURSORINTENSITY=3399679.500000
SMILES=C[C@H]1CC(=O)C2=C(O)c3c(O[C@@]2(C(=O)OC)[C@@H]1O)ccc(c1c(O)c2c(O[C@@]4(C(=O)OC)[C@@H](O)[C@@H](C)CC(=O)C4=C2O)cc1)c3O
INCHI=InChI=1S/C32H30O14/c1-11-9-15(33)21-25(37)19-17(45-31(21,27(11)39)29(41)43-3)7-5-13(23(19)35)14-6-8-18-20(24(14)36)26(38)22-16(34)10-12(2)28(40)32(22,46-18)30(42)44-4/h5-8,11-12,27-28,35-40H,9-10H2,1-4H3/t11-,12-,27-,28+,31+,32+/m0/s1
INCHIKEY=NFZJAYYORNVZNI-XIBZLVKHSA-N
CLASS=Xanthones and bis-Xanthones
ADDUCT=[M+H]+
INSTRUMENT=Agilent Q-ToF 6530
PRECURSOR_MZ=639.1672
COMPOUND_NAME=Secalonic acid F
ION_MODE=positive
FORMULA=C32H30O14
123.043571 100739.539062 
151.038467 159589.40625 
155.070007 42805.773438 
161.022308 9452.624023 
183.064987 230352.9375 
193.04863 141622.21875 
211.060059 18723.009766 
245.049683 3345.599365 
271.024109 2795.437744 
323.088196 4012.37207 
349.070374 8536.227539 
351.086578 19908.65625 
369.093109 7968.530762 
377.062592 106093.875 
405.054352 14569.852539 
455.09552 116973.90625 
469.100464 37394.734375 
483.101929 71210.21875 
501.114502 124305.992188 
511.09787 43005.933594 
543.122742 45972.308594 
547.119751 45741.109375 
561.136047 475358.375 
562.136902 37302.246094 
579.146545 147251.28125 
589.130371 198131.78125 
621.15509 98423.234375 
746.774841 139.824997 
823.294128 147.227936 
1086.356689 151.157898 
1236.047241 205.450653 
1236.918701 150.632889 
1271.424438 182.96022 
1272.432129 291.438416 
1336.007202 166.654709 
1413.955444 153.017303 
1463.906738 153.403351 
1625.356445 156.2258 
1683.673706 173.230774 
END IONS

BEGIN IONS
RTINSECONDS=303.98999
CHARGE=1+
MSLEVEL=2
PRECURSORINTENSITY=81608.468750
SMILES=O=C1c2cc(O)cc(O)c2C(=O)c2c1cc(C(=O)O)cc2O
INCHI=InChI=1S/C15H8O7/c16-6-3-8-12(10(18)4-6)14(20)11-7(13(8)19)1-5(15(21)22)2-9(11)17/h1-4,16-18H,(H,21,22)
INCHIKEY=ZJXVNNSMRGTDBI-UHFFFAOYSA-N
CLASS=Quinones
ADDUCT=[M+H]+
INSTRUMENT=Agilent Q-ToF 6530
PRECURSOR_MZ=301.0337
COMPOUND_NAME=Emodic acid
ION_MODE=positive
FORMULA=C15H8O7
103.10289 177.222733 
112.04734 213.53302 
121.065445 341.166412 
131.04483 341.010986 
159.057556 470.311462 
165.014313 743.65625 
175.094711 554.803711 
199.014465 1672.736694 
203.028168 1335.526245 
215.034332 1171.380859 
227.02327 1052.283936 
257.042725 2744.432129 
259.028625 2366.805176 
283.023163 2037.203369 
330.088074 262.0 
379.006592 83.512497 
386.845306 50.444767 
403.184082 38.017857 
407.475342 54.076923 
412.638458 50.083332 
425.83075 48.875 
458.639557 48.694443 
479.088104 55.137932 
488.047791 47.003571 
503.901825 63.347828 
537.868652 112.121986 
557.41626 60.125 
559.20813 58.368904 
561.157043 56.012501 
605.92334 61.022728 
618.610657 82.844299 
623.527954 50.259617 
629.437927 43.017857 
645.979309 88.489998 
684.083801 28.321428 
684.978577 38.720589 
704.364685 37.226852 
713.680298 48.30682 
751.929565 144.272217 
751.997864 76.266304 
765.650085 36.111111 
803.407715 42.094696 
811.352478 46.148811 
820.327881 34.640152 
828.54425 30.205 
831.761108 37.066666 
844.456787 38.482143 
876.462769 29.013889 
914.430725 41.044998 
928.667358 74.55645 
928.725098 42.222828 
932.113159 43.670456 
934.647461 36.445 
985.172546 34.224998 
1004.467468 54.140625 
1030.724121 42.875 
1035.99707 43.080128 
1039.151245 50.693966 
1054.692871 25.05921 
1086.166626 22.0 
1091.553345 25.778847 
1099.901123 21.440218 
1109.444702 30.681452 
1114.904297 39.0 
1158.625732 39.245689 
1170.455078 38.004311 
1170.540894 35.56818 
1196.311157 47.197582 
1215.794434 76.976349 
1215.893311 49.920456 
1224.251709 35.560184 
1250.594482 43.003204 
1267.862305 35.013889 
1288.513794 43.135868 
1298.529419 34.333332 
1314.699707 86.680084 
1334.994873 27.322369 
1345.000977 26.009615 
1365.962158 29.645 
1385.731445 42.307693 
1402.22876 37.349998 
1407.864868 30.107759 
1418.205811 33.265625 
1424.594238 33.390625 
1430.821045 70.321808 
1471.477539 37.0 
1477.715698 64.842102 
1485.752441 39.244999 
1520.737671 40.076923 
1533.540161 52.125 
1538.666382 35.004631 
1574.903442 36.285713 
1579.873047 58.069443 
1621.324951 36.004311 
1627.126709 102.529411 
1628.951416 34.728447 
1630.593018 34.224998 
1631.519897 62.0625 
1640.185181 59.171612 
1690.421509 56.884617 
END IONS

BEGIN IONS
RTINSECONDS=360.070007
CHARGE=1+
MSLEVEL=2
PRECURSORINTENSITY=308327.625000
SMILES=Cc1cc(c(c2c1c(=O)c1c(o2)c(c(c(c1O)Cl)O)Cl)Cl)O
INCHI=InChI=1S/C14H7Cl3O5/c1-3-2-4(18)7(15)13-5(3)10(19)6-11(20)8(16)12(21)9(17)14(6)22-13/h2,18,20-21H,1H3
INCHIKEY=NTAXLEHKEDVPRK-UHFFFAOYSA-N
CLASS=Xanthones and bis-Xanthones
ADDUCT=[M+H]+
INSTRUMENT=Agilent Q-ToF 6530
PRECURSOR_MZ=360.9423
COMPOUND_NAME=Arthothelin
ION_MODE=positive
FORMULA=C14H7Cl3O5
109.141144 285.198029 
113.067993 185.428574 
143.08287 196.504807 
160.050903 320.43869 
189.011353 324.852448 
205.005981 341.285156 
213.020935 266.780823 
233.977966 347.765869 
268.982208 1010.205811 
286.938995 2347.707275 
296.970215 2226.532471 
307.309814 1397.500854 
325.290955 3201.93042 
325.973877 16993.787109 
422.358612 57.450001 
432.08075 57.003204 
483.269073 60.133064 
484.132843 56.907257 
493.508636 44.440216 
497.223389 67.191177 
503.554413 59.367424 
532.706482 80.889709 
558.480408 94.01136 
586.050781 51.107758 
586.314575 50.0 
610.153687 60.693966 
613.168152 60.026161 
614.10907 60.204544 
666.113953 41.900864 
672.77124 65.0625 
680.799805 60.165699 
700.929077 54.125 
718.691467 79.384094 
724.055786 47.349136 
755.581787 41.666668 
766.320007 45.1875 
790.344482 43.961956 
803.972412 30.666666 
824.882629 27.0625 
850.93396 71.440475 
874.72699 56.408783 
901.554382 56.603573 
902.903137 57.680557 
929.780762 57.076218 
930.457397 34.640625 
931.684021 39.090908 
978.123047 112.969826 
988.861206 32.75 
993.08429 36.787163 
1008.670532 33.339287 
1025.507568 40.785713 
1042.814941 44.852272 
1053.577637 60.8801 
1071.459106 143.878052 
1071.563354 34.375 
1107.272339 71.25 
1126.3302 29.361111 
1131.804688 92.666664 
1150.376709 123.0 
1162.64856 37.150002 
1181.119751 39.25 
1190.304565 113.086861 
1221.430542 78.512497 
1236.480591 38.066666 
1247.34021 54.157051 
1250.047363 66.656815 
1253.616455 43.102272 
1299.279297 51.111843 
1312.364136 40.695515 
1344.162109 39.125 
1345.149902 23.285715 
1378.211914 55.034481 
1400.776245 36.416668 
1405.36438 62.875 
1425.29895 70.375 
1429.713013 35.529411 
1441.28833 21.482143 
1462.028809 43.197582 
1492.296265 26.01923 
1500.905151 25.907259 
1526.986206 31.408333 
1549.233765 29.39674 
1552.829712 32.208332 
1581.172119 29.892857 
1583.889282 49.598404 
1613.294067 31.556818 
1613.609985 87.090912 
1629.018188 34.094696 
1634.950439 96.347221 
1643.467041 65.013885 
1670.232544 35.321808 
1686.205933 116.01844 
1692.026855 66.115562 
1693.273926 31.25 
END IONS

BEGIN IONS
RTINSECONDS=414.449005
CHARGE=1+
MSLEVEL=2
PRECURSORINTENSITY=759850.625000
SMILES=Oc1c2c(oc3c(c(C)cc(O)c3Cl)c2=O)c(Cl)c(OC)c1Cl
INCHI=InChI=1S/C15H9Cl3O5/c1-4-3-5(19)8(16)13-6(4)11(20)7-12(21)9(17)15(22-2)10(18)14(7)23-13/h3,19,21H,1-2H3
INCHIKEY=SWYXXNJANIXCRQ-UHFFFAOYSA-N
CLASS=Xanthones and bis-Xanthones
ADDUCT=[M+H]+
INSTRUMENT=Agilent Q-ToF 6530
PRECURSOR_MZ=374.9579
COMPOUND_NAME=Thuringione
ION_MODE=positive
FORMULA=C15H9Cl3O5
105.026031 190.596909 
114.058968 260.158447 
125.035309 213.964905 
149.013733 483.180176 
160.006134 516.70282 
189.004837 595.123413 
195.979584 655.598816 
232.99913 1131.4823 
267.980865 2964.151855 
276.010315 2401.232666 
286.940491 14580.021484 
296.971313 7925.966309 
330.930298 17641.710938 
339.98584 17012.314453 
465.373962 62.793606 
471.935944 84.555771 
484.136505 49.003048 
513.349976 53.671295 
524.768066 158.371582 
531.008362 42.520161 
550.486084 38.208332 
580.052979 66.786766 
580.895447 73.06649 
602.954895 72.960526 
603.069275 40.900864 
605.176208 54.492348 
642.420715 29.053572 
661.322327 27.265625 
679.038452 29.022728 
681.412598 29.204546 
700.841431 73.75 
702.952209 46.038792 
726.112915 31.918478 
733.431396 36.125 
748.708252 34.017857 
757.869995 35.076923 
785.384766 32.0 
785.6474 88.446426 
801.279907 38.875 
810.202515 28.03409 
849.588745 65.926285 
856.438538 29.785715 
871.02771 72.247643 
878.294739 55.347828 
906.32312 97.285378 
908.680542 51.722221 
919.893799 53.557693 
925.066345 50.281979 
990.108765 43.692307 
1004.40625 43.03125 
1017.652222 96.070312 
1024.431641 39.107758 
1028.027222 96.30867 
1043.197632 53.489864 
1076.957886 51.28125 
1092.80188 74.333336 
1105.911621 64.055557 
1136.38623 43.142242 
1151.404663 43.625 
1169.685303 46.432144 
1192.936279 59.642857 
1203.882812 36.942307 
1221.928223 39.640152 
1222.800415 91.256355 
1227.989014 45.482143 
1292.254761 26.0 
1304.032104 34.272728 
1304.236938 72.406914 
1353.014648 50.242645 
1354.644043 37.969826 
1378.306641 47.205002 
1382.307983 59.760136 
1407.380127 31.28409 
1421.049316 66.022957 
1482.77356 65.125 
1498.449097 40.038792 
1499.120972 41.027779 
1506.518311 54.009617 
1508.198364 71.069443 
1531.845581 56.612289 
1550.569336 33.845001 
1579.384399 29.361111 
1583.743896 64.888885 
1611.888428 53.102272 
1632.720337 34.004631 
1650.077881 43.100807 
1652.857422 26.571428 
END IONS

BEGIN IONS
RTINSECONDS=317.511993
CHARGE=1+
MSLEVEL=2
PRECURSORINTENSITY=32787.183594
SMILES=Cc1c(c(c2c(c1)C(=O)c1cc(cc(c1C2=O)O)O)O)C(=O)O
INCHI=InChI=1S/C16H10O7/c1-5-2-7-12(14(20)10(5)16(22)23)15(21)11-8(13(7)19)3-6(17)4-9(11)18/h2-4,17-18,20H,1H3,(H,22,23)
INCHIKEY=UZOHDKGTYVTYDZ-UHFFFAOYSA-N
CLASS=Quinones
ADDUCT=[M+H]+
INSTRUMENT=Agilent Q-ToF 6530
PRECURSOR_MZ=315.0499
COMPOUND_NAME=Endocrocin
ION_MODE=positive
FORMULA=C16H10O7
135.065063 274.045929 
145.055908 182.800003 
157.083206 266.698517 
173.057922 213.53334 
199.014862 281.024994 
201.056656 246.284088 
213.043732 1610.914551 
227.023132 584.419739 
229.075928 513.392029 
271.052734 658.625 
297.034027 6956.833008 
297.371918 300.001099 
403.080963 35.969826 
406.298126 34.5 
422.186798 33.805 
426.907227 42.315788 
445.435486 80.001984 
447.308716 72.14286 
483.616058 85.760002 
515.52179 89.816666 
534.43512 43.454544 
534.922729 46.5625 
536.725159 45.728447 
565.064453 58.42857 
580.929321 40.032143 
590.621887 86.564812 
613.445312 32.605 
633.632324 38.761364 
650.747803 38.6875 
667.075378 47.11842 
676.735413 50.315788 
697.222656 57.960106 
709.849731 66.020454 
737.935852 51.816666 
750.232056 50.133064 
779.561218 59.599998 
801.601929 51.734756 
837.981445 32.049999 
846.53656 34.083332 
852.181152 39.076923 
860.693176 32.107758 
860.89917 78.32692 
891.948059 41.133064 
904.252136 32.89352 
916.909607 49.007355 
947.641907 36.400002 
952.460876 43.038792 
959.582092 59.320122 
999.304932 46.003571 
1009.246826 38.68145 
1010.38562 44.657608 
1018.266907 40.041668 
1031.093262 69.08654 
1064.608154 51.361111 
1070.821167 38.603573 
1086.435059 31.0 
1107.465942 45.004032 
1135.424072 43.107758 
1141.704712 50.125 
1155.399414 29.918478 
1159.197754 64.470741 
1221.366089 28.692308 
1224.501221 60.083332 
1238.122925 26.041666 
1239.99292 32.022728 
1246.828369 54.537792 
1311.834473 36.657608 
1316.333374 20.520834 
1330.848022 34.089287 
1366.979614 65.45153 
1374.78479 37.367645 
1377.157471 50.30682 
1403.164551 49.003571 
1405.52832 30.125 
1426.98999 30.445 
1470.763306 39.720589 
1481.446045 34.520832 
1493.80249 62.0 
1502.427856 33.280174 
1504.494995 64.4879 
1535.947632 71.037041 
1541.937866 29.28125 
1568.620361 106.939392 
1599.685303 33.041668 
1601.096436 40.787163 
1627.302246 42.75 
1634.142456 39.81818 
1644.28418 37.44643 
1664.031616 33.0 
1678.341431 24.005434 
1686.060547 22.920454 
1696.625854 15.1 
END IONS

BEGIN IONS
RTINSECONDS=337.148987
CHARGE=1+
MSLEVEL=2
PRECURSORINTENSITY=240969.234375
SMILES=c1ccc(cc1)C1=C(C(=O)C(=C(C1=O)O)c1ccccc1)O
INCHI=InChI=1S/C18H12O4/c19-15-13(11-7-3-1-4-8-11)16(20)18(22)14(17(15)21)12-9-5-2-6-10-12/h1-10,19,22H
INCHIKEY=HZKFHDXTSAYOSN-UHFFFAOYSA-N
CLASS=Quinones
ADDUCT=[M+H]+
INSTRUMENT=Agilent Q-ToF 6530
PRECURSOR_MZ=293.0798
COMPOUND_NAME=Polyporic acid
ION_MODE=positive
FORMULA=C18H12O4
101.116829 939.792908 
103.077721 1111.405884 
105.014725 518.441895 
131.041275 1661.529785 
145.016525 3484.861572 
165.05928 3712.092285 
189.053665 4707.091309 
190.059219 4674.976562 
191.078308 23910.539062 
218.030014 10148.587891 
219.059814 5013.057129 
229.039886 10924.794922 
247.054291 27135.65625 
257.040344 11869.922852 
275.045013 92076.109375 
364.806915 139.5625 
391.417938 63.41346 
392.219452 55.080128 
397.995239 157.836761 
404.527344 52.010868 
413.305542 47.557693 
470.239075 53.960526 
471.450226 52.445 
478.863312 47.003788 
505.161774 52.013889 
506.155609 54.063774 
542.505005 51.112499 
553.981323 60.671295 
565.966492 48.00658 
584.75293 37.81818 
587.942078 40.038792 
616.395081 54.560184 
618.36853 36.0 
639.697998 52.273647 
662.46283 46.113636 
703.307861 38.449467 
711.489685 69.551727 
719.605713 53.670456 
743.649414 54.005951 
754.697205 80.084015 
762.912476 45.132355 
767.958496 48.720238 
790.37146 83.19104 
815.101746 88.384094 
834.807861 52.200001 
835.9198 41.408783 
861.754639 45.032143 
885.081055 58.739754 
902.539612 35.028847 
902.817383 38.0 
930.993225 41.013889 
935.799683 31.075001 
938.862 40.454544 
990.831482 64.069443 
992.828918 54.565216 
999.201416 60.328949 
1003.415955 40.68145 
1007.447266 48.133064 
1032.716309 260.334595 
1070.125977 37.408333 
1096.784912 41.5 
1099.182739 77.328949 
1100.669678 36.150002 
1105.527344 49.44643 
1108.039429 62.33654 
1153.373169 37.375 
1180.144165 109.134438 
1180.944946 33.0 
1195.197876 46.480263 
1206.629028 56.165699 
1230.781006 62.125 
1238.165771 72.05896 
1278.633789 70.16346 
1283.08667 72.247643 
1287.150391 108.347221 
1335.082397 41.111488 
1351.996826 49.556034 
1352.623169 33.245689 
1369.294067 34.003571 
1371.67395 42.5 
1382.921021 42.81686 
1408.514404 36.939518 
1434.247314 72.408333 
1437.212524 37.185608 
1446.398193 41.923077 
1493.361328 47.117645 
1508.183472 49.069443 
1525.050293 39.363636 
1532.077759 28.521551 
1550.473633 31.008333 
1559.536865 41.222828 
1587.446899 25.521551 
1592.499023 43.5 
1611.892456 28.360294 
1645.446777 56.0 
1667.353271 34.361111 
1673.248779 36.200001 
1674.436035 27.942308 
1694.431885 36.020832 
END IONS

BEGIN IONS
RTINSECONDS=347.976013
CHARGE=1+
MSLEVEL=2
PRECURSORINTENSITY=514546.281250
SMILES=O=c1c2c(oc3c1c(C)cc(O)c3)c(Cl)c(O)c(Cl)c2O
INCHI=InChI=1S/C14H8Cl2O5/c1-4-2-5(17)3-6-7(4)11(18)8-12(19)9(15)13(20)10(16)14(8)21-6/h2-3,17,19-20H,1H3
INCHIKEY=JPFFMNSHZHZAND-UHFFFAOYSA-N
CLASS=Xanthones and bis-Xanthones
ADDUCT=[M+H]+
INSTRUMENT=Agilent Q-ToF 6530
PRECURSOR_MZ=326.9807
COMPOUND_NAME="2,4-Dichloronorlichexanthone"
ION_MODE=positive
FORMULA=C14H8Cl2O5
102.953842 135.560059 
115.057716 346.475006 
121.03598 140.122086 
155.04509 302.611603 
162.021729 455.942261 
171.055939 307.294922 
179.041763 234.889282 
207.018036 275.580505 
220.952087 353.918488 
235.013885 1634.79248 
252.979355 4346.606934 
291.001617 1206.19873 
292.009705 3242.757324 
403.07486 70.889282 
407.933075 86.510414 
426.798523 89.347221 
455.246063 117.737068 
457.193146 51.449074 
461.939636 42.907257 
489.001587 62.041668 
522.147827 55.333332 
525.893066 141.242477 
525.956665 38.32143 
532.48175 109.675674 
554.409424 112.008331 
577.693665 262.321442 
580.416382 38.76923 
618.819214 39.599998 
628.622925 38.91848 
632.256409 53.339287 
638.539062 33.0 
675.724121 80.408783 
677.484619 51.57143 
689.677185 66.100609 
698.008911 40.328949 
700.4823 36.013889 
739.176636 39.941177 
756.01001 67.959999 
764.205627 70.814812 
772.521667 44.78125 
799.459106 66.49128 
801.650085 109.734848 
822.702393 43.482143 
832.700378 81.911362 
858.953918 80.0 
873.683472 28.28125 
880.493591 64.146736 
908.295837 82.035713 
918.218994 79.002449 
924.909729 37.556034 
938.252502 61.260868 
951.462097 34.291668 
993.69574 62.416668 
997.475952 31.086538 
1012.705078 37.75 
1045.557373 34.00338 
1057.691528 33.185608 
1075.185791 40.375 
1087.279175 60.023937 
1112.059082 42.842106 
1155.064331 54.890625 
1167.553101 50.595589 
1167.706055 41.015625 
1167.975952 45.480263 
1174.908081 19.076923 
1205.016724 48.289288 
1225.056763 39.005951 
1234.89917 69.768616 
1249.453247 18.363636 
1278.872559 62.043102 
1304.732666 66.306816 
1312.687378 53.89352 
1321.628296 82.315788 
1321.700562 49.25 
1330.388428 17.03125 
1352.97644 47.094696 
1385.412842 14.025 
1394.688477 16.375 
1419.330566 28.204546 
1441.370117 30.0 
1441.910522 73.56144 
1444.508545 26.09091 
1456.079224 17.444445 
1474.708374 13.164474 
1497.947754 11.25 
1499.456665 13.164474 
1500.816528 16.13587 
1509.676514 11.284091 
1559.550903 32.450001 
1574.779419 18.5 
1609.951782 49.48077 
1620.555908 43.326614 
1629.062744 68.160004 
1629.285522 27.125 
1642.963135 64.025002 
1680.078491 109.801468 
1682.033936 46.055557 
1685.802979 43.575001 
1696.990967 40.529411 
END IONS

BEGIN IONS
RTINSECONDS=270.231995
CHARGE=1+
MSLEVEL=2
PRECURSORINTENSITY=363929.125000
SMILES=OC1=C(OC)C(=O)c2c(O)c3oc(C(=O)C)c(O)c3c(O)c2C1=O
INCHI=InChI=1S/C15H10O9/c1-3(16)13-11(21)6-7(17)4-5(9(19)14(6)24-13)10(20)15(23-2)12(22)8(4)18/h17,19,21-22H,1-2H3
INCHIKEY=ILUWXELFYCLFHQ-UHFFFAOYSA-N
CLASS=Quinones
ADDUCT=[M+H]+
INSTRUMENT=Agilent Q-ToF 6530
PRECURSOR_MZ=335.0389
COMPOUND_NAME=Chiodectonic acid
ION_MODE=positive
FORMULA=C15H10O9
109.055496 489.094238 
131.039169 606.895081 
136.986633 587.168945 
150.965805 1328.90625 
162.032684 1796.972656 
190.010315 7858.575195 
192.991074 3221.38501 
208.018005 5560.867676 
220.986481 3578.816162 
236.970398 3966.756104 
261.014709 4470.160645 
264.001617 7229.537598 
276.971893 4569.661621 
289.007385 6791.491699 
291.995667 43352.445312 
317.000793 27631.902344 
435.081604 45.408783 
444.573212 41.065788 
451.052032 60.820454 
452.09198 48.112499 
460.083313 78.125 
486.335175 46.555557 
519.801819 59.321808 
525.131348 54.68145 
535.939819 45.836956 
539.226624 41.211208 
574.90741 48.017857 
592.262146 80.592102 
594.423462 61.263157 
602.145874 44.599998 
631.276917 111.346313 
643.501465 35.556034 
643.63031 62.979652 
675.813171 35.132355 
709.350952 42.961956 
712.725464 55.768616 
735.346802 47.223682 
756.888794 40.520832 
758.830627 45.6875 
785.38147 39.049999 
803.39801 42.482143 
812.054626 51.18182 
840.893921 56.032143 
846.668335 50.07143 
874.299561 61.761906 
874.814453 59.034481 
928.651306 38.615383 
933.806824 41.273647 
972.320435 31.03409 
976.837952 41.003571 
991.310059 135.037033 
991.380737 69.160713 
1025.171143 60.066666 
1040.050537 39.160713 
1045.468994 36.099998 
1079.289795 49.44643 
1083.257935 48.191177 
1084.279297 36.349136 
1097.186523 49.27174 
1121.982544 140.038467 
1168.056274 49.297619 
1169.611572 36.183823 
1172.991943 39.25 
1188.24707 42.787163 
1189.852905 41.040001 
1231.877686 52.685974 
1243.727173 37.0625 
1252.082886 56.032143 
1262.922363 85.846153 
1272.027832 41.048912 
1275.171143 44.455647 
1296.822144 57.166668 
1317.167969 34.349998 
1338.15979 73.929878 
1364.305908 52.041668 
1376.985596 65.012497 
1399.470825 52.120098 
1401.409912 36.035713 
1427.344482 33.25 
1460.24707 45.005001 
1470.311279 44.173912 
1517.551636 31.004032 
1537.493408 36.069443 
1545.688232 39.089287 
1562.799194 32.142857 
1569.822266 35.117645 
1598.63623 37.339287 
1612.213867 40.005436 
1617.906372 36.595589 
1633.837524 84.0 
1656.750122 28.240385 
1663.70874 28.005953 
1668.891113 28.125 
1691.578735 51.375 
END IONS

BEGIN IONS
RTINSECONDS=380.717987
CHARGE=1+
MSLEVEL=2
PRECURSORINTENSITY=3144339.000000
SMILES=C[C@@H]1CC(=O)C2=C(c3c(ccc(c3O)c3c(c4c(cc3)O[C@@]3([C@H]([C@@H](CC(=O)C3=C4O)C)O)C(=O)OC)O)O[C@@]2([C@H]1O)C(=O)OC)O
INCHI=InChI=1S/C32H30O14/c1-11-9-15(33)21-25(37)19-17(45-31(21,27(11)39)29(41)43-3)7-5-13(23(19)35)14-6-8-18-20(24(14)36)26(38)22-16(34)10-12(2)28(40)32(22,46-18)30(42)44-4/h5-8,11-12,27-28,35-40H,9-10H2,1-4H3/t11-,12-,27+,28+,31+,32+/m1/s1
INCHIKEY=NFZJAYYORNVZNI-ZKHWAINJSA-N
CLASS=Xanthones and bis-Xanthones
ADDUCT=[M+H]+
INSTRUMENT=Agilent Q-ToF 6530
PRECURSOR_MZ=639.1696
COMPOUND_NAME=Secalonic acid A
ION_MODE=positive
FORMULA=C32H30O14
123.044388 56163.359375 
151.038239 119821.234375 
155.069199 27744.939453 
161.022263 19846.394531 
183.064774 151812.859375 
193.049164 154800.015625 
211.059433 16860.386719 
241.038483 3355.090088 
243.062912 1829.898438 
245.0439 2275.040527 
279.06366 1278.449951 
323.089691 3695.004639 
349.068848 7910.706055 
350.078339 5152.024902 
351.085144 23718.242188 
369.094391 6713.716309 
377.065369 125940.132812 
378.066864 8583.416992 
405.059326 6220.650391 
455.105682 34205.117188 
469.08847 52058.210938 
483.105774 123904.3125 
501.117279 189799.6875 
511.099701 54497.59375 
543.127686 87664.484375 
561.138306 562922.75 
562.141846 53384.585938 
579.148621 392883.125 
589.133362 476310.375 
621.159424 387059.875 
725.824158 244.795944 
760.425293 134.227112 
778.298645 145.777771 
820.591064 129.001755 
1015.478088 189.40834 
1170.096558 134.011902 
1229.833496 131.232559 
1554.507202 151.0 
END IONS

BEGIN IONS
RTINSECONDS=413.600006
CHARGE=1+
MSLEVEL=2
PRECURSORINTENSITY=5713521.500000
SMILES=O=c1c2c(c(Cl)c(OC)c(Cl)c2OC)oc2c1c(cc(c2)OC)C
INCHI=InChI=1S/C17H14Cl2O5/c1-7-5-8(21-2)6-9-10(7)14(20)11-15(22-3)12(18)17(23-4)13(19)16(11)24-9/h5-6H,1-4H3
INCHIKEY=KAJRGHJEGIZHMO-UHFFFAOYSA-N
CLASS=Chromanes and Chromones
ADDUCT=[M+H]+
INSTRUMENT=Agilent Q-ToF 6530
PRECURSOR_MZ=369.0325
COMPOUND_NAME="2,4-Dichlor-1,3,6-tri-O-methylnorlichexanthone"
ION_MODE=positive
FORMULA=C17H14Cl2O5
113.059471 125.001869 
121.987473 131.603912 
127.057175 199.446426 
148.005478 155.278412 
164.048279 264.008331 
199.075333 1056.078369 
233.035187 2135.355469 
256.074829 3319.762207 
277.029419 11017.327148 
290.036469 24727.330078 
291.044189 8463.829102 
310.990051 39483.402344 
434.350555 53.654068 
435.407745 51.510418 
456.158325 50.785713 
464.252167 39.520161 
514.891846 36.240383 
525.926331 38.107758 
537.209778 102.556038 
565.303223 66.172874 
576.153687 38.165539 
611.603455 37.471153 
614.309143 40.337963 
653.282654 42.333332 
657.740601 40.816666 
667.745911 47.191177 
671.204834 35.1875 
724.905518 50.026161 
728.50769 65.396736 
747.098145 34.349136 
758.23114 32.347221 
773.033142 45.39674 
784.214478 38.148811 
832.829834 54.765625 
833.041565 31.118422 
836.452759 30.720238 
841.646179 41.455647 
844.029602 44.842106 
869.067017 38.009617 
909.110413 42.133064 
912.655884 34.1875 
933.635071 122.184212 
937.863464 40.333332 
948.784302 46.760136 
954.027832 29.926283 
1015.371521 28.084459 
1020.962891 49.200001 
1022.582275 69.845001 
1031.374146 44.041668 
1069.7677 39.363636 
1080.388672 43.052631 
1082.468506 31.375 
1119.572388 53.926281 
1120.428955 41.339287 
1150.09082 45.875 
1159.964966 60.929878 
1168.26062 35.782406 
1205.285156 40.125 
1213.798218 34.875 
1223.163574 36.047619 
1265.812866 39.375 
1271.504028 69.3125 
1271.577881 41.125 
1273.659424 42.326614 
1283.719482 48.02206 
1302.357666 44.003048 
1321.766235 100.599998 
1342.174805 58.680557 
1354.134399 31.041666 
1356.348877 35.875 
1386.115479 59.469444 
1407.297485 34.570652 
1412.211426 37.942307 
1434.676636 81.08654 
1460.422119 127.446426 
1460.528564 59.076218 
1460.992554 45.387821 
1464.339844 44.211208 
1483.199951 48.014706 
1515.017822 33.796051 
1523.983521 37.455647 
1525.109863 44.575001 
1526.324219 43.125 
1533.078003 46.25 
1596.367798 30.942308 
1610.394653 35.083332 
1627.035767 24.5 
1658.659424 31.0625 
1660.232056 31.025 
1697.851562 50.066666 
END IONS

BEGIN IONS
RTINSECONDS=469.371002
CHARGE=1+
MSLEVEL=2
PRECURSORINTENSITY=132802.703125
SMILES=Oc1c2c(oc3c(c(C)c(Cl)c(OC)c3Cl)c2=O)cc(OC)c1Cl
INCHI=InChI=1S/C16H11Cl3O5/c1-5-8-13(20)9-6(4-7(22-2)11(18)14(9)21)24-15(8)12(19)16(23-3)10(5)17/h4,21H,1-3H3
INCHIKEY=RQSKYECJFBMMPK-UHFFFAOYSA-N
CLASS=Xanthones and bis-Xanthones
ADDUCT=[M+H]+
INSTRUMENT=Agilent Q-ToF 6530
PRECURSOR_MZ=388.9722
COMPOUND_NAME="2,5,7-trichlorolichexanthone"
ION_MODE=positive
FORMULA=C16H11Cl3O5
101.072914 420.889771 
107.015419 96.888885 
111.053627 69.728447 
129.048187 102.727272 
149.112854 294.867859 
167.025436 346.901398 
169.069733 119.777985 
190.735687 79.84375 
205.019043 108.00219 
209.967834 83.215424 
310.983093 1715.870117 
344.947815 4535.898438 
345.966278 7899.20459 
354.003479 2204.945557 
462.130646 63.570946 
482.404999 55.133064 
490.546082 59.68182 
536.944153 69.669441 
572.13678 54.642857 
572.875 55.637196 
590.004639 49.333332 
614.980225 64.45153 
616.403503 48.013157 
624.607483 63.102272 
658.545776 43.520832 
687.424622 27.625 
688.68103 50.761906 
709.157837 34.132355 
729.071289 46.107143 
736.554565 48.960526 
766.614563 36.671295 
789.650452 54.025002 
790.222778 42.0625 
803.768799 48.242645 
822.75708 69.045456 
827.997498 214.558624 
828.16394 45.728447 
853.838989 39.926281 
863.330627 35.244999 
892.389709 66.023933 
915.687561 37.0 
924.616272 209.465378 
926.508484 41.041668 
933.790283 43.625 
955.283081 47.720238 
975.392517 31.446428 
984.790466 42.720238 
1039.692139 78.625 
1044.62793 50.289288 
1062.539673 35.44643 
1071.227173 54.564026 
1091.4823 38.090908 
1102.167969 97.777779 
1137.397095 79.545456 
1153.882935 35.57143 
1161.215576 107.007141 
1181.231079 59.013889 
1186.945068 29.225 
1230.959229 43.315788 
1248.799683 47.266304 
1280.597046 73.388885 
1294.668579 35.075001 
1298.984985 50.760136 
1306.399658 95.215515 
1321.316162 42.416668 
1375.88147 37.845001 
1391.003174 49.692307 
1397.624756 52.603573 
1432.282837 44.111111 
1433.266113 36.173077 
1437.072021 62.42857 
1448.092041 33.901318 
1497.399902 46.058823 
1498.116089 40.289288 
1514.141235 28.720238 
1533.302002 36.242645 
1549.645386 38.782406 
1553.605713 79.108109 
1564.795166 63.787163 
1585.319092 149.964905 
1599.399414 52.714287 
1616.40686 38.112499 
1621.987183 56.852272 
1635.838257 55.560184 
1650.547485 83.002274 
1676.768311 66.071426 
END IONS

BEGIN IONS
RTINSECONDS=372.378998
CHARGE=1+
MSLEVEL=2
PRECURSORINTENSITY=2179165.250000
SMILES=Oc1c2c(oc3c(c(C)cc(O)c3Cl)c2=O)cc(OC)c1
INCHI=InChI=1S/C15H11ClO5/c1-6-3-9(18)13(16)15-11(6)14(19)12-8(17)4-7(20-2)5-10(12)21-15/h3-5,17-18H,1-2H3
INCHIKEY=CCCPQTCGPQONAG-UHFFFAOYSA-N
CLASS=Xanthones and bis-Xanthones
ADDUCT=[M+H]+
INSTRUMENT=Agilent Q-ToF 6530
PRECURSOR_MZ=307.0351
COMPOUND_NAME=Vinetorin
ION_MODE=positive
FORMULA=C15H11ClO5
115.030495 2802.156006 
127.030914 4478.737305 
128.060928 2444.4375 
155.045258 5117.342285 
185.030029 11008.821289 
243.061325 335349.0 
246.006516 92539.289062 
264.017029 332614.46875 
271.056152 95862.703125 
272.066071 226147.390625 
365.716095 85.125 
370.651886 82.480263 
412.259338 84.28125 
428.35083 74.515244 
442.518005 63.969826 
454.087402 93.446426 
477.571564 74.880432 
493.168701 75.336113 
499.122253 114.641029 
519.114685 65.592216 
531.164368 56.160088 
542.16571 87.934319 
606.477722 114.077583 
621.643005 83.917557 
623.612 87.574997 
625.008057 60.578949 
633.142639 112.339287 
651.712891 63.575001 
690.207214 76.25 
709.47821 57.259617 
710.763428 61.857143 
717.794861 72.489998 
737.690063 92.001762 
754.623474 67.285378 
783.608032 65.034088 
784.873169 109.038795 
810.962036 71.01667 
908.496155 58.06081 
926.021484 82.01136 
987.151367 62.08654 
988.548584 77.012497 
1035.202148 55.5625 
1043.562988 62.011364 
1082.119507 60.041668 
1143.665283 77.347824 
1213.606934 96.224998 
1241.032227 78.028847 
1248.250854 62.165699 
1284.018555 62.211208 
1294.262451 89.390625 
1294.339355 60.015625 
1296.172852 78.587265 
1320.502441 228.782608 
1424.351318 114.125 
1429.836426 77.36364 
1496.03772 67.476692 
1517.74646 109.768616 
1531.278687 56.890625 
1556.472412 78.09375 
1606.159058 61.375 
1670.097778 61.25 
1695.425049 255.236847 
END IONS

BEGIN IONS
RTINSECONDS=270.811005
CHARGE=1+
MSLEVEL=2
PRECURSORINTENSITY=22938524.000000
SMILES=O=c1cc(C)oc2c1c(OC)cc(OC)c2C
INCHI=InChI=1S/C13H14O4/c1-7-5-9(14)12-11(16-4)6-10(15-3)8(2)13(12)17-7/h5-6H,1-4H3
INCHIKEY=MJHNYZONVLZSNB-UHFFFAOYSA-N
CLASS=Chromanes and Chromones
ADDUCT=[M+H]+
INSTRUMENT=Agilent Q-ToF 6530
PRECURSOR_MZ=235.102
COMPOUND_NAME="2,8-Dimethyl-5,7-dimethoxychromone"
ION_MODE=positive
FORMULA=C13H14O4
107.031677 59844.824219 
121.030632 230933.671875 
149.025879 285282.4375 
165.019226 393005.84375 
189.056 2304735.0 
205.05127 2610108.5 
472.167755 285.299988 
574.392334 306.880981 
644.733215 314.336823 
END IONS

BEGIN IONS
RTINSECONDS=364.71701
CHARGE=1+
MSLEVEL=2
PRECURSORINTENSITY=39097.816406
SMILES=CC(=O)c1c(cc2c(c1O)C(=O)c1c(cc(cc1C2=O)O)O)O
INCHI=InChI=1S/C16H10O7/c1-5(17)11-10(20)4-8-13(15(11)22)16(23)12-7(14(8)21)2-6(18)3-9(12)19/h2-4,18-20,22H,1H3
INCHIKEY=OVWIVSWXKVYPAG-UHFFFAOYSA-N
CLASS=Quinones
ADDUCT=[M+H]+
INSTRUMENT=Agilent Q-ToF 6530
PRECURSOR_MZ=315.0491
COMPOUND_NAME=Haematommone
ION_MODE=positive
FORMULA=C16H10O7
109.057068 158.475006 
121.060776 150.862076 
149.065353 241.183441 
171.087341 278.0 
199.022003 503.086426 
227.011017 761.531921 
241.027328 816.78125 
255.002853 581.249451 
269.021698 544.37207 
297.01593 8426.167969 
366.542908 188.668655 
388.130615 76.201614 
391.972107 73.92308 
412.552399 76.58036 
414.792603 61.920456 
444.833099 41.030407 
453.463837 32.445 
453.766541 57.573978 
485.89917 44.066666 
504.038269 83.489998 
510.559174 46.0 
518.182129 40.004631 
522.165771 56.058823 
584.152832 37.416668 
589.634033 64.222824 
600.208008 29.375 
602.803772 30.125 
612.109863 35.157051 
637.915161 41.041668 
651.464661 54.012501 
654.17749 43.226852 
687.710449 59.816666 
703.192322 54.00338 
705.492859 45.900864 
727.773804 40.100807 
745.779175 32.961956 
771.241943 48.56818 
797.52533 43.036289 
806.900146 41.695515 
807.410095 37.75 
811.121399 44.777779 
861.88147 56.013157 
880.242065 37.520832 
885.685303 34.183823 
903.951721 41.004032 
904.507507 42.020832 
918.619202 36.44643 
944.661316 33.339287 
958.004456 24.681452 
997.719666 27.041666 
1000.726746 40.028847 
1021.314575 60.076218 
1039.706543 34.375 
1041.767334 33.875 
1047.961182 70.009262 
1084.232788 35.48077 
1093.131958 36.111843 
1115.956787 39.173077 
1151.609009 50.045456 
1158.782593 60.939518 
1160.591553 36.113636 
1188.061157 33.599998 
1191.572632 127.852562 
1192.782715 47.449074 
1251.96106 25.0 
1266.833862 49.337963 
1269.82666 25.360294 
1279.342896 48.449074 
1330.609863 45.344513 
1341.733887 61.002274 
1363.58313 44.083332 
1369.193481 37.005951 
1400.487793 48.909092 
1412.527222 56.391304 
1417.72998 36.016666 
1467.362549 19.892857 
1477.987427 20.086538 
1480.369507 30.339285 
1497.534668 20.041666 
1535.364014 41.349136 
1555.397461 29.625 
1576.006104 46.164474 
1576.625977 48.041668 
1602.84436 30.818182 
1603.409546 47.408333 
1621.72876 62.625 
1640.274292 33.094696 
1644.44458 25.13587 
1684.063599 17.035715 
1687.768921 20.625 
1695.843628 14.005953 
END IONS

BEGIN IONS
RTINSECONDS=384.200989
CHARGE=1+
MSLEVEL=2
PRECURSORINTENSITY=77261.328125
SMILES=Cc1cc(c2c(c1)C(=O)c1c(C2=O)c(ccc1)O)O
INCHI=InChI=1S/C15H10O4/c1-7-5-9-13(11(17)6-7)15(19)12-8(14(9)18)3-2-4-10(12)16/h2-6,16-17H,1H3
INCHIKEY=LQGUBLBATBMXHT-UHFFFAOYSA-N
CLASS=Quinones
ADDUCT=[M+H]+
INSTRUMENT=Agilent Q-ToF 6530
PRECURSOR_MZ=255.0646
COMPOUND_NAME=Chrysophanol
ION_MODE=positive
FORMULA=C15H10O4
121.0186 1322.851196 
135.045822 888.061462 
152.173355 1114.080078 
153.078186 1762.162476 
171.083145 976.834778 
181.042419 1491.66272 
209.05899 1684.235352 
227.080994 1996.551147 
313.241211 41.654411 
323.315735 42.347221 
329.295532 45.326923 
373.819946 37.027439 
375.668701 67.370613 
391.866882 53.805 
428.163513 39.049999 
432.860382 40.041668 
438.374725 96.581398 
447.436584 84.054825 
483.973877 42.782406 
496.062408 47.165539 
510.402222 38.889706 
516.563538 54.190475 
535.621887 43.81818 
553.054199 71.445656 
567.897888 54.008335 
576.031616 38.720238 
578.712463 46.119186 
601.191406 66.555557 
632.837524 45.889286 
646.82959 75.08696 
669.240173 34.0 
672.788757 42.289288 
673.566711 34.892857 
695.960632 33.135868 
727.843018 53.645 
765.290283 31.240385 
776.708008 40.432144 
802.639099 33.125 
829.941895 33.132355 
845.354492 51.666668 
851.34021 49.157051 
858.135864 31.360294 
865.002808 58.666668 
912.492981 28.25 
918.302185 31.102272 
962.760498 35.680557 
975.004089 29.692308 
977.140747 55.625 
977.262207 33.81818 
980.821533 42.520832 
1012.26947 47.640625 
1029.680542 38.125 
1031.479248 33.57143 
1046.332275 38.160713 
1074.105957 51.25 
1079.091187 57.321808 
1110.53186 32.03125 
1131.300903 33.226852 
1146.577759 30.125 
1164.823853 40.007355 
1169.010254 29.191177 
1187.246216 33.041668 
1208.787231 32.645 
1222.597168 27.532894 
1231.897217 45.760136 
1259.555176 19.09091 
1293.136719 25.083334 
1300.444214 29.5 
1308.800415 52.308823 
1311.796387 32.728447 
1337.891846 37.720238 
1348.594482 58.022728 
1417.223022 37.0 
1419.30835 52.119186 
1424.201416 35.666668 
1440.294556 29.532894 
1453.084351 27.01923 
1456.962402 40.211208 
1479.36377 23.242647 
1519.789551 20.285715 
1527.877197 38.444443 
1557.616699 63.025002 
1560.77417 45.642857 
1573.660156 71.583336 
1585.394653 60.125 
1587.466675 39.1875 
1595.211426 51.408333 
1619.478882 33.799999 
1622.779175 36.164474 
1645.264893 26.892857 
1667.723877 23.799999 
1676.796509 29.25 
1691.658081 23.53125 
1698.148315 17.333334 
END IONS

BEGIN IONS
RTINSECONDS=517.080017
CHARGE=1+
MSLEVEL=2
PRECURSORINTENSITY=1107247.250000
SMILES=CC1(C)CCC[C@]2(C)[C@H]3CC[C@@H]4[C@@]5(C)CCC(=C5CC[C@@]4(C)[C@]3(C)C[C@H](OC(=O)C)C12)C(C)C
INCHI=InChI=1S/C32H52O2/c1-20(2)22-13-17-29(6)23(22)14-18-31(8)25(29)11-12-26-30(7)16-10-15-28(4,5)27(30)24(34-21(3)33)19-32(26,31)9/h20,24-27H,10-19H2,1-9H3/t24-,25+,26+,27?,29-,30+,31+,32+/m0/s1
INCHIKEY=NLYCXKGVDFJIGS-OOJXIBOZSA-N
CLASS=Terpenoids : Triterpenes
ADDUCT=[M+H]+
INSTRUMENT=Agilent Q-ToF 6530
PRECURSOR_MZ=469.3964
COMPOUND_NAME=6a-Acetoxy-17(21)-hopene
ION_MODE=positive
FORMULA=C32H52O2
107.090195 39494.75 
109.099365 69923.820312 
121.099884 80838.617188 
122.64669 38407.570312 
135.114136 49741.28125 
149.129669 50857.433594 
189.160843 33034.441406 
191.176315 109447.40625 
203.176971 55415.878906 
205.19249 42116.632812 
217.190994 68187.820312 
219.063278 32496.447266 
245.220749 7730.189453 
257.224609 4361.022949 
259.236694 5880.947266 
271.236023 4287.164551 
273.251678 3622.609619 
313.283264 3528.603516 
325.277679 1628.227173 
339.305542 1486.213135 
353.333954 1431.593872 
367.331757 1156.522339 
409.37619 153223.59375 
410.374146 7634.540527 
410.58725 337.642609 
410.745605 381.048615 
427.375244 392.630219 
598.216797 59.785713 
599.050354 48.048912 
600.5271 47.889286 
600.706421 90.756149 
633.70874 49.564026 
664.998901 68.493851 
672.185364 50.0 
679.92804 75.473686 
694.767944 101.697784 
705.043091 75.864288 
760.229736 47.125 
766.291504 45.224998 
772.177246 47.469444 
779.621887 60.058823 
810.687195 60.29657 
853.560852 94.5625 
863.55127 59.259617 
881.079346 59.297619 
887.301331 156.728897 
912.217407 130.884613 
921.12439 78.455643 
977.035461 58.076923 
982.307129 53.08654 
986.66925 65.791664 
989.47345 49.099998 
1010.660645 59.191036 
1050.292847 74.289284 
1053.228882 112.675674 
1058.90564 63.909092 
1105.960449 82.388161 
1110.29541 63.49342 
1133.962524 105.920082 
1137.44043 56.939518 
1146.336548 74.099998 
1167.243164 83.796051 
1177.761353 51.259617 
1217.480957 108.736115 
1235.500732 50.670456 
1248.845581 149.125 
1252.335083 46.089287 
1272.944824 50.68145 
1289.084595 52.349136 
1311.848145 57.25 
1316.710327 55.68145 
1338.04126 50.779411 
1367.629272 38.57143 
1371.122925 52.226852 
1375.356934 39.785713 
1376.224609 46.560184 
1407.744141 78.320656 
1456.242554 54.920918 
1464.011597 57.5 
1466.774536 69.03125 
1474.647705 106.00219 
1493.793213 89.185608 
1511.060181 59.33654 
1527.365234 57.387821 
1529.440063 92.537788 
1540.336304 93.347221 
1544.017456 48.888889 
1595.108398 42.0 
1598.858521 85.728447 
1601.738281 158.449997 
1601.897949 49.605 
1605.567993 93.414215 
1649.252686 71.720238 
1656.220459 114.493851 
1658.804932 54.043102 
1666.307861 80.521553 
1679.747314 56.210526 
1680.608521 95.555855 
END IONS

BEGIN IONS
RTINSECONDS=260.608002
CHARGE=1+
MSLEVEL=2
PRECURSORINTENSITY=336067.187500
SMILES=CC(=O)c1c(c2c(o1)cc1c(c2O)C(=O)C(=O)C(=C1O)OC)O
INCHI=InChI=1S/C15H10O8/c1-4(16)14-12(20)8-6(23-14)3-5-7(10(8)18)11(19)13(21)15(22-2)9(5)17/h3,17-18,20H,1-2H3
INCHIKEY=XKWWCTISHMFHJB-UHFFFAOYSA-N
CLASS=Quinones
ADDUCT=[M+H]+
INSTRUMENT=Agilent Q-ToF 6530
PRECURSOR_MZ=319.044
COMPOUND_NAME=Rhodocladonic acid
ION_MODE=positive
FORMULA=C15H10O8
174.032654 3626.614014 
177.017914 7198.725586 
192.037766 13295.666992 
202.022461 4435.884766 
235.054459 14677.43457 
248.031555 8422.600586 
261.001831 9035.40625 
273.036469 10322.024414 
276.023438 35701.722656 
291.049713 25515.007812 
301.028687 15894.461914 
373.804352 53.375 
395.438721 44.140625 
437.284546 43.592106 
453.782379 46.923077 
456.151184 53.979652 
465.443512 57.00338 
494.683258 54.140625 
501.301331 64.0 
525.807495 42.347221 
538.372559 44.367424 
547.929077 90.125 
571.444031 36.0 
586.46814 38.0 
618.91925 56.387821 
627.516479 62.30682 
645.569702 35.115742 
660.677673 40.449074 
669.174805 49.107758 
699.774963 61.297619 
713.570679 46.015625 
727.977722 44.720238 
732.061401 60.68182 
765.422302 38.720238 
776.283142 40.244999 
776.427063 57.045456 
789.438049 59.142242 
834.053894 169.469162 
855.407715 52.474056 
872.489258 49.142242 
875.832458 56.786766 
907.843567 54.224998 
917.766052 48.515244 
936.766602 48.799999 
940.770752 33.00658 
961.462402 35.454544 
973.059448 33.048912 
1005.175903 33.333332 
1037.290283 37.796051 
1049.775879 62.71627 
1064.30127 36.025002 
1072.090454 42.003788 
1079.634766 42.894737 
1094.207764 236.92395 
1117.560913 44.05357 
1121.160645 44.6875 
1135.830566 47.022728 
1154.062256 53.049999 
1159.132935 57.551723 
1175.005737 33.349136 
1191.647461 35.367645 
1228.511108 51.449467 
1239.954712 41.408783 
1246.788818 36.57143 
1250.458984 38.875 
1253.053833 29.125 
1279.209717 32.25 
1309.024536 27.0 
1333.608887 37.044998 
1371.119263 125.19104 
1371.246094 53.211208 
1387.843262 57.669117 
1397.112671 42.01923 
1402.351685 57.089287 
1408.731812 46.049999 
1422.290894 38.125 
1479.218506 23.28409 
1483.317017 33.291668 
1503.40564 35.404999 
1523.578125 62.727272 
1535.716553 39.0 
1552.946777 50.666668 
1570.430664 35.113636 
1576.308228 46.5625 
1591.123047 61.011906 
1626.714355 25.148809 
1643.800415 47.125 
1678.584351 29.0 
1681.062744 22.446428 
1691.493286 28.920454 
END IONS

BEGIN IONS
RTINSECONDS=527.603027
CHARGE=1+
MSLEVEL=2
PRECURSORINTENSITY=3419529.250000
SMILES=CC1(C)C2CC[C@]3([C@@]4(CC[C@H]5[C@H](CC[C@@]5([C@H]4CC[C@@H]3[C@@]2(C)C(=O)C=C1)C)C(C)(O)C)C)C
INCHI=InChI=1S/C30H48O2/c1-25(2)15-14-24(31)30(8)21(25)13-18-29(7)23(30)10-9-22-27(5)16-11-19(26(3,4)32)20(27)12-17-28(22,29)6/h14-15,19-23,32H,9-13,16-18H2,1-8H3/t19-,20-,21?,22+,23-,27-,28+,29+,30-/m0/s1
INCHIKEY=YLKHZBZGHNOEES-LISTXKHRSA-N
CLASS=Terpenoids : Triterpenes
ADDUCT=[M+H]+
INSTRUMENT=Agilent Q-ToF 6530
PRECURSOR_MZ=441.3678
COMPOUND_NAME=22-Hydoxy-2-hopen-1-one
ION_MODE=positive
FORMULA=C30H48O2
107.068817 93997.679688 
109.081703 93016.6875 
121.099281 141583.859375 
133.099701 91156.765625 
149.130615 170247.546875 
159.115143 67252.898438 
189.161926 67345.382812 
191.177292 119835.789062 
203.176666 58700.160156 
215.17717 162850.078125 
217.192535 53245.789062 
271.240723 7015.051758 
311.27121 4422.995117 
353.281036 3398.433105 
365.316711 40849.019531 
383.325653 23771.132812 
405.347321 55579.035156 
423.356262 130128.390625 
424.359009 72322.28125 
517.65271 88.612289 
537.901794 102.155769 
557.164978 155.0 
611.124878 90.551727 
649.823669 88.888885 
657.431641 101.934319 
672.435181 116.653984 
720.235352 87.578949 
733.800049 101.6875 
788.158875 95.00338 
800.119202 94.884804 
845.084351 95.32415 
872.363647 139.702698 
894.397461 105.516129 
899.160645 145.591843 
911.835022 100.228775 
925.840393 92.965515 
967.779114 122.36364 
1014.441528 103.008926 
1127.810669 107.837029 
1152.033691 89.559998 
1163.099609 88.119186 
1192.879639 110.704544 
1220.925537 88.414215 
1226.556641 105.002052 
1297.89502 99.089996 
1306.46521 92.002052 
1348.242065 111.469154 
1351.634277 113.001984 
1384.849854 97.68145 
1455.888306 90.0 
1484.778442 109.721153 
1600.031128 152.314285 
1608.055786 171.019608 
1648.320557 112.5625 
END IONS

BEGIN IONS
RTINSECONDS=371.789001
CHARGE=1+
MSLEVEL=2
PRECURSORINTENSITY=6971086.000000
SMILES=Cc1cc(OC)cc2c1c(=O)c1c(c(Cl)c(O)cc1O)o2
INCHI=InChI=1S/C15H11ClO5/c1-6-3-7(20-2)4-10-11(6)14(19)12-8(17)5-9(18)13(16)15(12)21-10/h3-5,17-18H,1-2H3
INCHIKEY=UBUNKICAVVWKMH-UHFFFAOYSA-N
CLASS=Xanthones and bis-Xanthones
ADDUCT=[M+H]+
INSTRUMENT=Agilent Q-ToF 6530
PRECURSOR_MZ=307.0357
COMPOUND_NAME=4-Chloro-6-O-methylnorlichexanthone
ION_MODE=positive
FORMULA=C15H11ClO5
105.033119 4514.065918 
114.9907 5401.884766 
115.052589 5327.916016 
121.045654 5556.677734 
126.044365 11466.698242 
165.052612 31109.212891 
185.97142 23531.707031 
186.979568 36358.65625 
243.063782 86542.1875 
263.010315 1554700.625 
264.016479 1346895.625 
272.066071 409120.25 
413.016632 113.023933 
488.259308 218.011139 
514.619141 188.804901 
613.218689 166.011368 
690.345764 172.300003 
794.651733 130.959213 
936.447266 111.10714 
1078.192017 168.07753 
1110.928833 123.025002 
1162.197754 178.14975 
1191.452026 175.001511 
1547.872803 155.641983 
1577.2146 145.041672 
1611.32959 116.5 
END IONS

BEGIN IONS
RTINSECONDS=97.138
CHARGE=1+
MSLEVEL=2
PRECURSORINTENSITY=12839.142578
SMILES=CC1(C)C2CC[C@]3([C@@]4(CC[C@@H]5[C@]([C@H]4CC[C@@H]3[C@]2(CCC1=O)C)(C)CCC5=C(C)C)C)C
INCHI=InChI=1S/C30H48O/c1-19(2)20-11-15-27(5)21(20)12-17-29(7)23(27)9-10-24-28(6)16-14-25(31)26(3,4)22(28)13-18-30(24,29)8/h21-24H,9-18H2,1-8H3/t21-,22?,23+,24+,27-,28-,29+,30+/m0/s1
INCHIKEY=NTZCFZIEUJGSQA-FAMROLOPSA-N
CLASS=Terpenoids : Triterpenes
ADDUCT=[M+H]+
INSTRUMENT=Agilent Q-ToF 6530
PRECURSOR_MZ=425.3713
COMPOUND_NAME=21-Hopen-3-one
ION_MODE=positive
FORMULA=C30H48O
107.093811 124.05114 
109.099159 131.510422 
121.128677 216.000839 
133.088776 140.840057 
137.153595 138.281982 
175.165985 176.991974 
177.183472 132.204544 
189.17244 86.757812 
205.190933 100.285713 
217.188568 96.669441 
231.196335 80.578949 
245.110992 80.755432 
283.235413 91.25 
320.949188 74.889282 
322.397278 44.23077 
329.259735 77.125 
329.552734 65.072678 
352.478638 41.367424 
365.312317 76.640625 
407.354736 83.89286 
443.526947 87.049606 
478.943237 29.027779 
501.939178 28.035715 
507.746735 34.720238 
517.598267 44.005001 
542.07251 49.669445 
561.750183 37.852272 
586.953308 34.845001 
606.719727 35.920456 
610.111511 36.80357 
624.520752 42.089287 
643.921875 44.666668 
650.410034 53.107143 
658.977783 39.485294 
689.832642 40.404999 
706.617554 55.044998 
745.645081 45.416668 
758.894043 42.0 
770.138977 47.785713 
787.462891 109.191452 
787.6474 60.280174 
828.002991 31.889706 
841.379944 35.778847 
871.783386 85.840118 
878.84137 71.002449 
881.190308 36.400002 
888.23291 76.002274 
901.340149 40.058823 
919.229858 54.556034 
937.921143 32.224998 
978.636475 33.694443 
997.61554 31.1 
1019.170471 36.75 
1052.427124 50.025002 
1058.326416 40.875 
1059.63623 62.674999 
1063.741089 58.349136 
1083.580688 51.0 
1111.814819 42.367645 
1129.197144 41.482143 
1141.743652 36.901318 
1166.5271 31.520834 
1195.884277 41.205002 
1202.826172 42.721153 
1205.300537 48.941177 
1220.149658 52.025002 
1246.612305 27.5 
1261.237793 41.454544 
1286.866211 52.005436 
1317.842651 19.375 
1321.193604 21.111841 
1324.952026 26.025 
1366.191284 39.044998 
1400.402466 52.890625 
1403.174927 24.166666 
1414.34668 30.1875 
1435.796265 26.901316 
1448.064697 27.1 
1479.832031 27.004629 
1481.637085 44.671295 
1489.833862 44.307693 
1512.203247 45.041668 
1524.765015 41.041668 
1533.176025 22.556818 
1536.635986 25.020834 
1537.33606 32.076923 
1604.329224 50.347221 
1607.75415 75.002052 
1607.817017 47.291668 
1609.050903 60.42857 
1626.667847 71.432144 
1644.869751 72.440788 
1678.117188 59.321808 
1680.452759 26.09091 
END IONS

BEGIN IONS
RTINSECONDS=537.054016
CHARGE=1+
MSLEVEL=2
PRECURSORINTENSITY=229599.281250
SMILES=CC1(C)C2CC[C@]3([C@@]4(CC[C@H]5[C@H](CC[C@@]5([C@H]4CC[C@@H]3[C@@]2(C)C(=O)CC1)C)C(C)(O)C)C)C
INCHI=InChI=1S/C30H50O2/c1-25(2)15-14-24(31)30(8)21(25)13-18-29(7)23(30)10-9-22-27(5)16-11-19(26(3,4)32)20(27)12-17-28(22,29)6/h19-23,32H,9-18H2,1-8H3/t19-,20-,21?,22+,23-,27-,28+,29+,30-/m0/s1
INCHIKEY=OFMYBLNHEMHCAO-LISTXKHRSA-N
CLASS=Terpenoids : Triterpenes
ADDUCT=[M+H]+
INSTRUMENT=Agilent Q-ToF 6530
PRECURSOR_MZ=443.38
COMPOUND_NAME=22-Hydroxy-1-hopanone
ION_MODE=positive
FORMULA=C30H50O2
107.067322 5359.747559 
109.557487 7327.354004 
121.225349 6174.239258 
133.015472 4967.561035 
149.129776 7489.429199 
161.116211 4618.653809 
189.159576 3486.126465 
203.17688 3430.047607 
217.189484 3578.189697 
245.229813 589.48761 
297.237579 195.375 
311.314636 296.106567 
329.28183 294.364868 
367.337219 4083.391602 
368.322205 362.688538 
385.342255 1321.068115 
407.358368 6074.262695 
425.368286 10754.90918 
426.369263 3901.782227 
502.334656 86.848076 
504.510681 79.256355 
509.418091 77.337959 
517.711182 68.125 
525.364868 66.033333 
539.707642 71.986938 
574.704529 64.456894 
609.686707 133.508804 
648.422363 74.816864 
650.448181 95.679054 
656.919373 65.615387 
676.5271 89.432434 
698.317383 75.002449 
722.966309 73.686401 
732.815186 61.0625 
760.011169 64.289284 
773.441406 90.336113 
774.348755 61.18182 
813.318237 68.209999 
830.544373 77.047623 
837.762451 64.926285 
847.175598 78.448273 
868.575195 61.315788 
891.224731 60.019737 
920.023132 58.689655 
922.30542 59.578949 
931.485657 85.862068 
953.297241 82.815002 
967.211304 89.007355 
972.551819 88.595589 
980.157166 88.08654 
1003.596741 63.246952 
1019.094177 61.78125 
1024.490723 87.131493 
1061.662231 57.017857 
1064.39978 83.817566 
1082.21228 76.432693 
1085.281494 58.200001 
1112.841064 77.208336 
1119.587646 58.45153 
1165.466309 61.034481 
1166.241577 63.0 
1219.594482 82.185608 
1225.907593 70.371216 
1232.304932 69.91848 
1266.547607 109.34964 
1273.333496 113.331078 
1277.348511 68.045456 
1277.626343 68.199997 
1293.479858 61.041668 
1313.983521 67.133331 
1345.827515 64.845001 
1371.415771 64.094696 
1398.394287 81.408333 
1413.142578 61.005436 
1413.244995 72.370613 
1441.975708 78.177635 
1454.606445 79.551468 
1483.897705 69.185608 
1491.305542 75.875 
1494.00415 65.568398 
1514.07373 65.020454 
1514.301025 114.111115 
1529.30603 73.469444 
1555.089111 58.669445 
1591.227539 58.007141 
1603.306641 62.939518 
1612.454956 63.100609 
1636.389648 57.328949 
1638.411743 64.136108 
1654.156738 61.299999 
1666.650635 56.570946 
END IONS

BEGIN IONS
RTINSECONDS=459.946991
CHARGE=1+
MSLEVEL=2
PRECURSORINTENSITY=369939.406250
SMILES=O=c1c2c(cc(cc2C)OC)oc2c1c(O)c(c(OC)c2Cl)Cl
INCHI=InChI=1S/C16H12Cl2O5/c1-6-4-7(21-2)5-8-9(6)13(19)10-14(20)11(17)16(22-3)12(18)15(10)23-8/h4-5,20H,1-3H3
INCHIKEY=ZPLILIOXZHNNLY-UHFFFAOYSA-N
CLASS=Xanthones and bis-Xanthones
ADDUCT=[M+H]+
INSTRUMENT=Agilent Q-ToF 6530
PRECURSOR_MZ=355.0114
COMPOUND_NAME="2,4-Dichlorolichexanthone"
ION_MODE=positive
FORMULA=C16H12Cl2O5
103.161392 212.546875 
105.032501 221.25705 
114.016197 258.753479 
149.074921 258.382935 
157.064438 388.490387 
171.041397 334.53125 
217.050171 869.125 
248.021545 2587.306641 
251.977356 1351.633667 
266.980713 8569.453125 
296.968994 9178.237305 
310.984619 17318.375 
312.003693 18129.912109 
413.522034 61.367424 
441.959595 38.44643 
444.683563 38.289288 
468.825104 42.520161 
475.073608 34.23077 
481.453918 37.224998 
529.468018 40.23077 
546.495361 47.008335 
566.230591 30.692308 
571.259766 52.875 
580.313782 37.027779 
603.045898 72.019066 
616.596313 67.260414 
623.220703 57.719341 
650.5802 49.454544 
656.655273 68.08696 
668.783203 42.720589 
673.73999 43.23077 
675.029419 54.363636 
687.907227 41.599998 
747.548584 63.490383 
772.938782 50.113636 
773.352051 44.644737 
799.664917 45.23077 
803.878906 68.326614 
818.745789 56.125 
856.810791 51.787163 
859.05542 38.5625 
861.387939 41.44643 
915.149658 44.640152 
927.271179 45.603573 
939.833435 49.049999 
954.84021 50.671295 
955.830322 46.344513 
969.43158 39.625 
1008.037781 61.173912 
1020.465027 47.035713 
1049.831787 46.034092 
1063.704956 46.920456 
1074.56958 40.142242 
1082.246826 36.760136 
1127.125732 33.059212 
1129.797485 31.083334 
1137.229736 41.30682 
1144.307861 39.889706 
1169.493652 48.694443 
1187.294922 36.266304 
1198.62439 34.416668 
1223.991089 30.125 
1225.417358 45.066177 
1254.490723 30.375 
1281.973267 61.445 
1283.184448 72.33532 
1289.703125 44.78125 
1311.652588 47.094696 
1321.696777 77.009262 
1357.895386 39.25 
1368.460815 108.145409 
1368.561401 29.0 
1448.405273 26.102272 
1474.60498 40.222828 
1515.911621 30.041666 
1541.498291 60.510418 
1552.535278 53.802776 
1567.038696 75.570946 
1568.156494 40.450001 
1574.470093 38.017857 
1576.918579 51.028847 
1641.42334 46.020832 
1661.549561 49.0 
1668.10376 44.008335 
1673.448364 52.625 
1688.485962 37.408333 
1689.56189 56.045456 
END IONS

BEGIN IONS
RTINSECONDS=304.063995
CHARGE=1+
MSLEVEL=2
PRECURSORINTENSITY=200970.781250
SMILES=c1c(cc2c(c1O)C(=O)c1c(cc(cc1C2=O)O)O)CO
INCHI=InChI=1S/C15H10O6/c16-5-6-1-8-12(10(18)2-6)15(21)13-9(14(8)20)3-7(17)4-11(13)19/h1-4,16-19H,5H2
INCHIKEY=YQHZABGPIPECSQ-UHFFFAOYSA-N
CLASS=Quinones
ADDUCT=[M+H]+
INSTRUMENT=Agilent Q-ToF 6530
PRECURSOR_MZ=287.054
COMPOUND_NAME=Citreorosein
ION_MODE=positive
FORMULA=C15H10O6
115.052109 2892.699463 
143.044647 2593.673584 
157.065994 8113.836914 
167.050049 3930.307373 
185.059021 4188.895508 
199.054886 8015.492676 
213.051544 12710.754883 
215.032944 5003.560059 
241.04744 30018.060547 
257.042633 10042.907227 
269.041229 14488.77832 
354.064026 56.160713 
374.894379 77.028572 
407.134644 96.263161 
412.886597 159.186722 
415.980042 72.387817 
418.634155 46.065788 
455.741821 53.025002 
480.890747 60.41346 
485.52948 61.976353 
527.010315 42.603573 
534.696716 42.0 
541.208374 49.404999 
544.227173 36.205002 
566.589355 36.235294 
580.955566 48.901318 
599.749573 29.075001 
618.304871 44.0 
658.48877 35.015625 
671.923096 56.458332 
715.795227 45.339287 
716.348022 56.210526 
733.664734 40.242645 
739.605164 46.521553 
777.288086 125.510414 
778.290161 41.03125 
796.632751 40.375 
831.4375 91.59375 
862.680725 38.671295 
882.202393 88.557693 
914.745667 41.0 
919.075806 61.0 
934.475952 47.003571 
959.92749 65.012497 
964.88623 42.004631 
978.336182 40.78125 
984.618652 53.333332 
1002.973572 62.206635 
1052.389648 67.333336 
1062.059204 34.57143 
1063.38269 51.083332 
1065.564697 38.226852 
1068.181763 30.013889 
1118.808472 197.680145 
1130.996704 30.266304 
1157.144531 71.564812 
1179.277954 84.444771 
1204.505127 65.765625 
1210.05188 80.458336 
1214.240845 88.271736 
1217.762451 51.06649 
1250.98645 98.583336 
1305.135254 47.133064 
1305.189331 44.004311 
1311.040039 41.205002 
1331.422363 85.071426 
1344.759766 49.322369 
1363.273315 72.273651 
1367.356445 104.157051 
1415.184814 89.089996 
1423.236938 42.75 
1426.379883 35.007355 
1462.600098 28.089285 
1506.293945 64.0 
1514.557373 37.28125 
1515.390381 34.099998 
1526.616455 37.816666 
1563.053345 55.045456 
1576.946655 84.612289 
1586.983765 55.041668 
1608.472534 37.485294 
1622.411133 67.202271 
1642.455688 55.80357 
1668.472656 29.445 
1675.725464 36.5625 
1688.554077 34.125 
1697.417358 33.211208 
END IONS

BEGIN IONS
RTINSECONDS=563.745972
CHARGE=1+
MSLEVEL=2
PRECURSORINTENSITY=96829.906250
SMILES=CC1(C2C(CCC1=O)(C)C1[C@](CC2)(C2(C(CC1)C1(C(CC2)C(C(C)(CC1)C)OC(=O)C)C)C)C)C
INCHI=InChI=1S/C32H52O3/c1-20(33)35-26-21-12-16-31(8)23(29(21,6)19-18-27(26,2)3)10-11-24-30(7)15-14-25(34)28(4,5)22(30)13-17-32(24,31)9/h21-24,26H,10-19H2,1-9H3/t21?,22?,23?,24?,26?,29?,30?,31?,32-/m0/s1
INCHIKEY=LGQHZIVHROPSOF-LDRDEZDLSA-N
CLASS=Terpenoids : Triterpenes
ADDUCT=[M+H]+
INSTRUMENT=Agilent Q-ToF 6530
PRECURSOR_MZ=485.3914
COMPOUND_NAME=22a-Acetoxy-3-stictanone
ION_MODE=positive
FORMULA=C32H52O3
107.011848 778.174622 
109.26664 2209.516113 
121.144318 1029.800049 
133.312119 1274.751221 
161.103287 868.627136 
189.159821 1782.712891 
191.174316 1654.9375 
203.17662 1995.019043 
217.19342 3516.557373 
235.233688 498.274353 
297.260895 135.321426 
299.268707 216.223877 
315.238678 177.120758 
325.285645 140.094238 
342.907776 150.879349 
343.286133 181.796295 
400.687775 118.976265 
407.358643 1006.982361 
425.372833 2987.177734 
426.364624 207.529007 
467.37854 2930.793213 
561.652283 53.058823 
561.703857 41.360294 
581.215454 135.679047 
591.475159 36.445 
607.664612 42.644737 
620.676392 48.094696 
670.93634 50.605 
686.970459 47.036289 
693.582764 47.030407 
697.793579 109.20192 
697.899719 55.004311 
704.294312 47.058823 
754.730652 50.003048 
766.299927 47.644737 
775.69165 72.851418 
778.504944 49.326614 
779.389832 58.375 
840.976868 32.471153 
864.928162 56.642857 
868.124634 36.090908 
889.547119 42.185608 
909.55658 42.805 
911.645203 54.349998 
940.944214 65.969826 
947.391907 65.003204 
952.553467 61.57143 
992.350281 64.25 
1006.454041 39.367424 
1006.633911 57.011906 
1023.621948 60.625 
1036.831543 104.802635 
1077.685791 41.036289 
1082.821045 60.014706 
1085.447144 33.05357 
1108.29541 48.197582 
1141.111328 94.375 
1146.960083 37.014706 
1161.986328 32.226852 
1189.574219 55.142242 
1204.291138 39.005951 
1212.772095 40.39674 
1213.233887 44.347221 
1223.109009 70.034485 
1266.435181 38.375 
1296.312622 48.785713 
1302.572632 31.367424 
1307.397461 34.005951 
1310.364136 34.307693 
1350.748779 46.6875 
1363.738525 64.141304 
1366.349243 50.016666 
1368.022705 27.322369 
1374.558105 73.035713 
1374.662109 28.125 
1436.616089 32.142857 
1445.960449 36.28125 
1453.937134 32.889706 
1462.27417 33.017857 
1465.550903 98.422417 
1487.916138 33.235294 
1493.952515 36.205002 
1532.237671 56.728447 
1545.750122 50.889286 
1557.81665 34.148811 
1576.045288 44.016666 
1582.770752 33.6875 
1603.736328 117.5 
1616.011719 33.00658 
1620.909546 33.005951 
1639.220947 64.185608 
1685.30835 30.765625 
1687.563232 24.004629 
1695.077393 52.578949 
END IONS

BEGIN IONS
RTINSECONDS=507.51001
CHARGE=1+
MSLEVEL=2
PRECURSORINTENSITY=493513.781250
SMILES=CC1(C2C(CCC1OC(=O)C)(C)C1C(CC2)([C@]2(C(C(C1)O)C(CC2)[C@]1(C)O[C@@H](C(C)(OC(=O)C)C)CC1)C)C)C
INCHI=InChI=1S/C34H56O6/c1-20(35)38-26-13-15-31(7)24(29(26,3)4)12-17-32(8)25(31)19-23(37)28-22(11-16-33(28,32)9)34(10)18-14-27(40-34)30(5,6)39-21(2)36/h22-28,37H,11-19H2,1-10H3/t22?,23?,24?,25?,26?,27-,28?,31?,32?,33-,34-/m1/s1
INCHIKEY=TWRWTOXPYGQKPW-ZWXXETMRSA-N
CLASS=Terpenoids : Triterpenes
ADDUCT=[M+H]+
INSTRUMENT=Agilent Q-ToF 6530
PRECURSOR_MZ=561.41
COMPOUND_NAME=Diacetylpyxinol
ION_MODE=positive
FORMULA=C34H56O6
107.083954 8086.616211 
109.079735 5698.649902 
125.093849 17564.095703 
127.109215 5951.841309 
147.116119 6813.065918 
185.11972 4735.27002 
189.162247 12758.010742 
191.178741 7610.680176 
215.184784 4115.419434 
233.186279 7765.85498 
255.211212 2392.728516 
283.236511 1209.339233 
285.213043 1012.405151 
287.232849 1055.173218 
337.288696 1470.876709 
349.3508 576.400024 
353.299011 492.196594 
397.303375 835.201233 
405.34198 5482.472168 
406.363159 634.05658 
423.355347 44872.578125 
424.356354 2727.25 
465.367767 5028.985352 
483.376099 18195.474609 
483.553223 649.770508 
484.383789 1974.202881 
501.381897 40826.1875 
502.405365 3100.327148 
543.392639 2953.758057 
635.997803 202.796875 
648.550476 181.018188 
650.382629 175.125 
654.906128 163.160049 
665.674927 162.781601 
697.76178 166.0 
723.299316 168.152542 
725.123901 162.818176 
751.751099 170.083328 
770.816467 165.09407 
782.196167 163.924454 
802.952881 164.722656 
828.265808 176.28125 
845.907654 206.7258 
846.172668 162.005432 
855.624451 168.5 
861.538147 158.714279 
868.97876 165.704163 
912.699524 170.054825 
933.317627 174.205704 
933.694458 177.041672 
948.230835 161.000854 
952.055237 182.681671 
953.858337 160.801468 
1001.566956 157.443588 
1009.59552 149.395203 
1023.162415 148.15625 
1060.892578 154.58139 
1076.658203 181.961639 
1082.774658 154.125 
1091.952393 153.231476 
1111.442383 172.137924 
1122.335815 169.619995 
1142.605835 157.691895 
1180.378052 158.875 
1188.749634 163.523804 
1198.772583 157.262299 
1210.655518 162.80278 
1261.24939 157.491379 
1273.987427 163.920639 
1275.535889 162.911285 
1280.927734 161.274353 
1283.001221 161.006256 
1299.623047 176.432892 
1321.963989 169.274384 
1334.583374 158.538467 
1340.74292 155.210007 
1395.252686 167.455811 
1406.774536 171.864731 
1416.312988 165.289474 
1420.49292 186.570648 
1431.306396 245.98027 
1433.683716 176.778839 
1468.007446 175.102936 
1499.934814 163.205002 
1504.423218 176.040848 
1515.846436 162.13623 
1532.054077 165.181183 
1563.478149 175.757889 
1567.337524 158.004547 
1569.514404 158.007874 
1581.87854 158.072052 
1584.340576 189.557098 
1623.981567 161.331085 
1648.209229 174.918472 
1651.445679 164.258026 
1679.442139 158.314102 
1683.889526 152.07692 
END IONS

BEGIN IONS
RTINSECONDS=270.365997
CHARGE=1+
MSLEVEL=2
PRECURSORINTENSITY=257615.812500
SMILES=O=C1C=C(OC)C(=O)c2c1c(c1c(c2O)C[C@H](C)OC1=O)O
INCHI=InChI=1S/C15H12O7/c1-5-3-6-9(15(20)22-5)14(19)10-7(16)4-8(21-2)13(18)11(10)12(6)17/h4-5,17,19H,3H2,1-2H3/t5-/m0/s1
INCHIKEY=VZSFONBSZGFZNH-YFKPBYRVSA-N
CLASS=Quinones
ADDUCT=[M+H]+
INSTRUMENT=Agilent Q-ToF 6530
PRECURSOR_MZ=305.0643
COMPOUND_NAME=Haemoventosine
ION_MODE=positive
FORMULA=C15H12O7
115.052383 1561.122925 
121.085411 986.587402 
143.038651 1343.706665 
167.033051 8487.959961 
171.040298 3017.770996 
203.232758 5948.054199 
216.043533 6437.630859 
227.033981 12468.103516 
244.036224 9719.908203 
255.028915 8195.410156 
259.058014 7699.293457 
287.053406 25954.169922 
392.65564 46.520832 
433.424835 52.431122 
444.069946 56.346153 
446.375061 58.055557 
455.810516 53.165539 
458.722168 62.736111 
507.956421 66.041664 
527.05603 46.289288 
548.973572 59.537792 
576.679565 72.408333 
591.222107 78.727272 
593.573792 174.093018 
606.695435 111.447365 
616.972961 76.969826 
654.120789 40.100807 
684.562988 39.002907 
689.117188 41.400002 
713.799927 44.160713 
756.886902 34.328949 
767.057373 40.066666 
794.963196 56.041668 
797.795837 35.765625 
811.495422 34.004032 
823.353394 36.307693 
854.832947 41.041668 
862.738708 41.003204 
878.718018 58.640957 
900.151978 132.761902 
902.562378 59.002274 
928.725586 47.44643 
931.098206 76.909088 
933.11261 52.097828 
936.200012 38.520832 
990.576416 38.107758 
1028.61853 37.595589 
1030.807129 97.012497 
1032.399658 45.04348 
1042.124512 37.450001 
1046.122192 38.166668 
1096.788818 46.100609 
1112.989014 28.333334 
1130.292236 44.599998 
1168.353027 34.778847 
1168.490356 44.032143 
1185.9552 48.125 
1217.912354 68.134438 
1235.067627 37.315788 
1238.167114 34.00658 
1249.857422 33.779411 
1279.275757 34.445 
1312.850342 38.148811 
1330.470337 189.432892 
1339.910522 39.034092 
1356.49353 61.045456 
1381.543823 53.473682 
1403.781128 78.160004 
1413.3125 51.520161 
1413.985352 49.016666 
1435.056641 41.197582 
1464.80127 31.84091 
1479.806396 66.453705 
1485.820923 38.30682 
1487.015137 53.680557 
1502.163696 32.113636 
1515.455933 48.680557 
1527.491943 30.07622 
1587.079346 41.132355 
1588.839722 52.680557 
1593.408936 35.333332 
1606.263062 31.595589 
1613.229736 60.080128 
1623.903076 30.458334 
1679.186401 44.5 
1683.978149 64.3125 
1695.394775 44.390625 
1695.901123 36.875 
1697.276855 25.907259 
1697.977905 41.0 
END IONS

BEGIN IONS
RTINSECONDS=309.785004
CHARGE=1+
MSLEVEL=2
PRECURSORINTENSITY=99433.570312
SMILES=O=c1c2c(O)cc(C)c3c2c(C(=C(O)C3=O)OC)co1
INCHI=InChI=1S/C14H10O6/c1-5-3-7(15)10-9-6(4-20-14(10)18)13(19-2)12(17)11(16)8(5)9/h3-4,15,17H,1-2H3
INCHIKEY=GJSCVPZGPZIBMU-UHFFFAOYSA-N
CLASS=Naphthopyranes
ADDUCT=[M+H]+
INSTRUMENT=Agilent Q-ToF 6530
PRECURSOR_MZ=275.0548
COMPOUND_NAME=Simonyellin
ION_MODE=positive
FORMULA=C14H10O6
102.104965 573.928162 
119.015884 732.893188 
120.062668 544.025024 
147.052032 982.745056 
148.051102 1027.445068 
158.037933 773.601562 
176.047043 3629.182373 
203.071381 626.646545 
204.044342 1607.174805 
214.021881 1102.344238 
232.037003 6006.344727 
338.903351 43.482143 
357.7948 42.016666 
377.933563 40.68145 
402.500031 43.326614 
427.509766 61.047619 
431.096069 42.24662 
457.191345 40.0 
468.078552 47.875 
493.005463 57.171612 
518.53241 36.56818 
528.124023 37.094696 
543.735229 97.703705 
553.014282 49.136364 
566.880371 62.29657 
569.227661 47.032143 
590.547241 38.0 
596.890808 36.782406 
616.289917 29.339285 
645.634949 82.01667 
668.844727 79.002548 
671.967346 29.102272 
674.928589 39.390625 
677.010986 30.005434 
707.705688 83.202271 
744.129272 44.361111 
745.217163 58.414215 
769.062622 36.083332 
781.455627 54.266666 
790.299255 39.333332 
804.933472 40.205002 
857.476501 69.08696 
864.836121 29.375 
870.079895 50.645 
904.675903 32.027779 
914.007812 30.805 
930.163574 32.148811 
932.028625 58.612499 
953.001831 58.785713 
980.560547 52.165321 
980.650085 39.008335 
1001.771057 37.400002 
1014.110291 31.923077 
1026.883789 34.164474 
1037.67041 36.125 
1082.419434 40.219593 
1090.505371 32.799999 
1091.119995 36.075001 
1138.320435 39.125 
1145.369995 37.48077 
1150.618286 33.005951 
1157.240234 41.923077 
1181.34436 38.845001 
1185.694336 37.520832 
1208.291992 44.625 
1220.521973 40.173077 
1228.691284 34.013889 
1231.968506 33.416668 
1298.96814 27.007353 
1331.87915 28.083334 
1338.527588 40.125 
1344.468628 66.761902 
1348.240356 27.148809 
1352.689453 27.027779 
1374.217651 29.360294 
1404.686401 28.036291 
1411.749146 76.003204 
1416.032837 52.148811 
1439.106567 56.049419 
1442.367798 83.040092 
1459.580811 37.0 
1500.759399 29.901316 
1515.845703 36.692307 
1525.953613 31.4 
1552.380615 48.102272 
1568.07959 25.666666 
1586.258667 36.160713 
1590.473999 60.367424 
1592.76355 59.157051 
1643.314575 31.038794 
1644.59668 24.625 
1667.130737 15.2 
1670.043945 15.0 
1670.724854 18.049999 
1684.917358 19.240385 
END IONS

BEGIN IONS
RTINSECONDS=248.929001
CHARGE=1+
MSLEVEL=2
PRECURSORINTENSITY=9255097.000000
SMILES=O[C@H]1[C@H](O)[C@@H](O)[C@H](Oc2c(C)c3oc(C)cc(=O)c3c(O)c2C)O[C@@H]1COC(=O)C
INCHI=InChI=1S/C20H24O10/c1-7-5-11(22)13-14(23)8(2)18(9(3)19(13)28-7)30-20-17(26)16(25)15(24)12(29-20)6-27-10(4)21/h5,12,15-17,20,23-26H,6H2,1-4H3/t12-,15-,16+,17-,20+/m1/s1
INCHIKEY=NJRLDXGREKHXGV-IVABAYMNSA-N
CLASS=Chromanes and Chromones
ADDUCT=[M+H]+
INSTRUMENT=Agilent Q-ToF 6530
PRECURSOR_MZ=425.1484
COMPOUND_NAME=Galapagin
ION_MODE=positive
FORMULA=C20H24O10
107.050095 3089.505859 
119.086899 3122.84082 
135.046799 9525.047852 
147.081009 3862.242432 
165.056915 5308.62793 
175.076782 15777.041992 
206.058929 20208.367188 
219.067184 56824.617188 
221.082657 7924333.5 
221.212097 550357.0625 
222.086151 142403.265625 
END IONS

BEGIN IONS
RTINSECONDS=328.595001
CHARGE=1+
MSLEVEL=2
PRECURSORINTENSITY=59712.320312
SMILES=COc1cc(c2c(c1)C(=O)c1cc(cc(c1C2=O)O)CO)O
INCHI=InChI=1S/C16H12O6/c1-22-8-4-10-14(12(19)5-8)16(21)13-9(15(10)20)2-7(6-17)3-11(13)18/h2-5,17-19H,6H2,1H3
INCHIKEY=WJXSYUJKJSOJOG-UHFFFAOYSA-N
CLASS=Quinones
ADDUCT=[M+H]+
INSTRUMENT=Agilent Q-ToF 6530
PRECURSOR_MZ=301.0701
COMPOUND_NAME=Fallacinol (Teloschistin)
ION_MODE=positive
FORMULA=C16H12O6
121.020096 210.541672 
128.062302 298.880951 
151.094437 315.803833 
156.033768 456.073059 
168.139664 336.343964 
171.078293 697.698303 
227.071777 1444.223755 
228.060593 494.27063 
243.058258 645.537231 
255.06424 2311.149658 
258.052338 1414.210693 
271.058807 1813.793457 
283.056763 934.302795 
367.994781 54.976353 
380.967896 71.019737 
423.565979 43.190475 
426.156525 35.0 
427.538513 35.020832 
432.83844 44.28125 
434.616913 52.787163 
501.924316 32.625 
515.565186 42.802631 
516.994385 34.244999 
538.425049 42.796051 
547.201111 63.0 
554.143188 35.08654 
575.033813 36.603573 
581.769653 41.094696 
616.467407 92.512497 
616.519897 35.680557 
626.162292 39.799999 
634.00531 45.470589 
690.468689 59.670456 
720.673096 32.020832 
735.924438 46.240383 
742.41687 44.455647 
744.350159 60.894737 
752.972778 46.100807 
779.412292 82.112503 
798.538696 35.595589 
814.067261 54.25 
853.147156 33.132355 
853.500916 35.003571 
859.076538 85.79348 
873.146179 29.889706 
879.50238 46.132355 
890.050659 32.692307 
915.025391 26.225 
939.73053 62.336113 
952.342651 68.0 
955.977356 24.654411 
965.621155 35.642857 
1016.089111 39.367645 
1019.122803 38.032143 
1026.696167 61.191177 
1029.514893 32.142857 
1039.173462 34.013889 
1043.508057 31.005434 
1097.494019 36.80357 
1102.190308 32.1875 
1120.681396 80.92308 
1120.778687 28.5 
1144.049561 40.964287 
1201.693115 25.78125 
1213.163208 41.28125 
1215.203369 45.094696 
1218.565552 30.017857 
1233.473877 31.920454 
1238.761597 29.9 
1258.16333 36.78125 
1299.522949 38.445 
1308.221191 24.035715 
1318.407349 31.004629 
1379.831421 50.337963 
1386.276855 34.532894 
1390.999268 23.520834 
1425.138916 52.0 
1435.752075 76.041664 
1443.252441 79.349487 
1463.543823 42.363636 
1469.098145 73.100609 
1477.347168 43.842106 
1500.834473 38.25 
1519.37207 33.142857 
1536.835205 40.0 
1572.978027 60.454544 
1591.587036 31.125 
1603.161255 74.5 
1603.590332 41.00338 
1617.91394 32.0 
1651.015015 39.326614 
1677.80188 30.066177 
1690.81897 38.004631 
1697.772827 41.0 
END IONS

BEGIN IONS
RTINSECONDS=281.971985
CHARGE=1+
MSLEVEL=2
PRECURSORINTENSITY=645644.687500
SMILES=Cc1cc(=O)c2c(c(C)c(O)cc2O)o1
INCHI=InChI=1S/C11H10O4/c1-5-3-8(13)10-9(14)4-7(12)6(2)11(10)15-5/h3-4,12,14H,1-2H3
INCHIKEY=XSSGQRFNGHRFBC-UHFFFAOYSA-N
CLASS=Chromanes and Chromones
ADDUCT=[M+H]+
INSTRUMENT=Agilent Q-ToF 6530
PRECURSOR_MZ=207.067
COMPOUND_NAME=Isoeugenitol
ION_MODE=positive
FORMULA=C11H10O4
103.043198 5278.328125 
105.051239 10010.318359 
133.033188 3943.448975 
161.060806 4652.193359 
164.0578 3946.711914 
167.033188 21542.207031 
271.779724 60.094696 
285.799286 54.235294 
287.612488 64.408333 
309.705109 52.964287 
342.704163 60.11842 
382.421631 45.094696 
383.7742 62.822762 
428.431671 60.29657 
442.745148 43.816666 
447.091736 45.049999 
455.661987 70.117645 
477.247162 78.822762 
481.379303 54.515625 
529.210754 53.777779 
542.704224 53.173912 
548.052979 49.894737 
554.322144 63.166668 
554.941589 53.140625 
556.601135 58.96154 
607.380554 28.166666 
651.229004 74.603569 
651.54071 48.768616 
654.853455 128.360001 
665.159424 43.91848 
697.991943 53.112499 
698.894653 48.165321 
737.362549 32.5 
752.845337 35.027779 
753.671753 59.0 
768.860168 32.03125 
803.666199 51.55682 
836.96283 55.816666 
849.51416 59.012501 
852.587036 37.076923 
864.282715 32.450001 
866.005615 65.173912 
893.381042 42.291668 
928.319519 51.157051 
931.292969 72.708336 
965.275818 25.367647 
965.77832 59.016666 
980.56189 25.326612 
991.877686 41.174999 
1038.782715 54.674999 
1058.427124 56.669445 
1059.664429 55.923912 
1072.622314 57.112499 
1090.704712 26.28409 
1101.378174 27.375 
1115.292847 27.125 
1166.282593 24.020834 
1174.507812 31.017857 
1203.843506 28.75 
1207.341919 40.942307 
1208.573242 35.333332 
1217.961426 31.083334 
1247.658936 40.363636 
1270.351318 40.599998 
1270.435425 29.875 
1270.993042 30.78125 
1275.481934 101.440475 
1319.671143 30.361111 
1332.958618 25.408333 
1336.643188 29.680555 
1349.652832 43.259617 
1371.120239 96.14286 
1371.21521 26.022728 
1387.637451 65.140625 
1392.044312 26.692308 
1443.115967 52.367424 
1444.262207 18.440218 
1445.983521 79.875 
1450.381714 19.020834 
1484.440186 38.0625 
1521.907959 53.130436 
1524.023315 77.160713 
1526.761353 89.695656 
1543.422729 57.845001 
1559.471924 36.008335 
1580.924927 35.204544 
1585.093994 156.330643 
1616.814697 28.605 
1636.672241 69.008331 
1654.435303 81.833336 
1661.327759 26.075001 
1680.53833 24.071428 
1689.861572 39.173077 
1694.539185 23.086538 
1697.955688 23.01923 
END IONS

BEGIN IONS
RTINSECONDS=360.700012
CHARGE=1+
MSLEVEL=2
PRECURSORINTENSITY=4092305.250000
SMILES=C[C@H]1CC(=O)C2=C(c3c(ccc(c3O)c3c(c4c(cc3)O[C@]3([C@H]([C@H](CC(=O)C3=C4O)C)O)C(=O)OC)O)O[C@]2([C@H]1O)C(=O)OC)O
INCHI=InChI=1S/C32H30O14/c1-11-9-15(33)21-25(37)19-17(45-31(21,27(11)39)29(41)43-3)7-5-13(23(19)35)14-6-8-18-20(24(14)36)26(38)22-16(34)10-12(2)28(40)32(22,46-18)30(42)44-4/h5-8,11-12,27-28,35-40H,9-10H2,1-4H3/t11-,12-,27-,28-,31+,32+/m0/s1
INCHIKEY=NFZJAYYORNVZNI-HFEWAROQSA-N
CLASS=Xanthones and bis-Xanthones
ADDUCT=[M+H]+
INSTRUMENT=Agilent Q-ToF 6530
PRECURSOR_MZ=639.1667
COMPOUND_NAME=Secalonic acid B
ION_MODE=positive
FORMULA=C32H30O14
123.043083 134911.265625 
135.041641 14380.509766 
151.038086 214330.296875 
155.06958 64634.066406 
183.064133 325464.03125 
193.048203 181282.28125 
211.059357 30602.460938 
245.037903 3974.695312 
271.020813 3954.451172 
321.069275 3063.587646 
323.094971 4985.026855 
349.081818 11338.852539 
351.082764 24143.619141 
377.063416 164404.28125 
378.072906 9885.636719 
405.058807 18174.919922 
455.096954 156062.703125 
469.089478 52837.964844 
483.107269 93609.164062 
501.114899 180792.1875 
511.100464 54328.921875 
547.122131 56261.046875 
561.135681 668835.125 
562.13739 55992.882812 
579.14624 173454.390625 
589.13031 206303.234375 
621.155701 86985.195312 
723.006287 206.114288 
816.909241 217.290253 
1028.931641 165.533234 
1051.929688 266.972839 
1148.668945 150.920212 
1211.379761 162.780487 
1308.715698 144.153839 
1355.318848 150.070404 
1429.502319 241.122086 
1673.705322 281.03717 
END IONS

BEGIN IONS
RTINSECONDS=575.093018
CHARGE=1+
MSLEVEL=2
PRECURSORINTENSITY=671301.937500
SMILES=CC1(C2C(CCC1OC(=O)C)(C)C1C(CC2)([C@]2(C(CC1)C(CC2)[C@]1(C)O[C@@H](C(C)(OC(=O)C)C)CC1)C)C)C
INCHI=InChI=1S/C34H56O5/c1-21(35)37-27-15-17-31(7)25(29(27,3)4)14-19-33(9)26(31)12-11-23-24(13-18-32(23,33)8)34(10)20-16-28(39-34)30(5,6)38-22(2)36/h23-28H,11-20H2,1-10H3/t23?,24?,25?,26?,27?,28-,31?,32-,33?,34-/m1/s1
INCHIKEY=RBQLECJYZFCFKA-OBVPLGEMSA-N
CLASS=Terpenoids : Triterpenes
ADDUCT=[M+H]+
INSTRUMENT=Agilent Q-ToF 6530
PRECURSOR_MZ=545.42
COMPOUND_NAME=12-Desoxydiacetylpyxinol
ION_MODE=positive
FORMULA=C34H56O5
109.100899 6078.008789 
119.263313 3570.637207 
121.100319 5587.353516 
135.114258 3300.298584 
149.11908 3209.33667 
191.176956 12135.878906 
203.178284 4914.291504 
217.190689 3928.111328 
277.210968 1358.285767 
281.180084 764.754333 
293.252686 593.03125 
295.274078 586.269226 
325.376526 489.351807 
353.300842 372.0 
357.282501 337.802826 
371.378448 752.503113 
389.292938 927.681641 
407.360413 4472.123047 
425.3862 1249.945435 
467.384857 5490.54834 
485.391052 30026.533203 
485.714752 649.65387 
486.390961 2142.278076 
527.415527 3877.469727 
647.533203 147.029755 
662.02948 149.694229 
663.038086 149.0 
678.53949 137.800003 
697.518005 123.098305 
722.619141 121.609756 
726.396606 123.160713 
748.956543 120.901314 
752.742981 144.465378 
770.76886 128.360962 
793.078491 123.045921 
809.31189 120.533333 
823.288696 134.767853 
831.849426 125.07206 
874.182068 120.77594 
877.217346 121.360291 
899.23291 155.764175 
903.472412 121.8125 
926.455566 123.007355 
933.26062 122.75 
937.928101 122.960052 
960.00946 124.083336 
963.53186 135.191483 
992.728149 119.201187 
1030.404907 131.225006 
1031.354858 120.19104 
1047.685669 130.668655 
1052.021362 121.681602 
1087.172729 135.011841 
1114.577881 125.680557 
1128.772705 125.264473 
1144.926514 164.204163 
1167.013672 128.148804 
1169.903931 124.275002 
1189.598389 126.929214 
1240.82666 141.165695 
1241.636108 119.391029 
1266.529297 123.900421 
1267.802734 125.625 
1297.229248 126.047623 
1308.031006 123.5 
1344.64917 169.063828 
1349.081421 118.3153 
1351.43042 117.023933 
1365.271973 127.380264 
1378.37793 118.41523 
1412.817749 125.987679 
1435.187988 140.880493 
1437.113037 136.047867 
1445.839478 128.481674 
1446.910034 137.419998 
1469.005493 130.112076 
1473.01123 146.322372 
1498.470093 119.125 
1512.184814 122.36364 
1513.695679 120.887657 
1531.036133 157.085083 
1571.799561 146.073898 
1574.677368 121.285378 
1590.25 127.108109 
1597.178589 131.6465 
1616.77063 125.371216 
1636.192505 132.619385 
1659.237549 119.0 
1666.087524 122.5 
1695.821533 116.004036 
END IONS

BEGIN IONS
RTINSECONDS=271.382996
CHARGE=1+
MSLEVEL=2
PRECURSORINTENSITY=4253975.500000
SMILES=Cc1cc(=O)c2c(c(c(cc2o1)O)C)O
INCHI=InChI=1S/C11H10O4/c1-5-3-8(13)10-9(15-5)4-7(12)6(2)11(10)14/h3-4,12,14H,1-2H3
INCHIKEY=HMAUJNAGOIPKDG-UHFFFAOYSA-N
CLASS=Chromanes and Chromones
ADDUCT=[M+H]+
INSTRUMENT=Agilent Q-ToF 6530
PRECURSOR_MZ=207.0673
COMPOUND_NAME=Eugenitol
ION_MODE=positive
FORMULA=C11H10O4
105.054619 10423.99707 
121.028877 16127.395508 
133.072769 18910.283203 
151.028687 97644.171875 
161.060822 34356.882812 
167.035553 45788.308594 
299.319824 41.0 
313.25177 62.599998 
326.109283 40.125 
326.402283 59.016666 
332.732452 50.266304 
348.522705 57.458332 
379.273773 38.796051 
381.188904 204.337494 
393.202148 24.53125 
394.192902 37.041668 
446.000488 29.113636 
451.407501 25.025 
454.918823 24.013889 
468.575714 32.454544 
493.795044 43.521553 
505.932373 35.142857 
518.561401 33.005436 
520.583618 29.25 
546.066345 47.266304 
572.075012 42.066666 
588.242737 28.016666 
588.741089 28.796053 
624.247437 64.75 
646.855957 56.0 
647.9776 56.640625 
676.886536 47.111488 
697.681519 46.125 
706.195923 43.25 
709.085022 35.532894 
725.587708 38.020832 
757.864075 29.78125 
774.356262 50.246952 
778.473938 42.333332 
832.726685 49.454544 
842.980713 27.242647 
852.961975 34.014706 
886.715637 32.03125 
900.623535 29.004629 
905.952026 25.125 
908.027039 22.6 
909.608032 34.326614 
930.13678 33.173077 
965.492249 24.142857 
980.169739 31.025 
996.687317 26.347221 
1013.135803 41.142857 
1015.647217 39.157051 
1027.680786 35.235294 
1073.841553 32.150002 
1077.09436 128.520828 
1091.847534 36.487904 
1104.612915 47.625 
1118.621704 51.18182 
1138.732056 36.066666 
1151.866455 56.289288 
1183.143677 32.0 
1185.571899 29.961956 
1195.511475 34.458332 
1236.805908 40.375 
1238.479126 25.333334 
1251.661499 65.11364 
1269.567383 29.285715 
1302.655273 37.25 
1306.947388 56.444443 
1310.315796 114.35601 
1358.26355 38.889706 
1359.302856 39.035713 
1375.234985 42.148811 
1384.178467 43.515625 
1430.659058 140.248596 
1434.489746 26.13587 
1476.058716 41.036289 
1477.695557 29.183823 
1479.539307 31.432142 
1528.849976 28.408333 
1530.66687 49.390625 
1553.28418 26.166666 
1557.403442 30.008333 
1584.846191 24.321428 
1585.166748 35.532894 
1609.927002 31.568182 
1641.608398 45.551472 
1650.325195 67.896278 
1651.833374 28.038794 
1675.713257 19.408333 
1683.335815 17.0 
1697.44397 16.0 
END IONS

BEGIN IONS
RTINSECONDS=40.319
CHARGE=1+
MSLEVEL=2
PRECURSORINTENSITY=47260.250000
SMILES=COC1=C(NC(CO)CCC(=O)O)CC(CO)(O)CC1=O
INCHI=InChI=1S/C13H21NO7/c1-21-12-9(4-13(20,7-16)5-10(12)17)14-8(6-15)2-3-11(18)19/h8,14-16,20H,2-7H2,1H3,(H,18,19)
INCHIKEY=AOLLRBVQJZTTPF-UHFFFAOYSA-N
CLASS=Mycosporines
ADDUCT=[M+H]+
INSTRUMENT=Agilent Q-ToF 6530
PRECURSOR_MZ=304.1373
COMPOUND_NAME=Mycosporine glutamicol
ION_MODE=positive
FORMULA=C13H21NO7
110.050163 887.041687 
111.177559 559.341858 
126.069443 578.796692 
140.033432 736.001526 
142.064255 724.569824 
152.072357 1177.580688 
174.100616 618.712036 
188.087494 433.558655 
192.041138 394.1427 
204.064499 332.026703 
234.087509 255.642853 
258.114929 686.539124 
370.065186 36.205002 
370.318146 43.094696 
370.858185 42.416668 
425.256165 38.408333 
439.769012 58.388889 
446.180359 45.005951 
448.660248 47.960526 
481.298676 41.055557 
495.797729 166.152435 
512.183594 39.328949 
519.435608 49.27174 
554.403809 46.408333 
569.828796 37.81818 
574.946472 41.004032 
583.098694 42.482143 
603.405029 166.840271 
635.772827 39.390625 
640.894409 60.297619 
657.474365 49.778225 
660.599182 25.291666 
712.536316 46.68145 
713.723877 67.094696 
743.724487 32.272728 
752.278259 40.796051 
752.843079 32.113636 
759.339478 27.28125 
811.611816 50.013157 
839.141907 60.107143 
849.121094 36.140625 
861.249817 63.894737 
881.051941 35.165539 
885.445984 49.308823 
892.887939 56.25 
902.003174 32.125 
902.080139 33.75 
970.462524 28.208334 
974.313904 54.768616 
985.279236 28.28409 
991.429016 55.5625 
996.768555 35.23077 
1048.784424 29.025 
1057.240845 26.405001 
1057.36792 35.05357 
1098.541016 78.544495 
1119.455933 40.142242 
1125.541504 30.482143 
1134.705688 28.245001 
1147.500732 30.004629 
1179.794678 32.005001 
1195.066162 35.027779 
1205.324097 45.642857 
1226.692993 51.094696 
1245.07959 29.961956 
1273.724365 36.245689 
1275.906738 42.694443 
1281.533081 31.075001 
1319.876587 67.833336 
1330.658691 39.671295 
1337.813477 47.002907 
1339.689453 44.273647 
1348.196899 34.066666 
1408.794067 29.375 
1421.391357 26.200001 
1428.048584 30.165323 
1429.55481 29.720238 
1453.103149 35.125 
1463.33606 26.28125 
1473.521118 26.480263 
1517.840698 55.040001 
1527.182129 27.5 
1527.935059 30.160715 
1552.109375 61.185608 
1572.801514 27.0 
1595.673096 80.358047 
1623.91333 50.25 
1624.165039 26.321428 
1638.492676 29.041666 
1640.777222 28.778847 
1672.225586 42.210526 
1677.431885 42.102272 
1698.343262 22.025 
END IONS

BEGIN IONS
RTINSECONDS=546.93103
CHARGE=1+
MSLEVEL=2
PRECURSORINTENSITY=92282.710938
SMILES=COc1cc2c(c(=O)oc(CCC)c2)c(O)c1
INCHI=InChI=1S/C13H14O4/c1-3-4-9-5-8-6-10(16-2)7-11(14)12(8)13(15)17-9/h5-7,14H,3-4H2,1-2H3
INCHIKEY=WTYWMHXEEXFHAD-UHFFFAOYSA-N
CLASS=Cleavage Products of Depsides and Depsidones
ADDUCT=[M+H]+
INSTRUMENT=Agilent Q-ToF 6530
PRECURSOR_MZ=235.0961
COMPOUND_NAME=Glomellin
ION_MODE=positive
FORMULA=C13H14O4
101.103798 316.063446 
121.029663 1085.936279 
165.017319 1838.513306 
189.051895 6900.904297 
191.035416 5942.713867 
205.043518 8635.772461 
300.34433 39.285713 
334.431274 38.094696 
355.526428 25.053572 
357.900085 38.240383 
372.630585 40.115742 
411.810883 46.011906 
418.992798 42.840908 
433.24295 53.291668 
434.831909 34.942307 
441.042114 48.005001 
481.198273 33.224998 
507.411011 30.28125 
512.145142 54.799999 
529.803955 48.720238 
534.996643 41.0 
552.285767 59.246952 
569.220276 60.0 
598.638245 47.367645 
612.037842 56.009258 
612.771851 35.779411 
623.906189 59.432144 
675.720886 39.07143 
681.186707 34.307693 
696.074829 38.242645 
725.332947 50.025002 
738.325073 53.645 
743.681396 35.625 
746.520264 29.23077 
750.754517 28.674999 
803.931152 33.013889 
819.557495 35.892857 
823.743958 44.011906 
825.847168 45.901318 
836.456116 36.038792 
865.366211 37.016666 
882.43927 74.779411 
888.064392 36.920456 
891.089966 31.642857 
926.369263 35.224998 
942.985168 23.03125 
969.909302 52.185608 
970.086426 23.307692 
972.782104 18.01923 
1018.846313 37.01923 
1024.227295 33.041668 
1029.787842 30.720589 
1037.785278 32.923077 
1064.302368 34.0 
1073.837524 38.875 
1084.546631 31.25 
1106.409668 49.132355 
1140.308105 194.225357 
1159.299927 87.884804 
1173.348511 40.432144 
1185.944824 68.736115 
1216.634521 50.409092 
1234.020752 34.142857 
1240.38269 37.148811 
1270.738647 23.204546 
1270.922974 33.036289 
1280.453857 36.782406 
1311.406494 22.360294 
1324.193115 22.007353 
1326.697144 36.570652 
1345.215332 50.111111 
1375.802124 29.361111 
1384.232422 28.173077 
1406.318359 32.75 
1418.524292 47.375 
1443.175293 37.44643 
1457.216309 30.125 
1460.649292 91.612503 
1476.94104 50.760136 
1507.389282 37.025002 
1509.021362 32.183823 
1513.066162 36.671295 
1513.869263 40.059212 
1565.021729 59.695515 
1565.582642 34.160713 
1606.32251 60.568398 
1616.430542 34.30682 
1623.715088 37.185608 
1638.568115 30.532894 
1642.446533 57.273647 
END IONS

BEGIN IONS
RTINSECONDS=341.074005
CHARGE=1+
MSLEVEL=2
PRECURSORINTENSITY=315290.031250
SMILES=Cc1cc(c2c(c1)C(=O)C13C4C5C(C1C(=O)C1=C(c6c(cc(cc6C(=O)C51C(C4O)C(=O)C3=C2O)C)O)O)O)O
INCHI=InChI=1S/C30H22O10/c1-7-3-9-13(11(31)5-7)21(33)17-25(37)20-23(35)15-16-24(36)19(29(15,17)27(9)39)26(38)18-22(34)14-10(28(40)30(16,18)20)4-8(2)6-12(14)32/h3-6,15-16,19-20,23-24,31-36H,1-2H3
INCHIKEY=QFDPVUTXKUGISP-UHFFFAOYSA-N
CLASS=Quinones
ADDUCT=[M+H]+
INSTRUMENT=Agilent Q-ToF 6530
PRECURSOR_MZ=543.1276
COMPOUND_NAME=Rugulosin
ION_MODE=positive
FORMULA=C30H22O10
107.066574 104.840118 
153.094345 410.9151 
217.053452 3844.505371 
255.063873 46889.199219 
256.073395 2262.357178 
271.056854 15570.453125 
273.074829 148043.15625 
274.348572 4926.789062 
335.074005 206.125 
338.954895 187.0 
392.088837 158.080353 
419.070618 205.136261 
437.100922 307.5 
465.099457 658.198792 
479.109894 848.338257 
489.110291 1343.151978 
507.107971 12124.142578 
525.11322 5660.52002 
608.084106 33.083332 
614.291992 33.785713 
677.054688 55.090908 
679.279175 46.038792 
682.196899 45.004032 
684.413635 59.215427 
699.335266 49.069443 
715.687927 55.224998 
728.692444 42.222828 
741.889221 34.360294 
801.099243 30.445 
805.004883 24.694445 
807.464966 29.446428 
822.137939 28.53125 
840.438171 30.75 
872.249817 94.01844 
872.325256 36.284092 
878.034485 49.760136 
892.151306 69.666664 
922.505188 31.173077 
931.506592 33.25 
937.8396 31.266304 
944.505859 59.266666 
980.349304 66.002449 
987.581787 33.041668 
1011.098633 43.0 
1023.084717 35.416668 
1027.177979 57.136364 
1057.665894 30.083334 
1063.148926 32.666668 
1064.382446 29.005953 
1073.880615 49.810001 
1128.061401 43.91848 
1152.927002 46.75 
1158.230225 37.05357 
1194.755981 101.199997 
1199.231934 35.016666 
1203.220093 63.0625 
1255.217285 45.875 
1265.553833 50.0 
1270.684326 42.882355 
1277.446655 32.020832 
1281.86084 34.11842 
1330.320557 29.720238 
1351.497559 34.142857 
1360.095093 45.41346 
1390.047485 29.200001 
1393.792847 157.248077 
1393.912231 55.840908 
1439.757812 45.00338 
1459.857422 50.625 
1472.496338 39.044998 
1480.658325 55.939518 
1494.279297 39.004032 
1521.009399 46.004032 
1539.682861 41.450001 
1555.995239 31.027779 
1572.550781 67.006577 
1572.618896 54.005436 
1619.012695 41.280174 
1619.173584 46.012501 
1636.063232 49.307693 
1676.4375 26.164474 
1676.542969 48.450001 
1677.878052 23.25 
1693.141846 21.482143 
END IONS

BEGIN IONS
RTINSECONDS=348.317993
CHARGE=1+
MSLEVEL=2
PRECURSORINTENSITY=12717363.000000
SMILES=Cc1cc(=O)c2c(c(C)c(O[C@H]3[C@H](OC(=O)C)[C@@H](OC(=O)C)[C@H](OC(=O)C)[C@@H](COC(=O)C)O3)cc2O)o1
INCHI=InChI=1S/C25H28O13/c1-10-7-16(30)20-17(31)8-18(11(2)21(20)33-10)37-25-24(36-15(6)29)23(35-14(5)28)22(34-13(4)27)19(38-25)9-32-12(3)26/h7-8,19,22-25,31H,9H2,1-6H3/t19-,22-,23+,24-,25-/m1/s1
INCHIKEY=NWASWCGVBSEDJX-HYOIWIKGSA-N
CLASS=Chromanes and Chromones
ADDUCT=[M+H]+
INSTRUMENT=Agilent Q-ToF 6530
PRECURSOR_MZ=537.1605
COMPOUND_NAME=Acetyllobodirin
ION_MODE=positive
FORMULA=C25H28O13
103.039528 17573.146484 
109.028015 2228599.75 
109.121506 124569.398438 
110.031952 25260.716797 
127.039124 624412.6875 
139.038605 176757.15625 
169.049301 1248535.75 
207.064713 7651709.5 
207.188843 529456.125 
208.068146 138015.15625 
211.059616 105842.429688 
229.068695 11723.62207 
271.079834 24256.244141 
289.092896 2090.984131 
297.070374 3114.696777 
315.084595 2960.014893 
331.101501 75766.601562 
357.100586 2103.248779 
375.10791 2171.003174 
417.114594 1024.983521 
477.132538 1637.851929 
495.150085 2581.003662 
606.956299 134.314285 
1062.262207 150.847824 
END IONS

BEGIN IONS
RTINSECONDS=535.646973
CHARGE=1+
MSLEVEL=2
PRECURSORINTENSITY=924750.562500
SMILES=CC1(C)[C@@H](O)CC[C@]2(C)[C@H]3CC[C@@H]4[C@@H]([C@@]5(C)O[C@H](CC5)C(C)(OC(=O)C)C)CC[C@@]4(C)[C@]3(C)CCC12
INCHI=InChI=1S/C32H54O4/c1-20(33)35-28(4,5)26-15-19-32(9,36-26)22-12-17-30(7)21(22)10-11-24-29(6)16-14-25(34)27(2,3)23(29)13-18-31(24,30)8/h21-26,34H,10-19H2,1-9H3/t21-,22+,23?,24-,25+,26-,29+,30-,31-,32+/m1/s1
INCHIKEY=KLFGJICTDRFLDB-VJNLAODGSA-N
CLASS=Terpenoids : Triterpenes
ADDUCT=[M+H]+
INSTRUMENT=Agilent Q-ToF 6530
PRECURSOR_MZ=503.4
COMPOUND_NAME="25-Acetoxy-3b-hydroxy-20(S),24(R)-epoxydammarane"
ION_MODE=positive
FORMULA=C32H54O4
107.175125 9210.441406 
109.099602 15556.348633 
119.211693 8602.487305 
121.100044 13155.202148 
135.115555 15268.819336 
189.16275 8916.90625 
191.177628 39945.675781 
203.176727 13393.060547 
217.192383 18162.810547 
277.227234 5571.567383 
281.206726 1796.651367 
293.202698 2365.767578 
295.191681 2316.120361 
311.271454 1320.635864 
325.283386 1475.714722 
353.301086 859.415527 
371.293549 1027.588745 
389.307983 1727.631104 
407.361969 10662.443359 
408.362366 843.890076 
425.373505 6639.84082 
449.373322 936.870728 
467.390961 14402.25 
485.378357 70241.265625 
486.394958 4176.817871 
595.738037 132.017303 
609.927673 142.086533 
619.1922 135.592102 
621.68988 133.777771 
650.832886 130.734848 
656.221863 140.248535 
672.441406 152.10527 
701.380676 132.756256 
711.946716 160.5 
738.3479 132.475006 
767.838257 158.443176 
774.873596 156.56514 
793.575684 193.349213 
802.793945 156.977417 
815.831665 261.991821 
822.996765 159.061752 
874.2547 133.444443 
882.447205 159.43811 
886.066772 147.036758 
921.11676 157.801315 
937.645386 130.77594 
940.354736 130.595581 
967.379333 175.0 
974.32196 159.760864 
999.724976 162.325577 
1007.800232 136.125 
1013.192139 150.587265 
1041.196045 132.878052 
1068.138428 129.254898 
1069.08667 127.105263 
1099.603149 143.384094 
1103.324707 132.419998 
1108.762451 133.248535 
1138.420044 133.010864 
1151.333862 178.667862 
1170.406128 139.782608 
1178.256104 145.19104 
1188.609863 216.053574 
1203.618896 160.840057 
1213.82666 132.38942 
1250.787109 151.5 
1269.742188 149.113632 
1284.925903 136.273651 
1298.533447 129.917557 
1309.223145 133.415237 
1317.670288 134.695312 
1351.313232 135.607147 
1354.143921 140.040817 
1367.466187 133.461533 
1372.476929 156.877655 
1393.569458 147.692307 
1403.221924 131.371918 
1425.560791 134.121262 
1429.437988 130.005554 
1466.237183 130.089279 
1485.493408 142.449081 
1519.504517 130.001617 
1521.144653 137.454544 
1560.715454 137.358047 
1574.522461 138.121994 
1605.690674 129.664154 
1609.115234 151.0 
1651.193237 129.225006 
1656.002075 140.065857 
1661.260864 131.537231 
1666.837524 141.599304 
1679.824463 125.444618 
1693.624268 123.653229 
END IONS

BEGIN IONS
RTINSECONDS=402.550995
CHARGE=1+
MSLEVEL=2
PRECURSORINTENSITY=556255.687500
SMILES=Cc1cc(O)c2c(c1)C(=O)c1c(C2=O)c(cc(c1)OC)O
INCHI=InChI=1S/C16H12O5/c1-7-3-9-13(11(17)4-7)16(20)14-10(15(9)19)5-8(21-2)6-12(14)18/h3-6,17-18H,1-2H3
INCHIKEY=FFWOKTFYGVYKIR-UHFFFAOYSA-N
CLASS=Quinones
ADDUCT=[M+H]+
INSTRUMENT=Agilent Q-ToF 6530
PRECURSOR_MZ=285.0756
COMPOUND_NAME=Parietin
ION_MODE=positive
FORMULA=C16H12O5
135.042145 5657.44873 
139.040176 3507.859619 
151.038528 7076.577148 
168.126678 14388.241211 
196.048126 7988.001953 
211.075424 16519.59375 
224.04364 7609.243652 
239.072067 9487.794922 
242.055222 21056.679688 
349.998199 61.852272 
380.491119 53.038792 
396.56012 67.008926 
411.054047 253.632675 
419.314087 86.387817 
432.957306 220.432693 
433.012543 87.670456 
480.883148 153.0336 
502.378967 70.793602 
519.486816 84.086861 
521.69751 77.235291 
522.854126 66.012497 
542.88208 76.009262 
569.296265 57.555851 
585.491394 46.136112 
621.51001 76.160713 
627.400085 38.976353 
640.135559 79.839996 
686.804504 52.645 
690.318848 60.049999 
702.661316 55.125 
707.916077 55.094696 
714.904968 47.816666 
751.893921 64.222824 
767.578979 50.470589 
774.949341 46.002777 
799.465942 44.640152 
803.109741 36.728447 
829.384766 35.100807 
829.973206 51.367645 
843.548767 54.490383 
862.081177 89.324997 
892.38678 65.625 
904.278137 36.0 
916.768372 40.076923 
918.506592 36.89352 
942.109619 36.666668 
955.555542 39.32143 
972.257446 99.881668 
996.649841 45.529411 
1000.095459 63.445 
1010.518555 46.017857 
1012.807068 50.909092 
1055.310791 36.044998 
1096.286865 40.68145 
1105.508545 58.25 
1124.950684 39.671295 
1127.596558 25.025 
1140.019531 44.016666 
1179.97937 48.889706 
1181.144897 35.782406 
1188.057983 66.25 
1214.027832 43.450001 
1219.397583 83.801666 
1231.684326 66.002052 
1239.92688 58.227272 
1244.624512 40.307693 
1265.28833 91.679054 
1296.500977 30.890625 
1310.944214 107.008331 
1339.383179 19.041666 
1347.328857 20.005953 
1352.193359 24.480263 
1361.106934 50.072674 
1391.342285 19.0 
1392.109619 39.005951 
1399.7854 23.020834 
1444.191528 26.0 
1448.14978 45.449467 
1471.522705 37.432144 
1472.859009 91.202271 
1485.361328 59.012501 
1494.711548 60.929878 
1506.84436 40.0625 
1542.717285 21.05921 
1580.493164 42.173912 
1594.063721 81.284088 
1602.932251 45.625 
1611.171875 48.003788 
1623.578735 47.036289 
1650.652466 64.8125 
1674.836548 43.782406 
1696.298462 18.086538 
1696.632324 49.005436 
END IONS

BEGIN IONS
RTINSECONDS=338.584015
CHARGE=1+
MSLEVEL=2
PRECURSORINTENSITY=1787576.250000
SMILES=Oc1cc(O)cc2c1c(=O)c1c(o2)cc(c(Cl)c1C)O
INCHI=InChI=1S/C14H9ClO5/c1-5-11-10(4-8(18)13(5)15)20-9-3-6(16)2-7(17)12(9)14(11)19/h2-4,16-18H,1H3
INCHIKEY=GJFIGYXKJHSBBY-UHFFFAOYSA-N
CLASS=Xanthones and bis-Xanthones
ADDUCT=[M+H]+
INSTRUMENT=Agilent Q-ToF 6530
PRECURSOR_MZ=293.0208
COMPOUND_NAME=7-Chlornorlichexanthone
ION_MODE=positive
FORMULA=C14H9ClO5
121.026184 6600.467285 
127.054306 5394.347656 
128.061676 4624.54834 
155.051819 11062.070312 
161.057968 7569.262207 
184.998718 47227.699219 
201.053604 36433.808594 
229.049774 153890.296875 
230.055664 47254.113281 
257.043518 170246.421875 
258.051453 577847.8125 
353.528595 81.49128 
396.289612 82.142441 
414.246948 76.408333 
437.54483 96.537788 
449.003723 84.134438 
452.348175 66.941177 
471.095062 60.008335 
490.677094 100.612289 
490.727203 64.349136 
532.739868 63.8125 
551.507324 48.695515 
560.927002 46.490383 
573.700928 39.720238 
583.685547 56.375 
589.447693 93.360291 
644.981934 87.680557 
653.7948 66.058823 
660.937439 127.160713 
662.048096 43.004032 
667.747559 82.241379 
690.978455 52.032143 
725.412537 47.91848 
750.001404 44.049999 
761.809692 78.556816 
780.755859 43.367645 
793.561584 59.266304 
795.683716 39.016666 
806.523132 119.675003 
845.851807 31.692308 
854.403015 64.555557 
868.746094 63.107758 
903.145752 69.800003 
924.260132 67.884804 
927.515991 58.570946 
950.325745 91.306816 
958.221619 61.049419 
966.458191 78.066666 
986.846008 48.799999 
1012.715088 42.694443 
1039.644897 77.703705 
1068.13208 56.333332 
1090.399658 26.266304 
1091.165894 86.633331 
1099.836792 93.391129 
1114.559692 41.390625 
1142.759766 29.017857 
1146.86084 54.012501 
1185.784668 75.115562 
1225.023315 30.326923 
1230.673706 54.049999 
1259.684204 31.165541 
1260.889038 109.066666 
1260.979004 42.5625 
1262.687622 29.225 
1315.736084 66.675003 
1340.055054 74.480766 
1348.482422 33.125 
1355.859619 42.017857 
1362.797241 62.047619 
1368.903687 46.160713 
1398.810425 127.24662 
1408.386597 208.015411 
1408.562744 36.471153 
1468.581665 40.013889 
1475.185669 36.969826 
1485.029053 33.5625 
1529.075073 77.428574 
1555.199219 54.240383 
1558.015381 51.347221 
1593.672485 71.375 
1604.588989 47.0 
1606.844604 43.099998 
1608.569824 65.259262 
1619.023438 47.285713 
1650.320068 36.480263 
1677.15271 32.816666 
END IONS

BEGIN IONS
RTINSECONDS=336.645996
CHARGE=1+
MSLEVEL=2
PRECURSORINTENSITY=1044878.000000
SMILES=O=c1c2c(oc3c1c(C)cc(O)c3Cl)cc(O)c(Cl)c2O
INCHI=InChI=1S/C14H8Cl2O5/c1-4-2-5(17)11(16)14-8(4)12(19)9-7(21-14)3-6(18)10(15)13(9)20/h2-3,17-18,20H,1H3
INCHIKEY=GKSZPGKBFDLXNF-UHFFFAOYSA-N
CLASS=Xanthones and bis-Xanthones
ADDUCT=[M+H]+
INSTRUMENT=Agilent Q-ToF 6530
PRECURSOR_MZ=326.981
COMPOUND_NAME="2,5-Dichloronorlichexanthone"
ION_MODE=positive
FORMULA=C14H8Cl2O5
105.013458 427.892578 
115.052284 781.667053 
126.042587 1197.160034 
161.015076 1477.654053 
162.022507 2419.845947 
189.010223 2703.347168 
200.043488 2278.651855 
218.009857 3329.57666 
235.013504 9255.146484 
252.981918 56786.703125 
263.008789 30011.138672 
264.016876 14604.774414 
291.006165 35889.226562 
292.012024 196988.859375 
389.90329 78.006577 
403.195709 58.209999 
407.335114 71.469444 
419.400024 46.768616 
429.514282 166.880493 
471.060028 48.145409 
483.322357 62.49128 
527.619812 44.102272 
531.679993 52.222221 
540.573914 124.008331 
544.336304 69.900421 
573.967957 69.240082 
578.012512 42.112499 
597.484009 67.594391 
645.748108 53.280174 
660.579468 31.349138 
661.736694 31.005953 
675.480713 63.44643 
715.027832 129.277023 
723.340881 201.177521 
723.417419 84.375 
732.386169 122.112068 
760.830627 66.191177 
786.442688 37.76923 
795.936768 41.888889 
841.74054 61.003788 
844.24762 33.969826 
845.290161 31.666666 
877.008606 74.900002 
908.210999 49.720238 
929.086365 82.056816 
947.077087 43.049999 
947.676575 88.120766 
951.24408 83.440475 
979.175903 26.1875 
999.659119 26.272728 
1039.177856 27.041666 
1058.104248 29.0625 
1068.370728 26.111111 
1074.043823 56.125 
1076.577515 36.720238 
1109.693359 30.326612 
1132.467529 50.728447 
1166.281128 106.107452 
1176.628296 27.173077 
1177.858521 25.240385 
1238.797607 26.816668 
1252.858032 77.022057 
1267.854858 27.008333 
1273.724609 80.791664 
1274.062134 27.361111 
1298.90625 35.0625 
1303.655518 38.520161 
1341.37793 33.25 
1376.039673 98.061272 
1403.720825 60.612804 
1403.958496 28.6875 
1428.810791 34.339287 
1443.874146 37.094696 
1478.556641 48.845001 
1493.456299 41.367645 
1500.749512 32.165539 
1514.451416 39.013889 
1542.765869 68.346153 
1558.570679 35.23077 
1571.425415 33.625 
1599.021973 26.11574 
1618.35376 27.245001 
1629.421265 125.728447 
1645.48291 99.349998 
1685.908325 27.778847 
END IONS

BEGIN IONS
RTINSECONDS=358.596008
CHARGE=1+
MSLEVEL=2
PRECURSORINTENSITY=27776316.000000
SMILES=COc1cc2c(c(=O)oc(CCCCC)c2)c(OC)c1
INCHI=InChI=1S/C16H20O4/c1-4-5-6-7-12-8-11-9-13(18-2)10-14(19-3)15(11)16(17)20-12/h8-10H,4-7H2,1-3H3
INCHIKEY=NKYAIPHVDQBFLF-UHFFFAOYSA-N
CLASS=Cleavage Products of Depsides and Depsidones
ADDUCT=[M+H]+
INSTRUMENT=Agilent Q-ToF 6530
PRECURSOR_MZ=277.1483
COMPOUND_NAME="2,4-Di-O-methylolivetonide"
ION_MODE=positive
FORMULA=C16H20O4
121.064339 261626.796875 
145.064499 411382.78125 
162.067291 397435.84375 
164.046646 1854773.375 
175.075073 431590.0625 
177.077286 690391.6875 
206.057144 614960.5 
217.087097 359535.6875 
259.132202 405880.0 
337.95108 276.420807 
342.72644 239.240387 
347.152954 229.222366 
350.911224 241.580505 
364.374786 266.123535 
433.750488 220.03215 
434.960297 204.289474 
445.263458 197.47406 
456.257294 202.10527 
525.858948 190.723358 
562.351135 215.539841 
612.067505 190.900421 
659.081665 198.222229 
683.613464 193.125 
738.104675 210.939438 
824.158936 357.443176 
952.703613 214.910721 
1034.874512 263.533081 
1041.162476 198.767853 
1065.842651 206.32724 
1075.190552 188.13623 
1174.12915 190.122803 
1394.212158 233.018524 
1394.554443 209.004807 
1419.392456 200.382935 
1598.682861 200.795944 
1644.529053 188.001312 
1688.39209 311.15976 
END IONS

BEGIN IONS
RTINSECONDS=503.529999
CHARGE=1+
MSLEVEL=2
PRECURSORINTENSITY=63479.628906
SMILES=CC1(C)C(=O)CC[C@]2(C)[C@H]3CC[C@@H]4[C@@]5(C)CCC(=C5CC[C@@]4(C)[C@]3(C)CCC12)C(C)C
INCHI=InChI=1S/C30H48O/c1-19(2)20-11-15-27(5)21(20)12-17-29(7)23(27)9-10-24-28(6)16-14-25(31)26(3,4)22(28)13-18-30(24,29)8/h19,22-24H,9-18H2,1-8H3/t22?,23-,24-,27+,28+,29-,30-/m1/s1
INCHIKEY=QIPITLICOVJMDG-OKOXHQOOSA-N
CLASS=Terpenoids : Triterpenes
ADDUCT=[M+H]+
INSTRUMENT=Agilent Q-ToF 6530
PRECURSOR_MZ=425.3707
COMPOUND_NAME=17(21)-Hopen-3-one
ION_MODE=positive
FORMULA=C30H48O
109.194168 1313.733765 
123.128479 1683.884766 
135.095871 1031.251953 
137.117325 1237.068848 
151.312653 2815.285645 
165.123886 1768.16748 
191.236771 757.966919 
219.286621 556.697693 
233.189835 642.661377 
259.191101 329.128571 
261.237823 205.666672 
289.245667 320.0 
301.203888 329.23111 
315.269928 373.879303 
329.271362 245.972824 
343.370117 182.625 
355.299316 177.347229 
369.306671 259.32074 
486.77124 44.224998 
507.170563 51.0625 
533.921997 37.322369 
563.440063 175.930237 
563.554321 32.076923 
580.243225 37.391129 
612.083862 44.041668 
621.515259 34.560184 
630.629639 89.130318 
682.483826 65.845001 
682.678406 26.25 
683.847717 34.765625 
689.479614 36.5 
719.240967 54.29657 
748.005249 66.076218 
749.652344 23.666666 
765.536621 34.005436 
775.774414 38.022728 
776.642456 36.094696 
806.602478 67.03846 
817.402527 41.778847 
819.250366 38.339287 
829.55188 34.6875 
872.28833 38.005951 
881.27002 44.003788 
900.612976 71.00338 
915.414612 36.041668 
931.395813 33.367424 
947.287476 32.027779 
976.714905 27.075001 
980.470215 66.736115 
992.158081 28.778847 
1016.33374 40.004311 
1039.809937 77.04348 
1039.931396 27.148809 
1080.934814 53.450001 
1081.733398 77.100609 
1117.53418 56.761906 
1122.741943 46.273647 
1135.566284 42.125 
1151.64624 61.765625 
1169.521484 47.400002 
1187.220581 35.244999 
1189.106812 40.034092 
1200.251831 54.125 
1209.307129 40.090908 
1241.748901 40.720589 
1262.196533 46.693966 
1268.654419 205.331528 
1299.536377 35.349136 
1312.578613 33.036289 
1334.091797 39.532894 
1388.466919 25.0 
1388.570923 24.532894 
1392.606079 32.840908 
1416.535767 26.025 
1420.991211 28.083334 
1444.206909 32.01923 
1450.875366 30.076923 
1460.230591 31.9 
1473.404419 29.363636 
1497.405518 21.11574 
1516.415039 27.450001 
1522.790283 75.0 
1550.026733 29.166666 
1581.311768 32.654411 
1585.909424 44.041668 
1591.401733 61.049999 
1603.876709 28.595589 
1655.674194 52.066666 
1663.247559 32.363636 
1685.72583 41.367424 
1694.071045 18.440218 
1694.358154 95.208336 
END IONS

BEGIN IONS
RTINSECONDS=437.834991
CHARGE=1+
MSLEVEL=2
PRECURSORINTENSITY=1595685.125000
SMILES=Cc1cc(OC)cc2c1c(=O)c1c(c(Cl)c(OC)cc1O)o2
INCHI=InChI=1S/C16H13ClO5/c1-7-4-8(20-2)5-10-12(7)15(19)13-9(18)6-11(21-3)14(17)16(13)22-10/h4-6,18H,1-3H3
INCHIKEY=XHCJIWRCLSSDCD-UHFFFAOYSA-N
CLASS=Xanthones and bis-Xanthones
ADDUCT=[M+H]+
INSTRUMENT=Agilent Q-ToF 6530
PRECURSOR_MZ=321.0513
COMPOUND_NAME=4-Chlorolichexanthone
ION_MODE=positive
FORMULA=C16H13ClO5
115.053314 1739.235229 
121.050964 1589.307983 
122.073944 1399.728882 
161.058731 2396.543457 
215.067764 24529.634766 
260.02182 60930.242188 
263.00943 24747.361328 
271.060272 34135.351562 
277.013245 91476.5625 
278.031738 487128.3125 
399.547241 112.008621 
411.766998 59.112499 
412.346619 106.703491 
438.442169 85.89286 
439.682983 62.512501 
461.206818 56.654411 
493.506378 65.063774 
532.076355 86.598686 
557.013916 51.909092 
559.948425 53.695515 
569.335449 60.284092 
592.558472 56.136112 
602.898499 69.578949 
616.213318 61.142605 
662.131042 83.284088 
673.577026 98.63636 
673.83313 130.260635 
674.475769 86.339287 
676.615051 88.898148 
724.239563 54.140625 
725.627502 97.284485 
758.462891 102.189392 
778.122437 56.125 
792.7323 224.5 
798.659546 50.125 
835.551575 52.240383 
856.505859 90.017311 
857.26001 139.191483 
872.216797 81.18409 
891.348022 80.209908 
902.251282 62.035713 
927.562683 82.559998 
960.479614 71.959999 
960.564209 52.520161 
988.759216 103.898148 
1016.244263 101.125 
1028.890381 57.561047 
1059.489258 50.0 
1073.870972 60.875 
1113.169556 59.3125 
1122.408081 74.947365 
1168.815063 58.782406 
1179.492676 170.889038 
1220.435791 69.615387 
1228.799683 53.113636 
1313.087036 70.603569 
1319.035767 54.002552 
1343.879028 63.190475 
1402.043823 53.889286 
1528.864014 49.160713 
1544.897705 87.222221 
1550.765747 116.201614 
1570.996216 166.03157 
1577.713867 50.575001 
1672.216187 138.625 
1678.5177 60.55682 
1685.095215 70.445656 
END IONS

BEGIN IONS
RTINSECONDS=601.406982
CHARGE=1+
MSLEVEL=2
PRECURSORINTENSITY=171912.562500
SMILES=C[C@@]12CCCC([C@H]1CC[C@]13[C@H]2CC[C@H](C1)C(=C)C3)(C)C
INCHI=InChI=1S/C20H32/c1-14-12-20-11-8-16-18(2,3)9-5-10-19(16,4)17(20)7-6-15(14)13-20/h15-17H,1,5-13H2,2-4H3/t15-,16-,17+,19-,20-/m1/s1
INCHIKEY=ONVABDHFQKWOSV-HPUSYDDDSA-N
CLASS=Terpenoids : Diterpenes
ADDUCT=[M+H]+
INSTRUMENT=Agilent Q-ToF 6530
PRECURSOR_MZ=273.2535
COMPOUND_NAME=Kaurane
ION_MODE=positive
FORMULA=C20H32
107.06498 4733.89209 
108.908516 8718.828125 
121.090904 3237.014893 
123.337151 3599.104736 
149.132431 6435.067383 
163.147354 5389.27002 
175.171341 2233.256836 
203.178955 1945.320679 
217.209686 2038.220093 
255.208435 541.42981 
329.919495 49.889706 
336.643341 41.185608 
336.749542 40.408333 
343.719421 41.200001 
349.324249 90.560188 
390.870636 52.920456 
410.929962 38.058823 
424.044434 65.637192 
440.061737 156.241379 
465.863281 57.38409 
471.81308 63.266666 
479.935883 65.285378 
500.443359 57.557693 
520.05542 159.633331 
542.760559 58.03846 
547.055115 52.16346 
552.682861 48.133064 
556.268555 68.107452 
590.131226 46.115742 
606.332275 74.842102 
609.664368 32.125 
609.71582 34.44643 
651.261841 41.148811 
667.668945 73.074997 
674.062927 64.644737 
677.78009 46.44643 
727.613464 50.445652 
746.192627 83.13636 
747.828247 70.404999 
764.500366 65.444771 
776.359802 42.25 
831.727051 55.052631 
835.258728 54.235466 
835.464233 104.321426 
858.560608 56.149391 
859.744141 38.025002 
861.699219 37.5 
917.930481 82.889999 
920.424438 31.066668 
940.302307 38.148811 
963.838501 28.003571 
966.66925 44.5 
985.65271 31.076923 
1015.936401 70.25 
1018.148132 33.0 
1044.959717 34.135868 
1047.617432 31.1 
1058.628662 56.235294 
1063.007324 29.225 
1115.250977 35.923077 
1126.799194 30.666666 
1130.049072 28.01923 
1140.364868 27.1875 
1165.22522 30.0 
1193.758179 38.0 
1202.239502 33.094696 
1234.442139 39.363636 
1252.036865 65.14286 
1255.274292 32.900864 
1268.155518 35.666668 
1275.653931 91.111839 
1275.788208 48.038792 
1306.838379 38.375 
1334.275146 40.25 
1339.656494 30.013889 
1346.582031 109.820312 
1350.615112 61.160088 
1396.07373 102.202271 
1431.176147 50.222221 
1431.907104 53.556034 
1460.980835 42.017857 
1482.884888 37.32143 
1483.737305 49.211208 
1501.783325 48.445652 
1531.35376 117.5625 
1552.333862 82.054825 
1569.788086 48.111488 
1572.753784 53.005001 
1583.65564 80.453705 
1588.318481 48.014706 
1632.499512 30.053572 
1640.536133 35.1875 
1642.270142 27.595589 
1663.993164 30.045 
1665.818848 38.720238 
END IONS

BEGIN IONS
RTINSECONDS=508.416992
CHARGE=1+
MSLEVEL=2
PRECURSORINTENSITY=231169.968750
SMILES=CC1(C)C2CC[C@@]3(C)C(CCC4C3(C)CCC3C(=O)C(CCC43C)(C)C)C2(C)CC(OC(=O)C)C1=O
INCHI=InChI=1S/C32H50O4/c1-19(33)36-21-18-30(7)22(28(4,5)26(21)35)13-15-32(9)24(30)11-10-23-29(6)17-16-27(2,3)25(34)20(29)12-14-31(23,32)8/h20-24H,10-18H2,1-9H3/t20?,21?,22?,23?,24?,29?,30?,31?,32-/m0/s1
INCHIKEY=GSRPBBFLBACVKY-AJWNXJQWSA-N
CLASS=Terpenoids : Triterpenes
ADDUCT=[M+H]+
INSTRUMENT=Agilent Q-ToF 6530
PRECURSOR_MZ=499.3713
COMPOUND_NAME="2a-Acetoxy-3,22-stictandione"
ION_MODE=positive
FORMULA=C32H50O4
107.083008 2222.683594 
109.099701 2992.805664 
119.08271 2050.698975 
121.089432 2456.868652 
125.094879 1954.394653 
133.105362 2804.801514 
187.146194 2050.332031 
201.161209 1984.636597 
205.158188 2013.990112 
207.170288 1975.849609 
215.177246 2496.928711 
219.182098 3028.085693 
311.200867 749.758423 
313.246704 1344.128174 
315.264648 468.504181 
327.291412 484.325317 
339.247009 364.151306 
367.321777 250.061539 
397.3685 674.927734 
421.338043 15929.729492 
422.34845 758.001343 
439.351593 36547.175781 
439.52771 767.835144 
440.355469 1524.480347 
481.376923 2865.935303 
567.128174 52.107758 
590.431763 64.47406 
596.226685 74.58036 
617.070557 158.333328 
617.123291 109.007576 
621.654114 56.799999 
660.291138 43.016666 
694.318726 52.215427 
716.027222 47.211208 
748.5578 97.032257 
753.120483 64.5 
762.015625 59.245689 
768.853882 75.03125 
814.40802 42.361111 
814.539551 51.625 
851.616699 26.339285 
870.436279 29.102272 
882.716675 82.573982 
902.394348 36.135868 
913.479736 29.005434 
930.138306 34.333332 
975.254578 60.026161 
998.08905 48.49128 
1002.714111 48.272728 
1008.217651 60.695515 
1018.960754 41.68145 
1023.013489 43.041668 
1076.327026 38.969826 
1109.371826 53.29657 
1111.726562 42.125 
1117.104248 57.083332 
1141.294312 48.166668 
1160.195923 51.573978 
1173.704102 48.787163 
1187.592896 38.642857 
1189.344238 90.051231 
1209.313232 43.315788 
1234.48584 28.782408 
1246.825317 39.23077 
1255.622559 26.875 
1270.323242 26.782408 
1272.545776 48.778225 
1292.742676 31.900862 
1325.416992 28.455645 
1333.150024 29.174999 
1339.084473 28.225 
1345.167969 27.680555 
1396.941772 26.75 
1400.959351 41.592106 
1402.294922 33.148811 
1448.809448 43.266666 
1452.102173 36.007355 
1460.17688 50.541668 
1460.243652 26.25 
1492.497192 63.32143 
1510.621826 52.048912 
1511.498779 33.30682 
1539.320435 45.113636 
1557.611328 35.165321 
1577.153198 39.881096 
1583.278076 66.48214 
1611.925171 32.961956 
1654.109863 26.160715 
1660.63501 25.211206 
1667.314209 24.041666 
1684.10376 26.480263 
1686.212036 28.102272 
END IONS

BEGIN IONS
RTINSECONDS=546.330994
CHARGE=1+
MSLEVEL=2
PRECURSORINTENSITY=3314439.250000
SMILES=CC1(C)C2[C@@](CCC1)(C)[C@H]1CC[C@@H]3[C@@]4(C)CCC(=C4CC[C@@]3(C)[C@]1(C)CC2=O)C(C)C
INCHI=InChI=1S/C30H48O/c1-19(2)20-12-16-27(5)21(20)13-17-29(7)23(27)10-11-24-28(6)15-9-14-26(3,4)25(28)22(31)18-30(24,29)8/h19,23-25H,9-18H2,1-8H3/t23-,24-,25?,27+,28-,29-,30-/m1/s1
INCHIKEY=OZFAGHUNGAZEMO-VKNUIDEPSA-N
CLASS=Terpenoids : Triterpenes
ADDUCT=[M+H]+
INSTRUMENT=Agilent Q-ToF 6530
PRECURSOR_MZ=425.3721
COMPOUND_NAME=17(21)-Hopen-6-one
ION_MODE=positive
FORMULA=C30H48O
107.084198 56966.566406 
109.089035 123169.65625 
121.099411 73285.4375 
122.972595 66345.703125 
147.114868 75305.523438 
161.129883 89127.460938 
177.161346 97446.640625 
189.161484 76633.351562 
191.177216 141327.265625 
217.192291 439847.46875 
235.190628 82091.164062 
257.221375 28702.830078 
269.223633 18453.640625 
271.237244 15591.253906 
283.237213 9069.022461 
297.256073 8301.882812 
299.267395 12025.876953 
337.280212 3688.241211 
351.295105 2396.150879 
355.285889 2550.321777 
365.315521 4314.26709 
407.361359 211490.453125 
408.365479 22232.726562 
531.374878 182.013229 
531.468506 69.165543 
560.15741 98.662735 
583.886963 77.587265 
598.401428 66.75 
602.431885 100.515244 
623.865112 70.245689 
660.969666 68.884804 
670.843994 67.925926 
713.580383 83.285378 
718.994324 183.347824 
725.157349 97.898148 
726.414856 105.612808 
742.721985 139.049606 
765.252319 104.763885 
810.42395 86.002663 
815.836853 80.814812 
822.781494 184.349136 
844.658508 143.762192 
874.055603 76.469444 
875.984436 84.222565 
906.768005 94.025002 
942.599487 99.578949 
978.880432 88.53125 
991.548828 77.07753 
1000.831909 75.571426 
1016.577332 74.041664 
1023.30072 242.641312 
1036.35144 101.384613 
1067.085693 98.08654 
1075.109131 102.880432 
1093.270874 78.190475 
1095.765137 74.025002 
1101.855713 110.764832 
1101.929321 66.333336 
1174.598999 74.121216 
1274.279297 87.739754 
1280.640137 109.882355 
1322.949707 99.769234 
1323.088623 78.461067 
1381.699707 74.173912 
1437.564697 143.56395 
1437.672607 71.133064 
1445.010376 182.422409 
1462.371094 103.361115 
1496.832153 117.888885 
1521.607056 99.208336 
1568.516113 127.030487 
1577.633789 96.803574 
1583.365967 76.010872 
1678.611572 92.136108 
1684.177856 138.120102 
END IONS

BEGIN IONS
RTINSECONDS=316.269012
CHARGE=1+
MSLEVEL=2
PRECURSORINTENSITY=2485244.000000
SMILES=Cc1cc(=O)c2c(o1)c(c(cc2O)O[C@H]1[C@@H]([C@H]([C@@H]([C@H](O1)COC(=O)C)O)OC(=O)C)OC(=O)C)C
INCHI=InChI=1S/C23H26O12/c1-9-6-14(27)18-15(28)7-16(10(2)20(18)31-9)34-23-22(33-13(5)26)21(32-12(4)25)19(29)17(35-23)8-30-11(3)24/h6-7,17,19,21-23,28-29H,8H2,1-5H3/t17-,19-,21+,22-,23-/m1/s1
INCHIKEY=HXFPGPYWXWMQDG-FVEADEHFSA-N
CLASS=Chromanes and Chromones
ADDUCT=[M+H]+
INSTRUMENT=Agilent Q-ToF 6530
PRECURSOR_MZ=495.1531
COMPOUND_NAME=Lobodirin
ION_MODE=positive
FORMULA=C23H26O12
103.06427 8398.196289 
109.165695 99401.367188 
127.018776 338777.8125 
128.129379 3915.992676 
145.130112 35196.476562 
187.059738 16598.507812 
207.064529 1776528.25 
207.195572 100910.304688 
208.07016 38545.992188 
229.07019 5626.005371 
273.078796 229.977356 
287.089905 201.085617 
289.081604 3244.79248 
333.099945 190.504807 
359.56012 121.333336 
370.981445 107.777779 
379.780029 59.142857 
385.696106 63.368904 
390.015839 52.57143 
551.314026 59.670456 
575.904785 44.125 
578.621826 35.674999 
606.022461 42.041668 
606.820312 53.570652 
635.028503 45.165539 
679.95166 56.409092 
684.516968 57.421513 
689.016663 59.0 
697.522705 75.788933 
735.032349 54.205002 
774.127686 49.266666 
796.136902 67.769234 
796.319092 48.017857 
816.094971 34.845001 
818.819397 38.326614 
839.485229 58.140625 
877.528137 42.0 
879.073669 38.520832 
882.747681 41.307693 
884.972656 31.173077 
894.915039 30.211206 
914.767334 39.23077 
941.663086 29.728449 
954.831055 46.339287 
966.452087 51.058823 
983.827271 34.00658 
994.217407 32.349136 
1022.418457 43.361111 
1028.062744 74.375 
1052.889648 48.736111 
1080.529053 33.224998 
1081.887817 34.005951 
1083.14209 28.487904 
1104.977783 32.059212 
1127.706299 37.408333 
1136.687988 44.455647 
1187.834351 53.026161 
1196.115356 34.004631 
1223.609863 49.04348 
1227.797852 34.75 
1237.962769 49.016666 
1244.672363 39.326614 
1257.41333 34.222828 
1294.139648 215.487839 
1334.034058 43.008335 
1361.481689 40.44643 
1363.259888 52.556034 
1363.355469 61.351746 
1367.531738 41.285713 
1367.674438 37.363636 
1424.626953 38.25 
1429.279419 31.0 
1443.346069 33.23077 
1453.490112 46.458332 
1454.222168 40.041668 
1482.27478 74.368904 
1506.912842 32.44643 
1512.947388 37.090908 
1516.880249 34.363636 
1548.518921 82.578575 
1566.592773 25.360294 
1575.705566 47.760136 
1583.252563 94.784637 
1618.302612 31.75 
1638.245728 45.041668 
1680.858887 80.32415 
1681.422485 39.285713 
1682.344604 31.405001 
1685.400269 37.003788 
1689.112549 27.005434 
END IONS

BEGIN IONS
RTINSECONDS=394.565002
CHARGE=1+
MSLEVEL=2
PRECURSORINTENSITY=34424.679688
SMILES=Cc1cc(c2c(c1)C(=O)c1c(c(cc(c1C2=O)O)O)c1c2c(c(cc1O)O)C(=O)c1c(cc(cc1C2=O)C)O)O
INCHI=InChI=1S/C30H18O10/c1-9-3-11-19(13(31)5-9)29(39)23-17(35)7-15(33)21(25(23)27(11)37)22-16(34)8-18(36)24-26(22)28(38)12-4-10(2)6-14(32)20(12)30(24)40/h3-8,31-36H,1-2H3
INCHIKEY=MQSXZQXHIJMNAF-UHFFFAOYSA-N
CLASS=Quinones
ADDUCT=[M+H]+
INSTRUMENT=Agilent Q-ToF 6530
PRECURSOR_MZ=539.0944
COMPOUND_NAME=Skyrin
ION_MODE=positive
FORMULA=C30H18O10
101.503525 83.555557 
111.086899 67.032143 
139.052872 126.021736 
158.275909 112.160713 
167.068192 107.852562 
185.053574 91.028847 
217.059433 108.346313 
241.053741 1352.335083 
251.534912 156.09462 
254.066666 242.054871 
269.076569 368.569611 
270.050354 903.063354 
297.014587 283.280701 
307.0578 117.675926 
363.029816 151.330643 
400.094513 139.145401 
427.093475 181.014618 
437.095947 243.399994 
469.078125 432.266663 
479.068054 475.253113 
521.081177 5224.669922 
522.088623 635.431152 
613.604248 52.0 
627.396423 87.530663 
632.787109 51.592106 
674.910095 44.0 
676.63208 68.336113 
725.295654 33.969826 
734.710754 50.693966 
747.864746 35.625 
783.063232 35.942307 
785.816162 36.222828 
791.299255 34.0 
809.968628 27.694445 
841.141663 21.920454 
885.395752 57.695652 
888.535461 30.326612 
891.203308 28.245689 
913.180115 44.219593 
936.001282 50.041668 
950.200378 36.111111 
956.04248 58.333332 
957.248779 80.63636 
960.719849 51.235294 
1014.923401 66.160713 
1041.020264 27.720238 
1043.246826 39.0 
1058.247559 36.111843 
1100.781982 30.266304 
1127.51001 36.076923 
1128.903687 34.135868 
1131.269897 35.777779 
1132.56958 35.0 
1159.314209 42.008335 
1184.598267 21.480263 
1217.694336 23.778847 
1256.454834 30.1 
1256.515381 22.066177 
1261.607544 19.075001 
1271.168945 17.011364 
1322.959717 91.78241 
1331.067505 45.845001 
1334.032837 43.852272 
1348.182617 52.349998 
1361.380615 44.00338 
1381.094482 31.6 
1397.586304 37.222221 
1400.075317 28.901316 
1436.303345 20.204546 
1447.523804 22.75 
1459.277954 22.339285 
1470.395508 28.907259 
1495.437378 69.052963 
1515.007568 61.368904 
1528.938354 68.008331 
1567.838989 35.363636 
1584.191406 36.777779 
1586.093994 33.48077 
1602.099365 27.163462 
1602.21814 28.480263 
1655.472412 83.666664 
1667.174927 29.568182 
1675.537231 33.083332 
1679.559082 26.595589 
1684.08667 45.066666 
1690.750244 34.135868 
END IONS

BEGIN IONS
RTINSECONDS=612.752991
CHARGE=1+
MSLEVEL=2
PRECURSORINTENSITY=122798.171875
SMILES=CC1=CC23CCC4C(CCCC4(C2CCC1C3)C)(C)C
INCHI=InChI=1S/C20H32/c1-14-12-20-11-8-16-18(2,3)9-5-10-19(16,4)17(20)7-6-15(14)13-20/h12,15-17H,5-11,13H2,1-4H3
INCHIKEY=DQUHDYWUEKWRLN-UHFFFAOYSA-N
CLASS=Terpenoids : Diterpenes
ADDUCT=[M+H]+
INSTRUMENT=Agilent Q-ToF 6530
PRECURSOR_MZ=273.2534
COMPOUND_NAME=Isokaurane
ION_MODE=positive
FORMULA=C20H32
105.07151 1265.120117 
107.084587 2618.290527 
109.101822 3395.395508 
119.071899 1492.0 
121.37529 1706.877563 
149.132675 2888.95752 
163.123627 3839.104004 
175.198868 1164.312744 
189.165131 962.922729 
203.163391 760.568604 
217.196014 2452.852051 
255.212143 1242.80249 
330.08432 58.900864 
354.246429 43.125 
356.552948 48.778225 
364.449493 59.185608 
365.15152 161.900864 
422.139404 61.308823 
422.794525 59.728447 
433.30368 50.816666 
443.405121 57.708332 
473.426025 57.297619 
506.349579 42.160713 
515.570923 47.0 
532.618286 53.842106 
537.922791 42.367424 
558.017273 42.642857 
564.248413 45.510418 
589.927002 37.521553 
598.919495 44.976353 
622.315369 40.347221 
627.063904 38.041668 
648.470886 28.796053 
656.473694 25.222826 
661.054138 61.003571 
692.539795 28.071428 
706.480591 38.28125 
712.876343 39.570652 
727.672302 30.035715 
735.205688 25.148809 
748.399231 68.388161 
794.643799 41.842106 
803.745911 38.654411 
820.512024 62.061275 
842.976807 40.112499 
862.112915 42.142857 
866.300537 40.363636 
881.302795 50.022728 
896.938599 51.005951 
917.267212 50.265625 
942.791443 56.432144 
948.228455 43.315788 
953.067871 43.68145 
988.887329 47.901318 
1006.905762 83.060814 
1007.871887 75.041664 
1035.693604 26.361111 
1043.777832 30.818182 
1050.967041 29.240385 
1078.422852 26.05921 
1113.678955 34.076923 
1119.787476 26.875 
1135.352051 54.004311 
1139.607788 30.520834 
1141.77832 70.132812 
1159.902954 25.005434 
1217.31543 27.041666 
1221.972656 29.020834 
1223.119507 27.571428 
1225.344971 31.107759 
1279.244141 33.5 
1299.873535 38.657608 
1301.132812 48.222221 
1311.506958 49.224998 
1330.954346 33.008335 
1343.038696 42.266304 
1345.158813 50.027779 
1390.25769 205.0 
1415.477661 40.066177 
1421.385498 41.796051 
1438.03894 40.048912 
1445.173828 66.0 
1469.474487 35.173077 
1508.389038 52.714287 
1530.940674 60.565216 
1532.497803 41.720238 
1551.571777 42.059212 
1551.67688 39.890625 
1571.009277 61.907257 
1600.06897 30.48077 
1614.672485 25.083334 
1618.046387 56.923912 
1623.78772 29.5 
1640.686035 28.337963 
1671.865845 21.048914 
1674.910156 29.48077 
1689.092529 31.363636 
1696.943115 24.450001 
END IONS

BEGIN IONS
RTINSECONDS=380.988007
CHARGE=1+
MSLEVEL=2
PRECURSORINTENSITY=366852.687500
SMILES=O=c1c2c(oc3c1c(C)cc(O)c3)cc(C)cc2O
INCHI=InChI=1S/C15H12O4/c1-7-3-10(17)14-11(4-7)19-12-6-9(16)5-8(2)13(12)15(14)18/h3-6,16-17H,1-2H3
INCHIKEY=PQFJZPPNZJSEGH-UHFFFAOYSA-N
CLASS=Xanthones and bis-Xanthones
ADDUCT=[M+H]+
INSTRUMENT=Agilent Q-ToF 6530
PRECURSOR_MZ=257.0805
COMPOUND_NAME="1,6-Dihydroxy-3,8-dimethylxanthone"
ION_MODE=positive
FORMULA=C15H12O4
105.046028 1596.687622 
115.05204 1257.019043 
151.038544 2596.489258 
153.068634 2142.918945 
155.083252 2990.104248 
158.069214 1651.279785 
168.051117 6299.041504 
211.072784 16791.681641 
213.053329 6604.21875 
214.062271 10451.638672 
239.076584 8737.415039 
358.583252 43.521553 
362.06665 43.197582 
377.779633 52.976353 
381.645142 81.471153 
385.369141 50.0 
439.114502 93.53846 
449.751465 58.680557 
477.655731 54.33654 
493.663849 49.004311 
514.515503 47.760136 
516.360657 57.469444 
520.401978 47.01923 
535.716858 42.030407 
547.744324 43.605 
595.72937 39.875 
598.761414 39.765625 
605.637329 37.48077 
629.952026 71.938828 
650.131836 51.42857 
658.817383 43.016666 
681.349487 53.080128 
693.212402 47.75 
697.121338 53.840115 
717.080322 48.875 
762.5271 42.367645 
769.226868 42.404999 
775.944458 52.011906 
816.521912 52.222561 
817.022339 50.041668 
862.208374 46.133064 
864.704834 68.003052 
866.513611 86.025002 
890.293335 45.003204 
925.456726 39.53125 
941.452881 47.133064 
945.771484 37.224998 
950.65979 43.185608 
998.194092 30.285715 
1003.93335 56.083332 
1027.27356 85.068184 
1056.603027 39.458332 
1068.191162 51.55682 
1070.078613 40.875 
1083.029419 43.670456 
1121.218018 35.003571 
1130.203613 26.125 
1169.427124 42.485294 
1199.202148 37.084461 
1203.137207 58.102272 
1220.474731 81.976349 
1237.708252 56.520161 
1263.700317 47.107758 
1268.85498 49.455647 
1276.358887 51.224998 
1300.93396 33.285713 
1329.265625 35.720238 
1341.411133 31.05921 
1361.165405 26.25 
1364.700073 43.119186 
1406.780029 37.473682 
1428.751709 32.845001 
1467.227783 66.191177 
1484.338623 35.360294 
1487.597778 53.150002 
1492.492188 71.612503 
1499.766968 36.173912 
1500.91272 36.785713 
1560.803223 41.778225 
1586.76709 49.761364 
1598.224854 54.5625 
1618.877197 51.778225 
1642.505859 57.564026 
1666.214478 48.722221 
1670.252075 79.6875 
1688.543701 44.003788 
1689.470459 45.289288 
END IONS

BEGIN IONS
RTINSECONDS=330.282013
CHARGE=1+
MSLEVEL=2
PRECURSORINTENSITY=606248.187500
SMILES=C[C@@H]1OC(=O)/C=C/[C@H]([C@H]([C@@H](CCCCCCCCCC1)O)O)O
INCHI=InChI=1S/C18H32O5/c1-14-10-8-6-4-2-3-5-7-9-11-15(19)18(22)16(20)12-13-17(21)23-14/h12-16,18-20,22H,2-11H2,1H3/b13-12+/t14-,15+,16+,18-/m0/s1
INCHIKEY=KECCBFYFEOTIBV-KHDHUXSVSA-N
CLASS=Aliphatic and Cycloaliphatic Compounds
ADDUCT=[M+H]+
INSTRUMENT=Agilent Q-ToF 6530
PRECURSOR_MZ=329.2311
COMPOUND_NAME=Aspicilin
ION_MODE=positive
FORMULA=C18H32O5
104.718567 29653.988281 
106.919624 23895.835938 
108.979874 62260.246094 
119.181274 18599.822266 
121.181961 20218.890625 
131.039932 18782.660156 
197.202011 3640.998047 
213.186493 1895.560913 
247.349808 540.671082 
275.176971 967.818787 
293.189209 5008.480957 
311.230713 2160.206787 
395.236084 57.605 
401.036346 70.79348 
415.292847 55.44643 
425.211304 57.112499 
436.702911 59.016666 
454.196381 58.900864 
456.222473 53.128166 
478.452057 147.988922 
507.265564 56.778061 
509.099304 64.002274 
509.268829 68.009262 
537.866577 67.529411 
557.032959 62.375 
570.629089 62.391304 
606.394104 71.24662 
610.323181 56.469444 
613.440674 53.49342 
645.338318 92.153847 
656.083435 165.595581 
667.489807 92.100807 
669.7771 53.720238 
693.1875 75.889282 
703.076294 58.069443 
725.355713 66.720589 
756.271729 60.564816 
761.560364 110.0625 
768.179321 53.112499 
805.564453 53.135868 
807.380249 46.25 
811.216675 53.560184 
826.298828 46.003788 
860.599792 52.083332 
867.59375 45.816666 
897.695984 63.575001 
912.682251 81.201614 
919.547546 48.476696 
939.287842 72.694443 
953.897888 145.361115 
955.411499 61.489864 
991.587769 65.720589 
997.623291 47.041668 
999.876648 151.308167 
1013.601257 81.137932 
1042.567017 42.322369 
1074.10498 49.044998 
1075.455322 48.720238 
1106.150024 53.666668 
1107.039062 57.42857 
1125.529907 66.782608 
1151.302979 64.734756 
1177.771606 76.681602 
1178.333984 95.539177 
1180.344604 54.521553 
1200.492065 69.917557 
1222.929321 113.820457 
1234.800659 52.227272 
1245.29541 59.444443 
1248.088379 45.157051 
1302.792725 52.125 
1303.586914 54.034092 
1313.23645 51.888889 
1319.603882 50.200001 
1322.552734 119.675003 
1347.0 58.297619 
1358.526367 46.490002 
1403.605225 71.130318 
1411.458862 44.351746 
1411.761475 46.022961 
1423.469116 48.349998 
1453.164551 61.347221 
1484.657104 43.449074 
1500.674072 45.0 
1531.069214 70.011902 
1531.175049 40.375 
1553.973389 40.349998 
1557.797974 175.066666 
1563.518066 43.049419 
1609.847534 38.625 
1619.717285 39.066666 
1629.790405 92.653229 
1630.428833 38.816666 
1646.959229 55.521553 
1674.472046 45.041668 
1680.886353 65.25 
1687.054321 47.005951 
1687.219604 37.226852 
1692.990356 40.030407 
END IONS

BEGIN IONS
RTINSECONDS=416.376007
CHARGE=1+
MSLEVEL=2
PRECURSORINTENSITY=2207159.500000
SMILES=O=c1c2c(oc3c1c(C)cc(OC)c3)cc(OC)cc2O
INCHI=InChI=1S/C16H14O5/c1-8-4-9(19-2)6-12-14(8)16(18)15-11(17)5-10(20-3)7-13(15)21-12/h4-7,17H,1-3H3
INCHIKEY=QDLAGTHXVHQKRE-UHFFFAOYSA-N
CLASS=Xanthones and bis-Xanthones
ADDUCT=[M+H]+
INSTRUMENT=Agilent Q-ToF 6530
PRECURSOR_MZ=287.0902
COMPOUND_NAME=Lichexanthone
ION_MODE=positive
FORMULA=C16H14O5
111.086754 3743.688965 
115.051498 2501.282959 
165.053253 8493.275391 
215.069519 29055.246094 
216.076218 38244.503906 
226.06163 75085.210938 
227.070251 46023.28125 
243.064728 415741.96875 
244.072601 695990.75 
353.306305 141.920074 
357.546783 77.361115 
357.926117 92.160713 
378.046021 62.153847 
390.632599 74.59375 
417.973511 33.605 
471.483612 55.083332 
471.790985 67.76136 
493.907898 67.470589 
505.472626 144.049698 
510.0867 52.1875 
533.382751 72.165543 
548.541992 44.25 
570.86676 48.273647 
599.760132 46.778847 
632.898132 55.015625 
638.385803 70.793602 
645.896362 67.470589 
646.889893 51.112499 
660.445618 89.142609 
693.518188 49.003204 
699.277832 103.721771 
705.691101 79.246948 
710.294434 40.025002 
784.400146 44.240383 
785.578857 56.002777 
788.720764 34.556034 
808.217773 52.0 
814.000122 39.375 
841.534607 54.048912 
863.61145 74.08654 
884.866028 55.907257 
898.155579 49.592106 
918.348633 64.53125 
938.118225 43.529411 
949.042236 117.138512 
961.417236 47.0 
995.929871 50.337963 
1001.181641 51.520832 
1040.06543 138.001663 
1049.068359 30.844999 
1068.14209 48.080128 
1082.07312 77.446426 
1093.949219 178.081665 
1112.40271 40.058823 
1120.441528 70.198532 
1202.965332 134.241379 
1252.737305 38.011364 
1264.213013 45.315216 
1358.271973 75.033333 
1381.063965 64.737244 
1419.051392 84.06649 
1461.207031 141.040588 
1509.740234 63.076923 
1516.699829 43.112499 
1517.871094 85.793602 
1536.498413 43.432144 
1539.412964 43.0 
1542.193237 99.224998 
1619.070801 127.578575 
1621.177979 47.0 
1630.097046 47.778225 
1660.8125 112.75 
1667.289795 40.205002 
END IONS

BEGIN IONS
RTINSECONDS=305.118011
CHARGE=1+
MSLEVEL=2
PRECURSORINTENSITY=4469156.000000
SMILES=O=c1c2c(oc3c1c(C)cc(O)c3)cc(O)cc2O
INCHI=InChI=1S/C14H10O5/c1-6-2-7(15)4-10-12(6)14(18)13-9(17)3-8(16)5-11(13)19-10/h2-5,15-17H,1H3
INCHIKEY=AQZHBCDRWFMXIN-UHFFFAOYSA-N
CLASS=Xanthones and bis-Xanthones
ADDUCT=[M+H]+
INSTRUMENT=Agilent Q-ToF 6530
PRECURSOR_MZ=259.0601
COMPOUND_NAME=Norlichexanthone
ION_MODE=positive
FORMULA=C14H10O5
128.061798 40034.039062 
129.059174 25548.199219 
151.040466 290370.25 
153.017487 40512.832031 
157.064178 41041.691406 
185.059753 110444.601562 
191.067108 147341.15625 
213.051727 195503.59375 
217.049591 136101.15625 
330.877228 78.654411 
361.266144 73.29657 
400.671844 69.3125 
404.191833 64.580643 
456.444855 92.19149 
523.919128 213.46022 
550.962097 82.788933 
551.390808 92.021225 
560.264893 235.001266 
563.294006 87.568398 
573.259033 98.410004 
645.040588 162.010513 
695.392029 87.002274 
749.020508 65.414215 
760.992065 144.038467 
803.423157 66.023933 
822.21051 68.0 
905.672974 86.111366 
930.846924 98.041664 
934.094543 107.41346 
934.992798 66.020836 
1014.483887 77.555557 
1064.805908 112.001312 
1071.623535 105.333336 
1092.633667 151.58139 
1118.864136 90.758621 
1133.750977 104.480263 
1201.783813 71.025002 
1251.944458 72.556816 
1383.126099 70.130432 
1411.134888 68.083336 
1413.240845 78.781776 
1414.855469 70.012497 
1454.786377 75.449997 
1462.325073 69.349136 
1478.968506 99.125 
1490.82605 71.097824 
1585.725098 101.162636 
1649.16394 72.025002 
1670.043945 73.142441 
1696.79895 67.0 
END IONS

BEGIN IONS
RTINSECONDS=281.562012
CHARGE=1+
MSLEVEL=2
PRECURSORINTENSITY=3758004.500000
SMILES=O=C(C)O[C@@H]1[C@@H](O)[C@H](O)[C@@H](COC(=O)C)O[C@H]1Oc1cc2oc(C)cc(=O)c2c(O)c1C
INCHI=InChI=1S/C21H24O11/c1-8-5-12(24)16-14(29-8)6-13(9(2)17(16)25)31-21-20(30-11(4)23)19(27)18(26)15(32-21)7-28-10(3)22/h5-6,15,18-21,25-27H,7H2,1-4H3/t15-,18-,19+,20-,21-/m1/s1
INCHIKEY=AFCAWRFTSGVRQA-CMWLGVBASA-N
CLASS=Chromanes and Chromones
ADDUCT=[M+H]+
INSTRUMENT=Agilent Q-ToF 6530
PRECURSOR_MZ=453.1432
COMPOUND_NAME=Roccellin
ION_MODE=positive
FORMULA=C21H24O11
103.040718 2736.624512 
109.029282 40233.851562 
127.039787 161489.234375 
145.051407 11315.458984 
151.038513 7184.798828 
187.060989 44326.113281 
207.066849 2476109.25 
207.194504 150916.59375 
208.070145 42066.507812 
229.07225 79339.46875 
247.083679 129263.210938 
291.085388 302.597687 
941.130493 220.146851 
1388.154419 249.444565 
END IONS

BEGIN IONS
RTINSECONDS=336.858002
CHARGE=1+
MSLEVEL=2
PRECURSORINTENSITY=7177561.000000
SMILES=Cc1cc(=O)c2c(c(c(cc2o1)OC)C)O
INCHI=InChI=1S/C12H12O4/c1-6-4-8(13)11-10(16-6)5-9(15-3)7(2)12(11)14/h4-5,14H,1-3H3
INCHIKEY=RGTSAUBIQAKKLC-UHFFFAOYSA-N
CLASS=Chromanes and Chromones
ADDUCT=[M+H]+
INSTRUMENT=Agilent Q-ToF 6530
PRECURSOR_MZ=221.0831
COMPOUND_NAME=Eugenitin
ION_MODE=positive
FORMULA=C12H12O4
149.060196 54551.1875 
151.040894 143420.875 
177.056702 266990.40625 
319.304504 87.160004 
356.392059 86.256409 
366.08255 114.457275 
420.214539 90.0 
475.599213 103.51136 
609.838806 80.898148 
633.718262 115.796234 
683.273193 89.889282 
685.060913 109.0 
809.983765 87.820312 
978.409851 118.166664 
1020.746887 103.578575 
1098.320923 85.008331 
1112.498047 161.837021 
1145.588379 117.002274 
1468.008667 78.050003 
1498.702637 85.592102 
1537.493774 77.408333 
1592.52002 74.889709 
1629.260132 109.472061 
END IONS

BEGIN IONS
RTINSECONDS=27.528999
CHARGE=1+
MSLEVEL=2
PRECURSORINTENSITY=262083.171875
SMILES=COC1=C(NC(CO)CCC(=N)O)CC(CO)(O)CC1=O
INCHI=InChI=1S/C13H22N2O6/c1-21-12-9(4-13(20,7-17)5-10(12)18)15-8(6-16)2-3-11(14)19/h8,15-17,20H,2-7H2,1H3,(H2,14,19)
INCHIKEY=BVWBDCIYHWDCRQ-UHFFFAOYSA-N
CLASS=Mycosporines
ADDUCT=[M+H]+
INSTRUMENT=Agilent Q-ToF 6530
PRECURSOR_MZ=303.1538
COMPOUND_NAME=Mycosporine glutaminol
ION_MODE=positive
FORMULA=C13H22N2O6
110.064072 1987.408203 
116.07589 15370.794922 
138.060532 2220.415283 
140.053757 2549.366211 
152.088593 2864.819824 
176.068359 5470.413574 
188.099426 6539.580566 
218.093475 6739.138672 
235.113007 6977.521484 
238.126801 3268.363037 
250.118149 8588.966797 
285.158691 1755.479492 
388.291229 93.555557 
394.110535 105.114288 
405.731903 43.328949 
407.274902 43.363636 
416.674896 46.027439 
428.279175 45.599998 
486.349335 75.510414 
491.181671 42.003788 
497.974579 56.010418 
499.704926 115.021225 
524.441345 59.090908 
526.249023 42.76923 
554.17804 49.432144 
585.537476 50.089287 
600.439575 71.59375 
615.544861 51.005001 
619.168823 166.864731 
638.388672 63.23077 
643.928955 116.63269 
672.096802 68.34375 
687.188293 130.220001 
694.299377 53.164474 
724.562195 31.471153 
751.520203 27.9 
754.214783 37.907257 
778.410767 30.041666 
789.48291 57.005436 
812.440125 41.347221 
817.855713 53.25 
832.097717 51.599998 
842.834656 65.19104 
864.574829 53.485294 
876.707275 76.603569 
885.760132 63.125 
902.676758 50.242645 
922.279541 43.360294 
930.275696 41.259617 
959.988464 51.165321 
963.883606 76.297623 
988.276489 30.570652 
1027.144043 70.583336 
1031.305908 47.028847 
1044.862183 31.5 
1056.735352 54.014706 
1063.620117 90.189392 
1098.348267 81.08696 
1101.571289 44.111488 
1128.423096 37.028847 
1131.423706 50.799999 
1132.329224 36.005436 
1184.559082 42.765625 
1199.487915 26.333334 
1234.063965 31.225 
1244.222534 29.84091 
1270.550049 53.125 
1271.072998 33.004032 
1272.977051 37.480263 
1281.949829 32.00338 
1317.870605 107.020836 
1327.547974 85.515625 
1342.81189 40.0 
1347.49292 75.788933 
1357.469849 47.473682 
1366.834106 41.150002 
1406.606201 36.160713 
1418.770752 30.5 
1418.925903 55.541668 
1455.16333 51.521553 
1472.769775 45.333332 
1473.991577 42.224998 
1476.910767 45.035713 
1501.820679 27.961956 
1561.904663 46.026161 
1563.968628 43.75 
1573.820557 46.132355 
1579.428711 66.260414 
1625.650146 50.200001 
1625.855713 50.470589 
1637.048584 44.347221 
1643.081665 44.455647 
1648.129517 45.347221 
1663.351929 52.016666 
1687.733765 27.570946 
END IONS

BEGIN IONS
RTINSECONDS=270.928986
CHARGE=1+
MSLEVEL=2
PRECURSORINTENSITY=101567.710938
SMILES=O=C1c2c(c3c(cc(O)c(O)c3)o2)C(=O)c2c1c1c(o2)cc(c(c1)O)O
INCHI=InChI=1S/C18H8O8/c19-7-1-5-11(3-9(7)21)25-17-13(5)15(23)18-14(16(17)24)6-2-8(20)10(22)4-12(6)26-18/h1-4,19-22H
INCHIKEY=PDICCECAPKBDBB-UHFFFAOYSA-N
CLASS=Quinones
ADDUCT=[M+H]+
INSTRUMENT=Agilent Q-ToF 6530
PRECURSOR_MZ=353.028
COMPOUND_NAME=Thelephoric acid
ION_MODE=positive
FORMULA=C18H8O8
121.080734 159.047897 
137.029449 160.190216 
139.048325 413.628448 
146.989212 168.785721 
171.110687 211.15921 
177.014252 625.247192 
185.083649 343.360046 
195.056702 1031.062134 
213.032944 1287.245117 
223.015427 1914.737671 
241.052322 3346.899902 
250.960373 3902.814209 
269.02298 4607.429688 
279.008759 5071.22998 
297.01123 8712.367188 
306.999054 2499.133301 
325.004944 21301.447266 
335.001129 1104.422607 
410.026672 43.694443 
416.18573 51.224998 
420.167175 65.004036 
422.791931 63.173782 
447.247925 102.133331 
464.795074 39.003204 
509.582855 45.816666 
518.10791 36.160713 
542.675293 34.08654 
544.546265 56.025002 
555.441345 36.599998 
617.039795 35.599998 
619.236816 41.89352 
645.822754 51.375 
649.448975 36.100807 
657.217651 55.404999 
666.655457 43.191177 
682.513489 120.61731 
724.767273 44.055557 
727.657288 46.055557 
733.860352 36.0 
752.813416 36.165321 
764.234436 40.5625 
769.43689 47.049999 
789.845703 38.44643 
805.588135 36.025002 
839.742432 36.349136 
842.236877 29.694445 
855.253052 37.111843 
904.062317 23.025 
907.771362 74.890625 
946.078979 27.28125 
951.702148 31.4 
963.950195 27.595589 
984.522949 39.375 
992.234863 46.028847 
1010.47168 32.322369 
1020.878174 42.49128 
1050.13623 44.210526 
1069.050293 24.25 
1083.290405 21.5 
1091.025024 21.556818 
1104.114868 38.174999 
1114.910156 34.347221 
1156.250732 31.148809 
1166.812744 39.224998 
1169.204468 39.016666 
1189.060059 31.053572 
1232.199097 35.025002 
1240.116577 40.68145 
1240.22998 30.654411 
1260.214111 54.005436 
1297.891113 136.508926 
1300.233765 42.140625 
1316.045898 40.205002 
1327.874756 50.875 
1335.621704 39.349136 
1350.371826 52.130318 
1397.567749 34.142857 
1401.006226 28.048914 
1402.350708 53.489864 
1447.262939 28.595589 
1463.299561 75.440002 
1474.950195 37.875 
1493.170898 47.347221 
1515.55127 31.166666 
1518.949829 37.076923 
1547.549194 27.720238 
1569.287109 45.010868 
1572.099243 30.05921 
1576.647705 35.765625 
1605.064209 24.674999 
1610.35437 25.083334 
1628.856445 20.025 
1640.510986 21.360294 
1666.733032 23.720238 
1682.390625 19.1875 
1690.842285 41.612499 
1694.65564 39.205002 
1696.72998 15.5 
END IONS

BEGIN IONS
RTINSECONDS=336.920013
CHARGE=1+
MSLEVEL=2
PRECURSORINTENSITY=147391.765625
SMILES=Oc1cc(C(=O)O)cc2c1C(=O)c1c(cc(cc1O)OC)C2=O
INCHI=InChI=1S/C16H10O7/c1-23-7-4-9-13(11(18)5-7)15(20)12-8(14(9)19)2-6(16(21)22)3-10(12)17/h2-5,17-18H,1H3,(H,21,22)
INCHIKEY=HEULMVKOOVHXME-UHFFFAOYSA-N
CLASS=Quinones
ADDUCT=[M+H]+
INSTRUMENT=Agilent Q-ToF 6530
PRECURSOR_MZ=315.0491
COMPOUND_NAME=Parietinic acid
ION_MODE=positive
FORMULA=C16H10O7
107.122871 280.489014 
151.134842 1318.804321 
183.101242 607.346191 
197.040314 1041.515747 
213.025131 3678.940186 
241.026413 2144.273682 
269.02594 1812.097656 
271.031586 9999.425781 
297.008392 4415.782715 
408.924744 59.570652 
415.40741 40.39674 
424.194794 46.473682 
443.604767 53.640152 
502.5961 51.003048 
524.807861 61.889286 
528.409607 60.462837 
538.481079 100.172417 
538.722656 55.44643 
547.62439 62.315788 
592.165039 45.326923 
610.39325 48.520832 
638.021912 101.041664 
667.511292 50.541668 
684.15387 45.680557 
707.023987 58.363636 
723.375183 86.208336 
734.756775 75.107452 
737.371582 58.083332 
741.48175 48.367424 
800.422607 40.084461 
802.570251 40.449074 
802.775879 50.5 
809.194946 38.041668 
841.136719 49.30682 
856.070801 56.0 
880.11908 73.578575 
902.143494 73.290001 
907.849487 61.020832 
918.493225 42.066666 
957.063477 50.160713 
961.501831 43.760136 
975.349426 50.351746 
987.910522 36.557693 
1000.019531 31.166666 
1049.597656 49.112499 
1055.770752 41.432144 
1061.788452 55.852272 
1074.386841 45.347221 
1119.898071 52.0 
1128.739624 42.644737 
1155.449707 48.1875 
1156.469238 45.002777 
1161.143188 56.247643 
1202.728516 69.686401 
1208.98938 36.721153 
1216.214844 44.066666 
1230.013916 65.355392 
1260.219482 39.226852 
1267.184937 42.210526 
1303.614136 73.787163 
1315.286621 45.048912 
1320.01062 43.900864 
1343.913452 33.674999 
1387.510986 55.00658 
1390.545898 33.76923 
1406.945435 33.0 
1427.703857 103.777779 
1434.984863 40.004032 
1471.161499 71.757576 
1478.049072 43.470589 
1492.045166 44.404999 
1493.321411 45.009617 
1523.482422 82.533333 
1543.359863 106.073792 
1549.967529 52.890625 
1558.650391 48.561047 
1588.5 40.090908 
1604.37439 30.339285 
1610.749268 39.142242 
1655.619385 35.595589 
1664.552002 24.020834 
1673.300415 23.107759 
1675.28418 44.685974 
1684.166504 34.004311 
1697.456177 23.654411 
END IONS

BEGIN IONS
RTINSECONDS=23.992001
CHARGE=1+
MSLEVEL=2
PRECURSORINTENSITY=2987658.750000
SMILES=COC1=C(NC(CO)CO)C[C@](CO)(O)CC1=O
INCHI=InChI=1S/C11H19NO6/c1-18-10-8(12-7(4-13)5-14)2-11(17,6-15)3-9(10)16/h7,12-15,17H,2-6H2,1H3/t11-/m0/s1
INCHIKEY=VVTDHOIRNPCGTH-NSHDSACASA-N
CLASS=Mycosporines
ADDUCT=[M+H]+
INSTRUMENT=Agilent Q-ToF 6530
PRECURSOR_MZ=262.1279
COMPOUND_NAME=Mycosporine serinol
ION_MODE=positive
FORMULA=C11H19NO6
110.058273 32007.029297 
116.071297 34623.410156 
140.082947 35319.347656 
152.069839 56737.917969 
184.09436 53478.152344 
188.09256 50979.125 
194.080292 103801.9375 
216.107086 350184.90625 
244.120972 86648.09375 
326.635956 108.14286 
353.297211 66.360001 
359.152893 73.816666 
362.995026 70.025002 
377.873199 64.321426 
406.500946 107.302422 
413.367676 143.160721 
426.901917 37.041668 
478.230743 36.266666 
480.94754 56.881096 
484.783142 37.721153 
499.23465 45.09375 
518.279297 71.16346 
534.061279 88.571426 
542.54895 46.578949 
544.600281 63.183823 
586.981567 48.444443 
589.535217 48.333332 
599.657349 66.666664 
614.747314 97.049416 
622.92041 97.112503 
642.212402 107.493851 
643.513062 45.470589 
658.403809 83.001869 
695.500854 99.5 
706.949585 44.273647 
707.385986 76.224998 
708.652039 49.055557 
713.271362 68.512497 
772.030029 138.761902 
777.340027 62.0 
800.940796 60.297619 
806.004883 125.400002 
844.997498 44.777779 
848.310608 88.445656 
879.125732 47.055557 
920.112488 41.91848 
925.642029 106.148811 
927.962769 103.960106 
935.815308 50.367424 
957.973267 40.557693 
988.395874 52.557693 
1031.184692 60.760418 
1033.888428 55.066666 
1056.916992 46.889706 
1065.217651 51.337963 
1113.769531 46.0 
1124.726807 47.583332 
1191.620483 89.375 
1197.572632 46.083332 
1201.254883 118.594391 
1227.741943 55.003788 
1242.320801 41.520832 
1264.175415 53.375 
1269.728516 44.326614 
1299.583008 73.410004 
1299.637695 59.5 
1303.460693 39.409092 
1356.398193 40.642857 
1370.344116 68.48214 
1384.113892 202.822372 
1390.288696 45.0 
1417.022217 103.320122 
1434.910156 47.219593 
1478.607788 47.0 
1486.740723 247.021271 
1486.925171 56.680557 
1533.425171 37.044998 
1566.477661 100.776405 
1583.572998 36.471153 
1608.027466 77.052963 
1628.377075 69.901314 
1631.93689 189.225006 
1632.179321 42.265625 
1643.276978 79.89286 
1670.049194 36.942307 
1683.272583 40.785713 
END IONS

BEGIN IONS
RTINSECONDS=408.575012
CHARGE=1+
MSLEVEL=2
PRECURSORINTENSITY=32131.619141
SMILES=Cc1cc(c2c(c1)C(=O)c1c(C2=O)c(cc(c1O)OC)O)O
INCHI=InChI=1S/C16H12O6/c1-6-3-7-11(8(17)4-6)16(21)12-9(18)5-10(22-2)15(20)13(12)14(7)19/h3-5,17-18,20H,1-2H3
INCHIKEY=GLLRIXZGBQOFLM-UHFFFAOYSA-N
CLASS=Quinones
ADDUCT=[M+H]+
INSTRUMENT=Agilent Q-ToF 6530
PRECURSOR_MZ=301.0702
COMPOUND_NAME=Xanthorin
ION_MODE=positive
FORMULA=C16H12O6
108.053368 145.131577 
109.098373 127.595238 
112.902885 71.6875 
135.077408 160.334595 
153.074387 138.001312 
155.096222 231.570312 
187.046036 102.205002 
212.073181 151.219208 
216.03302 92.0 
241.046555 110.06649 
258.044067 549.400024 
272.062195 182.005432 
283.03595 276.290192 
370.218964 127.001472 
382.474457 37.654411 
393.806396 47.462837 
400.250916 45.671295 
422.042358 41.375 
456.993713 46.6875 
463.469971 68.28125 
466.632629 78.165817 
474.614563 39.666668 
486.035583 42.125 
524.976196 91.165543 
539.598511 62.210526 
558.761536 42.78125 
569.929382 67.021225 
581.303406 71.560188 
608.705505 52.570946 
639.137634 39.529411 
655.457458 32.923077 
659.422729 41.111111 
695.653198 38.048912 
718.605225 38.91848 
720.427856 89.032257 
721.885742 35.25 
726.838989 48.432144 
753.598816 45.224998 
821.090454 39.889286 
823.290771 64.512497 
832.525452 54.025002 
846.527954 62.210526 
864.131348 112.330643 
877.352722 43.75 
911.76886 67.321808 
932.708069 49.089287 
941.702576 47.890625 
946.660339 35.625 
947.700562 34.728447 
968.377441 47.205002 
1005.010681 32.008335 
1029.102905 70.038795 
1030.19165 53.765625 
1058.173096 41.016666 
1092.415405 25.4 
1107.064209 33.326614 
1115.616699 58.0 
1122.606934 60.080128 
1143.25415 34.57143 
1144.601807 81.14286 
1190.610107 26.075001 
1191.848633 39.148811 
1236.529419 65.727272 
1238.155273 42.059212 
1251.112793 69.347221 
1288.691772 24.125 
1304.814087 19.245001 
1305.265015 24.6 
1307.96106 89.0 
1326.388672 32.454544 
1327.808228 40.56818 
1360.658081 37.657608 
1362.864868 44.0 
1389.476074 29.337963 
1401.540161 21.720238 
1426.469116 38.48077 
1440.67688 31.036291 
1476.946899 32.027779 
1490.784058 92.125 
1495.520508 65.045212 
1539.134155 40.557693 
1556.317261 37.375 
1563.330811 55.881096 
1584.017334 22.5 
1625.039673 64.097824 
1629.737427 54.094696 
1638.075195 35.805 
1640.808716 39.444443 
1650.898438 39.640152 
1674.014648 53.473682 
1694.134766 28.654411 
END IONS

BEGIN IONS
RTINSECONDS=143.434006
CHARGE=1+
MSLEVEL=2
SMILES=[C@@H]1(CC(=O)N2[C@H](C(=O)N[C@H](CC(=O)N3[C@@H](C(=O)N1)CCC3)c1ccccc1)CCC2)c1ccccc1
INCHI=InChI=1S/C28H32N4O4/c33-25-17-21(19-9-3-1-4-10-19)29-27(35)23-13-7-16-32(23)26(34)18-22(20-11-5-2-6-12-20)30-28(36)24-14-8-15-31(24)25/h1-6,9-12,21-24H,7-8,13-18H2,(H,29,35)(H,30,36)/t21-,22-,23-,24+/m1/s1
INCHIKEY=PDLPVRYEPINIBU-YCAMKHIRSA-N
CLASS=N-Containing Compounds
ADDUCT=[M+H]+
INSTRUMENT=Thermo Q-Exactive Focus
PRECURSOR_MZ=489.2502
COMPOUND_NAME=Roccanin
ION_MODE=positive
FORMULA=C28H32N4O4
70.065796 68398400.0 
106.065582 34337364.0 
112.075851 27157196.0 
131.04895 207461600.0 
132.052505 23344376.0 
140.070221 29434854.0 
185.107178 15638407.0 
200.106674 81830528.0 
203.117493 16849038.0 
228.101715 102872288.0 
229.104752 20386510.0 
245.127823 47416652.0 
334.161377 1971021.75 
341.196198 13071219.0 
342.199829 2881700.25 
350.187683 3277998.0 
375.169373 23750228.0 
376.173584 6739789.0 
471.241211 8683666.0 
472.239929 2373667.5 
END IONS

BEGIN IONS
RTINSECONDS=240.134003
CHARGE=1+
MSLEVEL=2
SMILES=Oc1c(C(=O)Oc2cc(O)c(C(=O)O)c(CC(=O)CCC)c2)c(CC(=O)CCC)cc(OC)c1
INCHI=InChI=1S/C25H28O9/c1-4-6-16(26)8-14-11-19(13-20(28)22(14)24(30)31)34-25(32)23-15(9-17(27)7-5-2)10-18(33-3)12-21(23)29/h10-13,28-29H,4-9H2,1-3H3,(H,30,31)
INCHIKEY=QZZMDINWSWWNKM-UHFFFAOYSA-N
CLASS=Depsides (Didepsides)
ADDUCT=[M+Na]+
INSTRUMENT=Thermo Q-Exactive Focus
PRECURSOR_MZ=495.1631
COMPOUND_NAME=Glomellic acid
ION_MODE=positive
FORMULA=C25H28O9
54.898582 28860.212891 
91.964844 62850.410156 
217.083603 2349581.0 
231.099869 788134.8125 
243.062531 1024076.0 
257.078339 7933538.5 
261.073273 2845085.5 
275.088776 1856284.25 
END IONS

BEGIN IONS
RTINSECONDS=236.350998
CHARGE=1+
MSLEVEL=2
SMILES=CCCCCC1=CC(=O)C=C(OC)C21C(=O)Oc1c2c(c(c(c1)O)C(=O)O)CCCCC
INCHI=InChI=1S/C25H30O7/c1-4-6-8-10-15-12-16(26)13-20(31-3)25(15)22-17(11-9-7-5-2)21(23(28)29)18(27)14-19(22)32-24(25)30/h12-14,27H,4-11H2,1-3H3,(H,28,29)
INCHIKEY=LOGCRVAWKCZXQM-UHFFFAOYSA-N
CLASS=Depsones
ADDUCT=[M+H+CH3OH]+
INSTRUMENT=Thermo Q-Exactive Focus
PRECURSOR_MZ=475.2332
COMPOUND_NAME=Picrolichenic acid
ION_MODE=positive
FORMULA=C25H30O7
69.953499 33841.515625 
71.086464 33940.566406 
79.054962 30568.568359 
96.280663 37922.226562 
135.080978 97455.4375 
137.059189 82294.546875 
139.075562 80037.523438 
151.075729 212090.359375 
152.083389 290283.09375 
163.075714 89714.523438 
205.086411 90027.867188 
208.146194 93430.109375 
209.154709 68342.523438 
217.086227 120370.914062 
245.081833 87504.890625 
273.075806 73444.6875 
301.144012 81586.664062 
310.120697 44655.707031 
311.128265 68361.523438 
327.122925 82723.742188 
343.154022 253755.8125 
366.183929 133115.0625 
387.144531 61581.332031 
399.218994 79179.414062 
405.153931 51941.871094 
413.232819 732760.3125 
443.205994 97799.492188 
457.222626 534899.1875 
END IONS

BEGIN IONS
RTINSECONDS=234.203003
CHARGE=1+
MSLEVEL=2
SMILES=O=C1c2c(CC(=O)CCCCC)cc(O)c(O)c2Oc2c(O1)cc(c(c2CCCCC)C(=O)O)O
INCHI=InChI=1S/C26H30O9/c1-3-5-7-9-15(27)11-14-12-18(29)22(30)24-20(14)26(33)34-19-13-17(28)21(25(31)32)16(23(19)35-24)10-8-6-4-2/h12-13,28-30H,3-11H2,1-2H3,(H,31,32)
INCHIKEY=BQHHNAPTXQOPBW-UHFFFAOYSA-N
CLASS=Depsidones
ADDUCT=[2M+Na]+
INSTRUMENT=Thermo Q-Exactive Focus
PRECURSOR_MZ=995.3677
COMPOUND_NAME=3-Hydroxyphysodic acid
ION_MODE=positive
FORMULA=C26H30O9
81.65387 26336.007812 
91.969986 60720.113281 
95.199722 33049.132812 
102.813316 27805.912109 
117.754745 38142.929688 
158.663544 29058.453125 
162.184265 34987.945312 
168.088043 39972.246094 
178.974289 28948.078125 
188.589844 27308.556641 
191.885101 27272.957031 
229.084122 15925.896484 
240.463333 16896.265625 
283.423889 15306.084961 
285.078369 33686.734375 
295.351776 15578.642578 
300.096161 14021.108398 
340.678894 13578.456055 
349.107147 16108.750977 
352.092865 35832.316406 
393.899323 33298.855469 
402.371338 28355.474609 
423.177307 66229.835938 
435.108551 35676.800781 
447.178833 64501.980469 
465.189423 3982083.5 
491.168182 547990.0625 
509.179382 6279272.0 
537.088501 18597.992188 
550.205811 15107.844727 
559.713379 19521.095703 
635.761658 31760.244141 
705.717651 38889.007812 
762.93634 36127.398438 
887.706543 31446.580078 
954.615723 14867.90918 
955.503723 16526.146484 
END IONS

BEGIN IONS
RTINSECONDS=134.563004
CHARGE=1+
MSLEVEL=2
SMILES=Cc1cc(O)cc(O)c1C(=O)Oc1cc(O)c(C(=O)OC[C@@H](O)[C@@H](O)CO)c(C)c1
INCHI=InChI=1S/C20H22O10/c1-9-3-11(22)5-13(23)18(9)20(28)30-12-4-10(2)17(14(24)6-12)19(27)29-8-16(26)15(25)7-21/h3-6,15-16,21-26H,7-8H2,1-2H3/t15-,16+/m0/s1
INCHIKEY=BUBBEHCXSMCYNY-JKSUJKDBSA-N
CLASS=Depsides (Didepsides)
ADDUCT=[M+NH4]+
INSTRUMENT=Thermo Q-Exactive Focus
PRECURSOR_MZ=440.1557
COMPOUND_NAME=Erythrin
ION_MODE=positive
FORMULA=C20H22O10
53.544266 129760.273438 
65.744408 151317.625 
66.549042 148778.671875 
95.049965 147210.703125 
108.571068 142388.375 
116.683311 132743.890625 
122.720093 137243.1875 
123.044182 142879.203125 
151.039108 49331516.0 
169.049576 520795.3125 
220.026031 145773.78125 
237.0755 31402.648438 
245.315231 32953.421875 
247.264862 153186.140625 
255.085449 183351.59375 
273.096771 224351.0625 
301.070557 2095730.25 
326.668182 9021.051758 
342.649323 25512.408203 
386.685822 2641.0979 
END IONS

BEGIN IONS
RTINSECONDS=314.681
CHARGE=1+
MSLEVEL=2
SMILES=OC(=O)c1c(OC)cc(cc1CCCCC)OC(=O)c1c(CCCCC)cc(OC)cc1OC
INCHI=InChI=1S/C27H36O7/c1-6-8-10-12-18-15-21(17-22(32-4)24(18)26(28)29)34-27(30)25-19(13-11-9-7-2)14-20(31-3)16-23(25)33-5/h14-17H,6-13H2,1-5H3,(H,28,29)
INCHIKEY=FNJKTDQIJKLZGZ-UHFFFAOYSA-N
CLASS=Depsides (Didepsides)
ADDUCT=[M+Na+CH3CN]+
INSTRUMENT=Thermo Q-Exactive Focus
PRECURSOR_MZ=536.2624
COMPOUND_NAME=Planaic acid
ION_MODE=positive
FORMULA=C27H36O7
50.303165 13753.300781 
55.343807 12163.0625 
69.102516 12882.129883 
83.556549 16589.707031 
91.962021 12243.719727 
110.568893 13153.488281 
151.075287 23524.466797 
177.0914 13497.124023 
188.083466 15875.570312 
193.08606 23507.671875 
217.122284 23918.753906 
235.132446 628287.0 
243.098862 172614.65625 
244.548981 8527.650391 
266.785339 7912.439453 
299.05957 12012.768555 
309.773468 7570.721191 
326.375916 7979.580566 
330.354553 13266.988281 
344.282318 7405.352539 
350.29718 16521.423828 
407.696686 19761.289062 
409.145905 14442.603516 
431.328003 6588.158203 
440.594208 7488.624023 
483.003723 8289.884766 
483.346252 7492.735352 
495.234619 2684907.5 
496.161285 10146.535156 
501.360748 16971.351562 
513.245117 584788.8125 
END IONS

BEGIN IONS
RTINSECONDS=174.423996
CHARGE=1+
MSLEVEL=2
SMILES=Oc1c(C)c(O)cc(C)c1C(=O)OC
INCHI=InChI=1S/C10H12O4/c1-5-4-7(11)6(2)9(12)8(5)10(13)14-3/h4,11-12H,1-3H3
INCHIKEY=UUQHKWMIDYRWHH-UHFFFAOYSA-N
CLASS=Cleavage Products of Depsides and Depsidones
ADDUCT=[M+H]+
INSTRUMENT=Thermo Q-Exactive Focus
PRECURSOR_MZ=197.0814
COMPOUND_NAME=Methyl beta-orcinolcarboxylate
ION_MODE=positive
FORMULA=C10H12O4
79.055031 177695.234375 
81.07058 365507.28125 
83.013504 502114.21875 
91.054947 213744.828125 
91.964088 192523.0 
109.065094 762140.4375 
137.059814 318010.3125 
165.054733 45635220.0 
END IONS

BEGIN IONS
RTINSECONDS=334.351013
CHARGE=1+
MSLEVEL=2
SMILES=CCCCCCCCCCCCC[C@H]1[C@H]([C@H](C(=O)O1)C)C(=O)O
INCHI=InChI=1S/C19H34O4/c1-3-4-5-6-7-8-9-10-11-12-13-14-16-17(18(20)21)15(2)19(22)23-16/h15-17H,3-14H2,1-2H3,(H,20,21)/t15-,16+,17+/m1/s1
INCHIKEY=WLGALFYTFVOQPY-IKGGRYGDSA-N
CLASS=Paraconic acids
ADDUCT=[M+H+CH3CN]+
INSTRUMENT=Thermo Q-Exactive Focus
PRECURSOR_MZ=368.2801
COMPOUND_NAME=Nephromopsic acid
ION_MODE=positive
FORMULA=C19H34O4
67.055122 287173.65625 
69.070724 354709.5625 
81.070587 645318.9375 
83.086205 242057.59375 
95.086082 627526.5625 
109.101746 295587.96875 
133.101334 247010.109375 
147.116821 199205.609375 
161.132126 111376.46875 
207.210815 239799.796875 
217.195084 153878.546875 
245.22641 429892.1875 
263.236755 553210.9375 
273.221222 46522.488281 
281.247528 207385.25 
291.231689 382139.1875 
309.242249 479798.0 
327.252899 161864.21875 
383.994629 5827.259277 
391.987518 16192.935547 
END IONS

BEGIN IONS
RTINSECONDS=214.660004
CHARGE=1+
MSLEVEL=2
SMILES=O=C1c2c(C)cc(O)c(C=O)c2Oc2c(O1)c(c(c(c2C)C(=O)O)O)C
INCHI=InChI=1S/C18H14O8/c1-6-4-10(20)9(5-19)16-11(6)18(24)26-15-8(3)13(21)12(17(22)23)7(2)14(15)25-16/h4-5,20-21H,1-3H3,(H,22,23)
INCHIKEY=FOKAHYDSEWGOHN-UHFFFAOYSA-N
CLASS=Depsidones
ADDUCT=[M+H+CH3OH]+
INSTRUMENT=Thermo Q-Exactive Focus
PRECURSOR_MZ=391.1029
COMPOUND_NAME=Virensic acid
ION_MODE=positive
FORMULA=C18H14O8
53.6059 29818.333984 
57.06398 6949.331543 
71.086494 6057.365723 
83.013664 792130.75 
91.9701 76252.53125 
131.049744 34885.1875 
149.023697 31787.261719 
201.055588 178930.40625 
231.066299 375494.46875 
243.065613 137470.328125 
257.045258 191750.0625 
267.06778 168926.265625 
285.040161 6442891.0 
299.055817 1416686.75 
303.051422 338149.25 
341.066833 1691224.125 
355.082794 940285.125 
359.076935 2109146.25 
373.092407 830295.125 
END IONS

BEGIN IONS
RTINSECONDS=317.47699
CHARGE=1+
MSLEVEL=2
SMILES=O=C1c2c(CCCCC)cc(OC)c(OC)c2Oc2c(O1)cc(c(c2CCCCC)C(=O)O)O
INCHI=InChI=1S/C26H32O8/c1-5-7-9-11-15-13-18(31-3)23(32-4)24-20(15)26(30)33-19-14-17(27)21(25(28)29)16(22(19)34-24)12-10-8-6-2/h13-14,27H,5-12H2,1-4H3,(H,28,29)
INCHIKEY=GHBZVNHEVHMKOB-UHFFFAOYSA-N
CLASS=Depsidones
ADDUCT=[M+Na+CH3CN]+
INSTRUMENT=Thermo Q-Exactive Focus
PRECURSOR_MZ=536.226
COMPOUND_NAME=3-Methoxycolensoic acid
ION_MODE=positive
FORMULA=C26H32O8
52.222515 12858.459961 
62.428989 12385.995117 
66.213173 12992.022461 
69.502159 14965.578125 
77.996033 15951.508789 
110.724747 14360.816406 
120.57206 14498.601562 
128.510696 13718.742188 
139.159866 13986.72168 
144.872284 13945.72168 
184.910507 15998.613281 
185.065521 14174.498047 
213.061401 11841.189453 
213.101883 13745.976562 
229.687958 11992.861328 
244.766602 11030.583008 
275.628967 9474.859375 
290.168427 11842.245117 
365.164581 16474.542969 
370.319366 12001.767578 
409.70636 13560.873047 
426.057739 14318.035156 
426.957245 17443.998047 
451.208862 475443.4375 
460.067413 17439.566406 
477.187714 35437.4375 
495.128815 32663.826172 
495.198761 536530.625 
513.206177 25549.146484 
END IONS

BEGIN IONS
RTINSECONDS=210.166
CHARGE=1+
MSLEVEL=2
SMILES=CC1C(OC2(C(C3C(C(=O)C2(C(=O)O3)C)C)C)C(C1OC(=O)C)C)C
INCHI=InChI=1S/C19H28O6/c1-8-12(5)25-19(10(3)14(8)23-13(6)20)11(4)15-9(2)16(21)18(19,7)17(22)24-15/h8-12,14-15H,1-7H3
INCHIKEY=CMTSHPFXBUQFIX-UHFFFAOYSA-N
CLASS=Aliphatic and Cycloaliphatic Compounds
ADDUCT=[M+NH4]+
INSTRUMENT=Thermo Q-Exactive Focus
PRECURSOR_MZ=370.223
COMPOUND_NAME=Acetylportentol
ION_MODE=positive
FORMULA=C19H28O6
57.034336 62811.007812 
83.013458 1904291.875 
85.029243 142534.703125 
95.086128 266877.96875 
123.080742 779132.0 
125.096458 676711.5 
135.11702 308205.96875 
141.054504 1440219.25 
153.09111 450240.75 
153.127457 2073234.875 
221.231659 53898.234375 
251.1651 63144.878906 
273.821198 63903.445312 
275.163879 220819.09375 
287.468964 65175.976562 
293.1745 2336543.0 
304.749176 54476.71875 
341.704102 5280.644531 
END IONS

BEGIN IONS
RTINSECONDS=269.963013
CHARGE=1+
MSLEVEL=2
SMILES=CC1=C(C(=O)O)[C@@H](CCCCCCCCCCCCC(C)CO)OC1=O
INCHI=InChI=1S/C21H36O5/c1-16(15-22)13-11-9-7-5-3-4-6-8-10-12-14-18-19(20(23)24)17(2)21(25)26-18/h16,18,22H,3-15H2,1-2H3,(H,23,24)/t16?,18-/m1/s1
INCHIKEY=FEGXSCTZZUZMJG-UHUGOGIASA-N
CLASS=Paraconic acids
ADDUCT=[M+H]+
INSTRUMENT=Thermo Q-Exactive Focus
PRECURSOR_MZ=369.2641
COMPOUND_NAME=Isomurolic acid
ION_MODE=positive
FORMULA=C21H36O5
57.071404 4413620.5 
69.071434 4410496.0 
71.087044 4652476.0 
81.071396 4228991.0 
95.087044 5495947.0 
133.102829 2139213.5 
155.035446 15483209.0 
157.051208 3279727.25 
207.103958 2001645.125 
211.098938 2342575.0 
225.114548 2875267.0 
239.130066 3164514.5 
253.146561 2670923.25 
267.161926 2742527.75 
281.177399 2658706.25 
295.193481 1837910.625 
305.250275 3056562.0 
333.246063 1384593.25 
351.25647 1887161.375 
END IONS

BEGIN IONS
RTINSECONDS=292.688995
CHARGE=1+
MSLEVEL=2
SMILES=CCCCCc1cc(cc(c1C(=O)O)OC)OC(=O)c1c(cc(cc1CC(=O)CCCCC)OC)O
INCHI=InChI=1S/C28H36O8/c1-5-7-9-11-18-14-22(17-24(35-4)26(18)27(31)32)36-28(33)25-19(13-20(29)12-10-8-6-2)15-21(34-3)16-23(25)30/h14-17,30H,5-13H2,1-4H3,(H,31,32)
INCHIKEY=UANVCGQMNRTKGM-UHFFFAOYSA-N
CLASS=Depsides (Didepsides)
ADDUCT=[2M+H]+
INSTRUMENT=Thermo Q-Exactive Focus
PRECURSOR_MZ=1001.4899
COMPOUND_NAME=Confluentic acid
ION_MODE=positive
FORMULA=C28H36O8
71.086357 58782.457031 
72.837929 47564.6875 
107.049408 154689.109375 
124.052231 442317.03125 
125.059883 340234.71875 
137.059937 996068.8125 
163.075516 774429.6875 
175.075485 791792.5 
195.138199 1063658.0 
217.122543 954606.0625 
221.117401 6759547.0 
235.132965 1346116.375 
239.127884 3393516.5 
263.127899 16081768.0 
291.92392 42961.707031 
303.705383 21591.951172 
318.355835 52762.96875 
348.323608 43856.382812 
369.327637 56885.828125 
373.524261 38718.515625 
385.321838 52667.851562 
397.76474 21587.958984 
405.777283 20124.691406 
447.342346 79689.695312 
569.454102 46723.261719 
743.263428 44232.96875 
775.256775 54324.445312 
809.846924 40831.851562 
878.797058 13250.274414 
980.937866 64010.507812 
END IONS

BEGIN IONS
RTINSECONDS=337.092987
CHARGE=1+
MSLEVEL=2
SMILES=CC1(C)C2CC[C@@]3(C)C(CCC4C3(CCC3[C@@H](O)C(C)(C)CCC43C)C)C2(C)CC(OC(=O)C)C1O
INCHI=InChI=1S/C32H54O4/c1-19(33)36-21-18-30(7)22(28(4,5)26(21)35)13-15-32(9)24(30)11-10-23-29(6)17-16-27(2,3)25(34)20(29)12-14-31(23,32)8/h20-26,34-35H,10-18H2,1-9H3/t20?,21?,22?,23?,24?,25-,26?,29?,30?,31?,32+/m1/s1
INCHIKEY=QZWMMIGRNYLXMG-XDRJWLFLSA-N
CLASS=Terpenoids : Triterpenes
ADDUCT=[M+H]+
INSTRUMENT=Thermo Q-Exactive Focus
PRECURSOR_MZ=503.41
COMPOUND_NAME="2alpha-acetoxy-3beta,22alpha-stictandiol"
ION_MODE=positive
FORMULA=C32H54O4
81.070702 427301.40625 
95.086121 940108.5625 
107.085953 515176.71875 
109.101662 1223143.875 
121.101601 744249.6875 
123.117096 538122.0 
135.116913 855946.3125 
189.164078 390524.8125 
191.179504 602732.375 
207.1745 312600.21875 
217.195755 334837.75 
315.268341 85455.601562 
329.284851 122975.28125 
355.299774 140973.5 
407.367493 156013.625 
425.377747 1276627.25 
443.38913 117287.929688 
END IONS

BEGIN IONS
RTINSECONDS=257.049988
CHARGE=1+
MSLEVEL=2
SMILES=Cc1cc(c2c(c1)C(=O)c1c(C2=O)c(ccc1)O)O
INCHI=InChI=1S/C15H10O4/c1-7-5-9-13(11(17)6-7)15(19)12-8(14(9)18)3-2-4-10(12)16/h2-6,16-17H,1H3
INCHIKEY=LQGUBLBATBMXHT-UHFFFAOYSA-N
CLASS=Quinones
ADDUCT=[M+H]+
INSTRUMENT=Thermo Q-Exactive Focus
PRECURSOR_MZ=255.0657
COMPOUND_NAME=Chrysophanol
ION_MODE=positive
FORMULA=C15H10O4
66.714722 4559.654297 
83.220016 4681.589844 
91.054794 7729.12793 
91.968033 7167.730469 
96.966438 4962.192383 
121.028534 8646.1875 
135.043854 7687.286133 
135.703033 5495.275879 
148.068604 4493.678711 
181.064804 12738.041016 
199.075211 10347.792969 
209.059921 11822.366211 
227.069916 21170.800781 
237.054138 5889.749023 
271.385468 2177.933594 
276.772827 1998.422974 
END IONS

BEGIN IONS
RTINSECONDS=457.93399
CHARGE=1+
MSLEVEL=2
SMILES=c1ccc(cc1)C1=C(C(=O)C(=C(C1=O)O)c1ccccc1)O
INCHI=InChI=1S/C18H12O4/c19-15-13(11-7-3-1-4-8-11)16(20)18(22)14(17(15)21)12-9-5-2-6-10-12/h1-10,19,22H
INCHIKEY=HZKFHDXTSAYOSN-UHFFFAOYSA-N
CLASS=Quinones
ADDUCT=[2M+H+CH3CN]+
INSTRUMENT=Thermo Q-Exactive Focus
PRECURSOR_MZ=626.1815
COMPOUND_NAME=Polyporic acid
ION_MODE=positive
FORMULA=C18H12O4
61.011368 18937.298828 
73.047531 287600.9375 
79.021683 10246.668945 
91.058022 461182.125 
91.970482 24285.875 
107.053505 20615.310547 
149.044907 41849.652344 
163.06073 16434.644531 
167.055466 152609.578125 
181.070999 77965.40625 
223.0634 29681.115234 
225.043121 27655.5 
237.079376 416692.84375 
239.094849 175844.140625 
283.030029 28526.775391 
285.009766 289674.4375 
299.061829 241591.921875 
344.976593 31764.085938 
355.069977 741338.5 
359.029022 27603.439453 
371.064972 30627.234375 
373.080566 71410.421875 
415.036377 20497.558594 
418.994659 68263.585938 
429.088409 8567.765625 
489.058899 6150.552734 
525.564697 3028.220215 
544.06134 3364.130127 
577.127869 63379.875 
593.122803 27898.373047 
609.152771 9478.866211 
END IONS

BEGIN IONS
RTINSECONDS=221.524994
CHARGE=1+
MSLEVEL=2
SMILES=Cc1cc(=O)c2c(c(C)c(O[C@H]3[C@H](OC(=O)C)[C@@H](OC(=O)C)[C@H](OC(=O)C)[C@@H](COC(=O)C)O3)cc2O)o1
INCHI=InChI=1S/C25H28O13/c1-10-7-16(30)20-17(31)8-18(11(2)21(20)33-10)37-25-24(36-15(6)29)23(35-14(5)28)22(34-13(4)27)19(38-25)9-32-12(3)26/h7-8,19,22-25,31H,9H2,1-6H3/t19-,22-,23+,24-,25-/m1/s1
INCHIKEY=NWASWCGVBSEDJX-HYOIWIKGSA-N
CLASS=Chromanes and Chromones
ADDUCT=[M+Na]+
INSTRUMENT=Thermo Q-Exactive Focus
PRECURSOR_MZ=559.1428
COMPOUND_NAME=Acetylloboridin
ION_MODE=positive
FORMULA=C25H28O13
61.883736 5579.853027 
63.895245 69615.554688 
91.962593 163541.1875 
109.029106 187923.28125 
127.039673 39830.738281 
169.049622 127463.210938 
191.033234 55837.339844 
207.06604 98477.679688 
229.047836 312064.40625 
233.042801 52005.851562 
251.053513 167066.4375 
269.080505 55618.132812 
293.06424 116793.34375 
297.076569 111584.304688 
315.087555 95622.367188 
353.083862 72832.257812 
439.101898 83071.601562 
499.12146 249696.609375 
END IONS

BEGIN IONS
RTINSECONDS=210.977005
CHARGE=1+
MSLEVEL=2
SMILES=CC1C(OC2(C(C3C(C(=O)C2(C(=O)O3)C)C)C)C(C1OC(=O)C)C)C
INCHI=InChI=1S/C19H28O6/c1-8-12(5)25-19(10(3)14(8)23-13(6)20)11(4)15-9(2)16(21)18(19,7)17(22)24-15/h8-12,14-15H,1-7H3
INCHIKEY=CMTSHPFXBUQFIX-UHFFFAOYSA-N
CLASS=Aliphatic and Cycloaliphatic Compounds
ADDUCT=[M+H]+
INSTRUMENT=Thermo Q-Exactive Focus
PRECURSOR_MZ=353.1964
COMPOUND_NAME=Acetylportentol
ION_MODE=positive
FORMULA=C19H28O6
57.032043 32805.621094 
67.055138 44648.125 
83.013466 779339.5 
95.086136 151699.5625 
123.080826 218940.125 
125.096519 247334.6875 
135.116898 132434.703125 
141.054855 475420.65625 
153.091293 118589.015625 
153.127441 612804.0625 
201.16394 51066.203125 
231.17485 26531.355469 
247.169495 43830.050781 
251.164978 34864.597656 
275.163849 108863.59375 
293.174591 430402.5625 
379.021362 6384.11084 
END IONS

BEGIN IONS
RTINSECONDS=405.338989
CHARGE=1+
MSLEVEL=2
SMILES=CC1(C)C(=O)CC[C@]2(C)[C@H]3CC[C@@H]4[C@@H]([C@@]5(C)O[C@H](CC5)C(C)(OC(=O)C)C)CC[C@@]4(C)[C@]3(C)CCC12
INCHI=InChI=1S/C32H52O4/c1-20(33)35-28(4,5)26-15-19-32(9,36-26)22-12-17-30(7)21(22)10-11-24-29(6)16-14-25(34)27(2,3)23(29)13-18-31(24,30)8/h21-24,26H,10-19H2,1-9H3/t21-,22+,23?,24-,26-,29+,30-,31-,32+/m1/s1
INCHIKEY=QOIXKXFGILIXHU-PATLJMMGSA-N
CLASS=Terpenoids : Triterpenes
ADDUCT=[M+H]+
INSTRUMENT=Thermo Q-Exactive Focus
PRECURSOR_MZ=501.3944
COMPOUND_NAME="25-Acetoxy-20(S),24(R)-epoxy-3-oxodammarane"
ION_MODE=positive
FORMULA=C32H52O4
55.055061 47056.441406 
69.070824 79395.203125 
81.070427 170496.046875 
95.086205 291572.96875 
107.08609 329094.875 
109.101662 471027.53125 
121.101585 301409.90625 
133.101288 214439.640625 
147.117096 223932.984375 
189.164078 334619.3125 
203.179489 194363.28125 
205.159241 175342.8125 
217.195145 130273.75 
405.352844 22637.683594 
423.361816 318409.84375 
441.372345 81982.671875 
465.370544 30302.199219 
483.383636 400236.9375 
END IONS

BEGIN IONS
RTINSECONDS=335.289001
CHARGE=1+
MSLEVEL=2
SMILES=CC1(C)C2CC[C@]3([C@@]4(CC[C@H]5[C@H](CC[C@@]5([C@H]4CC[C@@H]3[C@@]2(C)C(=O)C=C1)C)C(C)(O)C)C)C
INCHI=InChI=1S/C30H48O2/c1-25(2)15-14-24(31)30(8)21(25)13-18-29(7)23(30)10-9-22-27(5)16-11-19(26(3,4)32)20(27)12-17-28(22,29)6/h14-15,19-23,32H,9-13,16-18H2,1-8H3/t19-,20-,21?,22+,23-,27-,28+,29+,30-/m0/s1
INCHIKEY=YLKHZBZGHNOEES-LISTXKHRSA-N
CLASS=Terpenoids : Triterpenes
ADDUCT=[M+H]+
INSTRUMENT=Thermo Q-Exactive Focus
PRECURSOR_MZ=441.3733
COMPOUND_NAME=22-Hydoxy-2-hopen-1-one
ION_MODE=positive
FORMULA=C30H48O2
59.050056 415060.75 
95.086105 828848.4375 
107.085945 668494.0625 
109.101578 715422.875 
121.101463 1044192.625 
149.132599 1058830.125 
159.116791 551657.0 
191.179443 585807.5 
201.163879 396334.90625 
203.179901 375399.96875 
215.179596 581581.6875 
297.793091 59136.59375 
298.235504 9709.293945 
305.736328 60592.035156 
309.260315 10223.46582 
354.267334 28754.140625 
356.756165 60160.082031 
365.321533 113421.78125 
383.326508 75160.539062 
405.351349 120926.148438 
413.115326 76509.164062 
423.361908 293398.6875 
457.067444 11938.085938 
END IONS

BEGIN IONS
RTINSECONDS=243.095993
CHARGE=1+
MSLEVEL=2
SMILES=CCCCCC(=O)Cc1cc(cc(c1C(=O)Oc1cc(c(c(c1)CC(=O)CCCCC)C(=O)O)OC)O)O
INCHI=InChI=1S/C29H36O9/c1-4-6-8-10-20(30)12-18-14-22(32)16-24(33)26(18)29(36)38-23-15-19(13-21(31)11-9-7-5-2)27(28(34)35)25(17-23)37-3/h14-17,32-33H,4-13H2,1-3H3,(H,34,35)
INCHIKEY=DGXLEDCXMIJNPJ-UHFFFAOYSA-N
CLASS=Depsides (Didepsides)
ADDUCT=[2M+NH4]+
INSTRUMENT=Thermo Q-Exactive Focus
PRECURSOR_MZ=1074.5062
COMPOUND_NAME=Arthoniaic acid
ION_MODE=positive
FORMULA=C29H36O9
76.343498 394536.71875 
80.861679 370178.1875 
91.97036 1160311.5 
137.060043 4609712.0 
163.075516 7065803.5 
165.055023 2766541.75 
175.075577 5603695.5 
179.070358 3375366.75 
217.122665 6530476.0 
235.133118 18889378.0 
237.149063 2395568.5 
249.112427 6212605.0 
263.128052 121299504.0 
281.138611 9594364.0 
337.714722 27198.912109 
338.910156 27059.072266 
382.962891 57806.929688 
417.948364 27916.375 
447.351288 61970.511719 
456.25174 49894.9375 
497.78949 109616.382812 
504.380341 27677.310547 
529.241272 93332.585938 
625.115112 390764.46875 
627.976257 26391.664062 
759.177612 25358.902344 
840.923889 26653.431641 
880.40625 126925.0 
1036.313477 27778.429688 
END IONS

BEGIN IONS
RTINSECONDS=470.210999
CHARGE=1+
MSLEVEL=2
SMILES=CC1(C)C2[C@@](CCC1)(C)[C@H]1CC[C@@H]3[C@@]4(C)CCC(=C4CC[C@@]3(C)[C@]1(C)CC2=O)C(C)C
INCHI=InChI=1S/C30H48O/c1-19(2)20-12-16-27(5)21(20)13-17-29(7)23(27)10-11-24-28(6)15-9-14-26(3,4)25(28)22(31)18-30(24,29)8/h19,23-25H,9-18H2,1-8H3/t23-,24-,25?,27+,28-,29-,30-/m1/s1
INCHIKEY=OZFAGHUNGAZEMO-VKNUIDEPSA-N
CLASS=Terpenoids : Triterpenes
ADDUCT=[M+H]+
INSTRUMENT=Thermo Q-Exactive Focus
PRECURSOR_MZ=425.3783
COMPOUND_NAME=17(21)-Hopen-6-one
ION_MODE=positive
FORMULA=C30H48O
95.086166 162559.59375 
107.086159 104550.65625 
109.101685 144388.34375 
121.101555 130910.835938 
147.117035 88136.617188 
161.132599 126723.148438 
191.179611 96737.75 
203.179916 83402.039062 
217.195374 166991.734375 
235.205612 21630.462891 
257.226959 10563.563477 
311.274719 7671.125977 
407.366882 44333.683594 
END IONS

BEGIN IONS
RTINSECONDS=162.524002
CHARGE=1+
MSLEVEL=2
SMILES=O=C1OC2=C(c3ccccc3)C(=O)OC2=C1c1ccccc1
INCHI=InChI=1S/C18H10O4/c19-17-13(11-7-3-1-4-8-11)15-16(22-17)14(18(20)21-15)12-9-5-2-6-10-12/h1-10H
INCHIKEY=KQTXUHHOWJUFOZ-UHFFFAOYSA-N
CLASS=Pulvinic Acid Derivatives
ADDUCT=[M+H+CH3OH]+
INSTRUMENT=Thermo Q-Exactive Focus
PRECURSOR_MZ=323.0919
COMPOUND_NAME=Pulvinic acid dilactone
ION_MODE=positive
FORMULA=C18H10O4
89.039391 92286.148438 
91.969704 52520.785156 
105.039169 79097.320312 
117.033875 49377.648438 
121.06514 25208.103516 
145.028641 210033.671875 
178.077698 236511.921875 
179.085236 471860.53125 
207.080551 4055617.0 
217.064377 194117.0625 
235.075363 1774768.0 
245.060226 124756.484375 
263.070343 3315741.5 
279.101349 34748.472656 
291.065186 851745.9375 
END IONS

BEGIN IONS
RTINSECONDS=123.490997
CHARGE=1+
MSLEVEL=2
SMILES=O[C@H]1[C@H](O)[C@@H](O)[C@H](Oc2c(C)c3oc(C)cc(=O)c3c(O)c2C)O[C@@H]1COC(=O)C
INCHI=InChI=1S/C20H24O10/c1-7-5-11(22)13-14(23)8(2)18(9(3)19(13)28-7)30-20-17(26)16(25)15(24)12(29-20)6-27-10(4)21/h5,12,15-17,20,23-26H,6H2,1-4H3/t12-,15-,16+,17-,20+/m1/s1
INCHIKEY=NJRLDXGREKHXGV-IVABAYMNSA-N
CLASS=Chromanes and Chromones
ADDUCT=[M+Na]+
INSTRUMENT=Thermo Q-Exactive Focus
PRECURSOR_MZ=447.1267
COMPOUND_NAME=Galapagin
ION_MODE=positive
FORMULA=C20H24O10
243.023392 110044.804688 
243.063232 836936.625 
END IONS

BEGIN IONS
RTINSECONDS=248.634003
CHARGE=1+
MSLEVEL=2
SMILES=Oc1c(C(=O)Oc2cc(O)c(C(=O)O)c(CCCCC)c2)c(CC(=O)CCC)cc(OC)c1
INCHI=InChI=1S/C25H30O8/c1-4-6-7-9-15-11-19(14-20(27)22(15)24(29)30)33-25(31)23-16(10-17(26)8-5-2)12-18(32-3)13-21(23)28/h11-14,27-28H,4-10H2,1-3H3,(H,29,30)
INCHIKEY=PKLMGLZTAHCGBQ-UHFFFAOYSA-N
CLASS=Depsides (Didepsides)
ADDUCT=[M+NH4]+
INSTRUMENT=Thermo Q-Exactive Focus
PRECURSOR_MZ=476.2284
COMPOUND_NAME=Glomelliferic acid
ION_MODE=positive
FORMULA=C25H30O8
60.597027 38223.589844 
67.150169 37278.175781 
67.515366 36909.433594 
78.624512 36772.386719 
82.572746 38353.261719 
107.049629 38993.554688 
137.059708 134779.140625 
163.075424 338219.59375 
179.033859 333413.1875 
189.091064 748448.875 
207.101562 2227424.0 
225.112228 819570.8125 
235.096436 5692926.5 
274.869568 48065.386719 
295.746887 44495.335938 
321.435364 6088.272949 
345.724915 6229.574219 
359.782684 13347.416992 
376.769958 40143.15625 
412.557922 7510.547852 
424.967346 30139.550781 
430.657837 42295.53125 
452.433868 14677.267578 
END IONS

BEGIN IONS
RTINSECONDS=274.311005
CHARGE=1+
MSLEVEL=2
SMILES=CC(=O)CCCCCCCCCCCCC[C@@H]1C(C(=O)O)C(=C)C(=O)O1
INCHI=InChI=1S/C21H34O5/c1-16(22)14-12-10-8-6-4-3-5-7-9-11-13-15-18-19(20(23)24)17(2)21(25)26-18/h18-19H,2-15H2,1H3,(H,23,24)/t18-,19?/m1/s1
INCHIKEY=SKQHRBRVCRUFSX-MRTLOADZSA-N
CLASS=Paraconic acids
ADDUCT=[M+H]+
INSTRUMENT=Thermo Q-Exactive Focus
PRECURSOR_MZ=367.2484
COMPOUND_NAME=Muronic acid
ION_MODE=positive
FORMULA=C21H34O5
67.054962 27518780.0 
81.070473 40134596.0 
93.070267 33963884.0 
95.085869 58728020.0 
109.101387 30143688.0 
121.064835 74207952.0 
121.101227 24172560.0 
163.075134 12232521.0 
255.231964 9923089.0 
275.237427 4419764.0 
285.221436 10339204.0 
303.231354 34235780.0 
313.215576 8731055.0 
321.242096 9744614.0 
331.226166 31016736.0 
349.236481 30417762.0 
END IONS

BEGIN IONS
RTINSECONDS=239.067993
CHARGE=1+
MSLEVEL=2
SMILES=O=C(Oc1c(O)cc(CCCCC)c(C(=O)O)c1O)c1c(CCC)cc(OC)cc1OC
INCHI=InChI=1S/C24H30O8/c1-5-7-8-10-15-12-17(25)22(21(26)20(15)23(27)28)32-24(29)19-14(9-6-2)11-16(30-3)13-18(19)31-4/h11-13,25-26H,5-10H2,1-4H3,(H,27,28)
INCHIKEY=AAKHGLJWUOZNTQ-UHFFFAOYSA-N
CLASS=Depsides (Didepsides)
ADDUCT=[M+NH4]+
INSTRUMENT=Thermo Q-Exactive Focus
PRECURSOR_MZ=464.2284
COMPOUND_NAME=Merochlorophaeic acid
ION_MODE=positive
FORMULA=C24H30O8
63.92432 8953.856445 
80.044281 7949.793945 
91.964912 14730.261719 
101.671555 8139.935547 
106.504128 9463.632812 
123.202423 9147.946289 
174.068054 10659.072266 
176.083588 13233.779297 
179.106949 19377.3125 
189.091217 35441.414062 
192.078308 31469.056641 
207.10173 1521149.375 
238.022125 10676.513672 
239.025543 10997.873047 
270.077789 8014.463379 
328.975494 9895.892578 
338.814331 9718.867188 
373.462494 3072.405029 
380.769836 3013.726562 
380.817566 3192.539062 
390.366669 8062.311035 
430.344452 2367.537109 
482.130066 10101.194336 
END IONS

BEGIN IONS
RTINSECONDS=259.856995
CHARGE=1+
MSLEVEL=2
SMILES=O=C1c2c(CC(=O)CCCCC)cc(O)cc2Oc2c(O1)cc(c(c2CCCCC)C(=O)O)O
INCHI=InChI=1S/C26H30O8/c1-3-5-7-9-16(27)11-15-12-17(28)13-20-22(15)26(32)34-21-14-19(29)23(25(30)31)18(24(21)33-20)10-8-6-4-2/h12-14,28-29H,3-11H2,1-2H3,(H,30,31)
INCHIKEY=KVTYWHGIZSCFLG-UHFFFAOYSA-N
CLASS=Depsidones
ADDUCT=[M+NH4]+
INSTRUMENT=Thermo Q-Exactive Focus
PRECURSOR_MZ=488.2284
COMPOUND_NAME=Physodic acid
ION_MODE=positive
FORMULA=C26H30O8
51.465656 49440.136719 
71.086563 365006.34375 
77.050797 51703.773438 
91.970024 59197.722656 
95.086281 76642.773438 
99.081429 195791.390625 
151.039444 59687.996094 
163.03981 129576.617188 
177.091766 111794.195312 
203.071564 140925.78125 
205.087082 73382.734375 
214.214447 57685.523438 
259.060913 226642.515625 
271.060242 50344.71875 
285.040558 83950.03125 
301.143768 333146.3125 
312.100891 180186.25 
313.10791 296962.09375 
329.141174 92758.421875 
357.134857 358783.46875 
357.207245 214832.109375 
383.11377 432598.84375 
385.201752 560521.375 
411.181244 3773523.5 
427.211761 376422.15625 
453.192352 373765.84375 
457.418365 49474.101562 
471.202545 1426716.875 
514.649292 27786.660156 
END IONS

BEGIN IONS
RTINSECONDS=279.942993
CHARGE=1+
MSLEVEL=2
SMILES=O=C1O/C(=C(/C(=O)N[C@H](C(=O)O)Cc2ccccc2)\c2ccccc2)/C(=C1c1ccccc1)O
INCHI=InChI=1S/C27H21NO6/c29-23-21(18-12-6-2-7-13-18)27(33)34-24(23)22(19-14-8-3-9-15-19)25(30)28-20(26(31)32)16-17-10-4-1-5-11-17/h1-15,20,29H,16H2,(H,28,30)(H,31,32)/b24-22+/t20-/m0/s1
INCHIKEY=XTLHEUFWRQKNNG-YVURAWIMSA-N
CLASS=Pulvinic Acid Derivatives
ADDUCT=[2M+H]+
INSTRUMENT=Thermo Q-Exactive Focus
PRECURSOR_MZ=911.2816
COMPOUND_NAME=Norrhizocarpic acid
ION_MODE=positive
FORMULA=C27H21NO6
90.39518 34425.074219 
97.405518 36928.054688 
103.054619 118322.460938 
107.049408 57952.285156 
120.081055 5560239.5 
131.049347 160903.015625 
149.059906 170491.890625 
166.086319 3058801.0 
179.085388 167890.5 
207.08049 1688113.875 
217.065216 97689.75 
235.075333 1241473.25 
235.09967 56916.734375 
245.060104 114317.726562 
263.070251 2550156.5 
290.056885 17510.367188 
291.064941 426616.0625 
325.417938 21462.554688 
329.152069 16029.000977 
383.036102 10092.40332 
431.924469 16727.890625 
438.135406 17655.882812 
456.144165 1906532.125 
460.972107 10807.526367 
467.389404 15997.482422 
476.01593 11158.333008 
516.831238 10673.697266 
519.830444 35842.300781 
578.231506 18731.091797 
587.874634 16867.669922 
588.740662 19438.683594 
613.557922 18887.191406 
619.685913 38782.957031 
635.408325 12271.03125 
645.727539 18850.507812 
657.862732 10188.362305 
724.209106 36490.921875 
736.370117 15900.644531 
775.358948 14830.239258 
928.611023 46028.734375 
END IONS

BEGIN IONS
RTINSECONDS=278.678009
CHARGE=1+
MSLEVEL=2
SMILES=O=C1c2c(CCCCC)cc(OC)c(O)c2Oc2c(O1)cc(c(c2CCCCC)C(=O)O)O
INCHI=InChI=1S/C25H30O8/c1-4-6-8-10-14-12-17(31-3)21(27)23-19(14)25(30)32-18-13-16(26)20(24(28)29)15(22(18)33-23)11-9-7-5-2/h12-13,26-27H,4-11H2,1-3H3,(H,28,29)
INCHIKEY=VZPSCITXDMDLDC-UHFFFAOYSA-N
CLASS=Depsidones
ADDUCT=[M+H]+
INSTRUMENT=Thermo Q-Exactive Focus
PRECURSOR_MZ=459.2019
COMPOUND_NAME=3-Hydroxycolensoic acid
ION_MODE=positive
FORMULA=C25H30O8
74.923538 12145.580078 
76.434135 158701.53125 
193.049347 1172918.75 
219.065613 50983.402344 
221.117096 12399824.0 
233.08139 2175045.75 
237.111008 1258376.25 
285.039001 1008092.25 
287.055695 2097053.375 
289.143768 2034214.75 
343.116272 1670795.25 
345.134491 2400650.25 
345.206573 1397302.5 
371.112122 9477559.0 
371.18454 1801875.25 
373.201508 3420383.75 
399.179871 51831648.0 
415.211945 2230453.0 
441.190155 6773861.0 
END IONS

BEGIN IONS
RTINSECONDS=213.389008
CHARGE=1+
MSLEVEL=2
SMILES=Oc1c(Oc2cc(OC)cc3c2C(=O)OC3(O)CCCC)c(CCCCC)c(c(c1)O)C(=O)O
INCHI=InChI=1S/C25H30O9/c1-4-6-8-9-15-20(23(28)29)17(26)13-18(27)22(15)33-19-12-14(32-3)11-16-21(19)24(30)34-25(16,31)10-7-5-2/h11-13,26-27,31H,4-10H2,1-3H3,(H,28,29)
INCHIKEY=BWRBGHBJBQFFAW-UHFFFAOYSA-N
CLASS=Diphenylethers
ADDUCT=[M+Na]+
INSTRUMENT=Thermo Q-Exactive Focus
PRECURSOR_MZ=497.1788
COMPOUND_NAME=Lobariolcarboxylic acid (Lobarin)
ION_MODE=positive
FORMULA=C25H30O9
54.748402 24855.443359 
69.254791 30090.535156 
78.756042 25312.037109 
90.252342 25455.566406 
111.108986 27279.839844 
121.600494 28757.71875 
174.242096 24591.171875 
174.684464 28056.492188 
211.525406 28735.261719 
218.558975 26341.851562 
222.450974 26597.347656 
239.021606 29216.3125 
267.294403 33871.214844 
286.999603 24375.224609 
305.709412 25812.085938 
312.211395 3314.428955 
353.511719 3180.749512 
357.188293 3370.889404 
377.695404 25220.333984 
405.094879 11422.87207 
408.750519 30524.986328 
435.176453 24133.095703 
446.581146 26297.777344 
461.155518 66023.554688 
479.167145 704353.0 
521.743225 20131.136719 
END IONS

BEGIN IONS
RTINSECONDS=335.106995
CHARGE=1+
MSLEVEL=2
SMILES=CCCCCCCCCCCCC[C@@H]1[C@@H](C(=O)O)[C@H](C)C(=O)O1
INCHI=InChI=1S/C19H34O4/c1-3-4-5-6-7-8-9-10-11-12-13-14-16-17(18(20)21)15(2)19(22)23-16/h15-17H,3-14H2,1-2H3,(H,20,21)/t15-,16+,17-/m0/s1
INCHIKEY=WLGALFYTFVOQPY-BBWFWOEESA-N
CLASS=Paraconic acids
ADDUCT=[M+NH4]+
INSTRUMENT=Thermo Q-Exactive Focus
PRECURSOR_MZ=344.2801
COMPOUND_NAME=Roccellaric acid
ION_MODE=positive
FORMULA=C19H34O4
67.05468 40368.136719 
69.070366 42615.90625 
81.070183 61939.675781 
95.085571 74178.578125 
109.101013 37738.332031 
133.100327 35202.09375 
147.116196 25898.248047 
175.147156 17497.273438 
207.209793 32007.335938 
217.194397 21678.292969 
245.225281 65697.96875 
263.23584 48963.886719 
275.06134 10863.771484 
281.246155 36306.277344 
291.230652 48159.476562 
309.241241 104493.929688 
327.251129 43431.074219 
END IONS

BEGIN IONS
RTINSECONDS=242.858002
CHARGE=1+
MSLEVEL=2
SMILES=COc1cc2c(c(=O)oc(CCCCC)c2)c(OC)c1
INCHI=InChI=1S/C16H20O4/c1-4-5-6-7-12-8-11-9-13(18-2)10-14(19-3)15(11)16(17)20-12/h8-10H,4-7H2,1-3H3
INCHIKEY=NKYAIPHVDQBFLF-UHFFFAOYSA-N
CLASS=Cleavage Products of Depsides and Depsidones
ADDUCT=[M+H]+
INSTRUMENT=Thermo Q-Exactive Focus
PRECURSOR_MZ=277.144
COMPOUND_NAME="2,4-Di-O-methylolivetonide"
ION_MODE=positive
FORMULA=C16H20O4
69.070633 7184820.0 
71.086433 6104225.5 
81.07061 11979889.0 
89.464699 2166007.75 
93.070236 5708861.0 
151.075455 42620964.0 
162.067383 46129636.0 
164.046768 100030432.0 
177.091064 48005004.0 
189.090759 42674628.0 
206.057404 99531336.0 
217.085983 60749816.0 
244.109528 33757132.0 
259.132629 54086972.0 
END IONS

BEGIN IONS
RTINSECONDS=261.817993
CHARGE=1+
MSLEVEL=2
SMILES=Cc1c(c(C(=O)C)c(c2c1OC1=CC(=C(C(=O)C21C)C(=O)C)O)O)O
INCHI=InChI=1S/C18H16O7/c1-6-14(22)12(8(3)20)15(23)13-16(6)25-10-5-9(21)11(7(2)19)17(24)18(10,13)4/h5,21-23H,1-4H3
INCHIKEY=GRIDHCOCFJSWSY-UHFFFAOYSA-N
CLASS=Dibenzofuranes
ADDUCT=[M+H+CH3OH]+
INSTRUMENT=Thermo Q-Exactive Focus
PRECURSOR_MZ=377.1236
COMPOUND_NAME=Isousnic acid
ION_MODE=positive
FORMULA=C18H16O7
55.500698 17796.246094 
85.029198 1362114.875 
91.054565 319189.21875 
127.039238 142999.015625 
167.034637 845953.875 
181.049911 1543122.375 
195.065826 987794.375 
196.07341 2023852.25 
219.065567 1329846.0 
233.081192 5740448.0 
251.091492 1622164.625 
261.076294 3674628.25 
285.076569 1265965.5 
303.087067 2533223.25 
317.102936 1329239.625 
327.087036 2194068.0 
335.112854 1413598.125 
345.097473 10761968.0 
359.112823 1626300.75 
END IONS

BEGIN IONS
RTINSECONDS=331.295013
CHARGE=1+
MSLEVEL=2
SMILES=CC[C@@H](C)C[C@@H](C)[C@@H]([C@H](C)C(=O)O[C@@H]([C@H](C)C[C@H](C)CC)[C@H](C)C(=O)O)O
INCHI=InChI=1S/C22H42O5/c1-9-13(3)11-15(5)19(23)17(7)22(26)27-20(18(8)21(24)25)16(6)12-14(4)10-2/h13-20,23H,9-12H2,1-8H3,(H,24,25)/t13-,14-,15-,16-,17+,18+,19+,20+/m1/s1
INCHIKEY=ZQEUMOKDJCSNHB-IHRHECOVSA-N
CLASS=Acids
ADDUCT=[M+Na]+
INSTRUMENT=Thermo Q-Exactive Focus
PRECURSOR_MZ=409.293
COMPOUND_NAME=Bourgeanic acid
ION_MODE=positive
FORMULA=C22H42O5
73.754486 84480.75 
90.736153 82964.945312 
91.098183 81531.078125 
91.963173 95996.554688 
113.07975 82859.039062 
122.411118 85033.820312 
166.389572 81669.6875 
167.030533 95352.617188 
185.276718 55294.621094 
207.135056 242676.84375 
225.14566 1599080.375 
226.220612 50908.574219 
240.29071 22561.273438 
258.670959 63913.265625 
272.674866 59748.175781 
280.171204 21174.830078 
280.733795 5583.777832 
291.05484 69110.640625 
325.956635 2786.682129 
332.099976 2285.20874 
353.587646 2469.438721 
382.377411 2539.933838 
END IONS

BEGIN IONS
RTINSECONDS=386.209015
CHARGE=1+
MSLEVEL=2
SMILES=CC1(C2C(CCC1OC(=O)C)(C)C1C(CC2)([C@]2(C(C(C1)O)C(CC2)[C@]1(C)O[C@@H](C(C)(OC(=O)C)C)CC1)C)C)C
INCHI=InChI=1S/C34H56O6/c1-20(35)38-26-13-15-31(7)24(29(26,3)4)12-17-32(8)25(31)19-23(37)28-22(11-16-33(28,32)9)34(10)18-14-27(40-34)30(5,6)39-21(2)36/h22-28,37H,11-19H2,1-10H3/t22?,23?,24?,25?,26?,27-,28?,31?,32?,33-,34-/m1/s1
INCHIKEY=TWRWTOXPYGQKPW-ZWXXETMRSA-N
CLASS=Terpenoids : Triterpenes
ADDUCT=[M+H]+
INSTRUMENT=Thermo Q-Exactive Focus
PRECURSOR_MZ=561.4155
COMPOUND_NAME=Diacetylpyxinol
ION_MODE=positive
FORMULA=C34H56O6
107.086082 12527157.0 
109.101768 12774834.0 
125.096382 12405834.0 
127.112175 12939338.0 
133.101547 11096836.0 
147.117188 16063385.0 
187.148636 8009794.0 
189.164322 21999612.0 
191.179642 11347686.0 
215.179916 7250541.5 
233.190491 9487627.0 
255.211884 2581395.25 
283.243134 1950669.625 
287.238312 1524329.875 
337.289337 2085836.25 
405.352875 3752345.0 
423.36264 43763776.0 
465.373535 4529268.0 
483.384186 21794138.0 
501.394592 6051071.5 
END IONS

BEGIN IONS
RTINSECONDS=79.0401
CHARGE=1+
MSLEVEL=2
SMILES=Cc1cc(cc(c1C(=O)O)O)O
INCHI=InChI=1S/C8H8O4/c1-4-2-5(9)3-6(10)7(4)8(11)12/h2-3,9-10H,1H3,(H,11,12)
INCHIKEY=AMKYESDOVDKZKV-UHFFFAOYSA-N
CLASS=Cleavage Products of Depsides and Depsidones
ADDUCT=[M+H]+
INSTRUMENT=Thermo Q-Exactive Focus
PRECURSOR_MZ=169.0501
COMPOUND_NAME=Orsellinic acid
ION_MODE=positive
FORMULA=C8H8O4
54.103016 99589.21875 
67.055229 405191.5 
68.997948 493094.0 
70.264877 123320.765625 
95.049881 500175.53125 
120.280495 112402.828125 
151.039124 38825976.0 
END IONS

BEGIN IONS
RTINSECONDS=233.783005
CHARGE=1+
MSLEVEL=2
SMILES=O=C1c2c(CC(=O)CCCCC)cc(O)c(O)c2Oc2c(O1)cc(c(c2CCCCC)C(=O)O)O
INCHI=InChI=1S/C26H30O9/c1-3-5-7-9-15(27)11-14-12-18(29)22(30)24-20(14)26(33)34-19-13-17(28)21(25(31)32)16(23(19)35-24)10-8-6-4-2/h12-13,28-30H,3-11H2,1-2H3,(H,31,32)
INCHIKEY=BQHHNAPTXQOPBW-UHFFFAOYSA-N
CLASS=Depsidones
ADDUCT=[M+H]+
INSTRUMENT=Thermo Q-Exactive Focus
PRECURSOR_MZ=487.1968
COMPOUND_NAME=3-Hydroxyphysodic acid
ION_MODE=positive
FORMULA=C26H30O9
71.086487 11546880.0 
91.963943 1485924.75 
95.08609 1423863.75 
99.080971 2474323.5 
107.086105 632317.375 
163.039597 1229723.375 
166.025681 248234.0 
167.033508 307387.96875 
177.091629 2150545.5 
179.033752 918486.25 
219.066101 8613854.0 
235.095459 895465.5 
263.091827 3034424.25 
273.039459 2688919.5 
275.055817 2671941.5 
287.055145 2952167.5 
317.139618 4935064.5 
328.094482 7963460.5 
329.101685 5937513.0 
373.129303 5308916.5 
373.202118 3060487.75 
399.108582 5817979.0 
401.196472 9032136.0 
427.175934 59715908.0 
443.207123 4473968.0 
469.187317 5857262.5 
END IONS

BEGIN IONS
RTINSECONDS=257.944
CHARGE=1+
MSLEVEL=2
SMILES=Oc1cc(OC(=O)c2c(O)cc(O)cc2CC(=O)CCCCC)cc(CCCCC)c1C(=O)O
INCHI=InChI=1S/C26H32O8/c1-3-5-7-9-16-13-20(15-22(30)23(16)25(31)32)34-26(33)24-17(12-19(28)14-21(24)29)11-18(27)10-8-6-4-2/h12-15,28-30H,3-11H2,1-2H3,(H,31,32)
INCHIKEY=VZPLPGICHZXOCQ-UHFFFAOYSA-N
CLASS=Depsides (Didepsides)
ADDUCT=[M+NH4]+
INSTRUMENT=Thermo Q-Exactive Focus
PRECURSOR_MZ=490.2441
COMPOUND_NAME=Olivetoric acid
ION_MODE=positive
FORMULA=C26H32O8
55.055069 60825.992188 
68.99781 60952.976562 
69.070686 94867.414062 
91.963066 97626.90625 
95.08593 82275.546875 
123.044067 510864.0 
149.059586 529250.9375 
161.059433 531721.75 
203.106323 512181.5 
207.101547 700104.0625 
221.116669 661556.8125 
225.112259 1495950.75 
231.101212 350124.90625 
249.11171 5640241.5 
271.512024 19249.480469 
294.690826 39274.988281 
315.708527 6398.030762 
364.244019 7493.99707 
399.09137 39958.824219 
401.311218 29601.460938 
413.185425 24965.705078 
425.084259 6676.226562 
449.191223 21158.830078 
462.28125 6515.032227 
465.608521 24757.457031 
END IONS

BEGIN IONS
RTINSECONDS=124.844002
CHARGE=1+
MSLEVEL=2
SMILES=Cc1cc(c(c(c1)O)C=O)O
INCHI=InChI=1S/C8H8O3/c1-5-2-7(10)6(4-9)8(11)3-5/h2-4,10-11H,1H3
INCHIKEY=JASONGFGOLHLGB-UHFFFAOYSA-N
CLASS=Cleavage Products of Depsides and Depsidones
ADDUCT=[M+H]+
INSTRUMENT=Thermo Q-Exactive Focus
PRECURSOR_MZ=153.0552
COMPOUND_NAME=Atranol
ION_MODE=positive
FORMULA=C8H8O3
51.023746 114628.671875 
53.039455 139038.140625 
77.039192 527026.3125 
79.054756 2270820.25 
95.049629 777611.9375 
107.049416 2871931.25 
125.059769 3684063.5 
135.045746 1052381.5 
END IONS

BEGIN IONS
RTINSECONDS=292.417999
CHARGE=1+
MSLEVEL=2
SMILES=O=C1Oc2c(c3C[C@@](O)(CCCCC)OC(=O)c3c(O)c2)Oc2c1c(cc(c2)OC)CC(=O)CCCCC
INCHI=InChI=1S/C29H34O9/c1-4-6-8-10-18(30)12-17-13-19(35-3)14-22-24(17)27(32)37-23-15-21(31)25-20(26(23)36-22)16-29(34,38-28(25)33)11-9-7-5-2/h13-15,31,34H,4-12,16H2,1-3H3/t29-/m1/s1
INCHIKEY=DQYWDDCXRXABIH-GDLZYMKVSA-N
CLASS=Depsidones
ADDUCT=[2M+Na]+
INSTRUMENT=Thermo Q-Exactive Focus
PRECURSOR_MZ=1075.4303
COMPOUND_NAME=Alpha-collatolic acid
ION_MODE=positive
FORMULA=C29H34O9
91.963577 69769.609375 
255.098816 151721.984375 
270.086273 2389065.25 
284.101959 2411844.25 
407.147858 376250.0 
433.126465 972981.4375 
461.229858 337827.1875 
463.209808 320419.6875 
487.210907 158095.578125 
505.220459 7656784.5 
531.19928 2898403.0 
548.228516 258973.5625 
549.210266 15027432.0 
550.211548 41844.304688 
END IONS

BEGIN IONS
RTINSECONDS=135.044998
CHARGE=1+
MSLEVEL=2
SMILES=Cc1cc(O)cc(O)c1C(=O)Oc1cc(O)c(C(=O)OC[C@@H](O)[C@@H](O)CO)c(C)c1
INCHI=InChI=1S/C20H22O10/c1-9-3-11(22)5-13(23)18(9)20(28)30-12-4-10(2)17(14(24)6-12)19(27)29-8-16(26)15(25)7-21/h3-6,15-16,21-26H,7-8H2,1-2H3/t15-,16+/m0/s1
INCHIKEY=BUBBEHCXSMCYNY-JKSUJKDBSA-N
CLASS=Depsides (Didepsides)
ADDUCT=[2M+Na]+
INSTRUMENT=Thermo Q-Exactive Focus
PRECURSOR_MZ=867.2324
COMPOUND_NAME=Erythrin
ION_MODE=positive
FORMULA=C20H22O10
63.627037 16251.488281 
65.580688 9148.74707 
66.580742 15078.891602 
71.27697 9791.408203 
77.407883 9658.839844 
93.399315 10357.126953 
121.182121 10248.261719 
139.052185 16636.623047 
145.047272 3995978.25 
151.039078 33552.027344 
173.021072 1978243.25 
180.565643 18693.195312 
191.031418 34672.167969 
201.661011 22904.458984 
238.665588 11954.929688 
261.049469 10929.476562 
287.763367 19514.417969 
295.078888 2415243.75 
295.108673 17320.964844 
319.708313 11455.725586 
324.023315 11651.308594 
357.559937 13176.048828 
387.944641 9647.969727 
445.048889 20853.744141 
445.110718 1086010.0 
445.158295 15274.695312 
472.381378 20474.0 
505.453735 8568.294922 
536.085876 11646.697266 
543.656067 10527.741211 
579.523499 18876.808594 
582.670471 12712.896484 
673.50116 17771.955078 
685.856384 18753.080078 
767.836731 9449.375977 
775.183167 12480.100586 
END IONS

BEGIN IONS
RTINSECONDS=268.173004
CHARGE=1+
MSLEVEL=2
SMILES=O=C(Oc1c(O)cc(CCCCC)c(C(=O)O)c1O)c1c(CCC)cc(OC)cc1OC
INCHI=InChI=1S/C24H30O8/c1-5-7-8-10-15-12-17(25)22(21(26)20(15)23(27)28)32-24(29)19-14(9-6-2)11-16(30-3)13-18(19)31-4/h11-13,25-26H,5-10H2,1-4H3,(H,27,28)
INCHIKEY=AAKHGLJWUOZNTQ-UHFFFAOYSA-N
CLASS=Depsides (Didepsides)
ADDUCT=[2M+K]+
INSTRUMENT=Thermo Q-Exactive Focus
PRECURSOR_MZ=931.3518
COMPOUND_NAME=Merochlorophaeic acid
ION_MODE=positive
FORMULA=C24H30O8
78.31144 9970.943359 
85.73494 9797.507812 
108.865623 10524.826172 
109.212395 10126.982422 
115.927559 10409.739258 
123.150352 10717.066406 
179.107239 11755.166992 
189.090805 22425.617188 
192.078629 9972.852539 
207.10173 398906.875 
228.840744 10049.006836 
246.505066 10872.288086 
297.366425 10986.408203 
326.337189 10563.866211 
432.567352 10949.761719 
448.928864 9403.030273 
467.147247 53053.996094 
485.157166 175894.734375 
687.083862 10242.511719 
689.228271 22880.800781 
707.243469 11371.952148 
736.351074 9871.845703 
743.273865 12555.367188 
762.526062 11887.324219 
END IONS

BEGIN IONS
RTINSECONDS=122.260002
CHARGE=1+
MSLEVEL=2
SMILES=O=C1c2c(C)cc(O)cc2Oc2c(O1)cc1c(c2O)C(=O)OC1
INCHI=InChI=1S/C16H10O7/c1-6-2-8(17)4-9-11(6)16(20)23-10-3-7-5-21-15(19)12(7)13(18)14(10)22-9/h2-4,17-18H,5H2,1H3
INCHIKEY=LPUOVEFMUOQBFV-UHFFFAOYSA-N
CLASS=Depsidones
ADDUCT=[M+H]+
INSTRUMENT=Thermo Q-Exactive Focus
PRECURSOR_MZ=315.0505
COMPOUND_NAME=Variolaric acid
ION_MODE=positive
FORMULA=C16H10O7
55.0186 48033.296875 
80.008278 37917.957031 
81.022385 36137.117188 
83.013191 507101.65625 
91.967361 25031.291016 
92.692863 39111.792969 
144.004181 37792.269531 
151.00267 57758.273438 
151.038116 44514.089844 
169.012711 324254.0625 
185.059418 79395.226562 
191.033386 239396.5 
201.054153 166049.25 
213.054153 165019.109375 
215.069839 100209.960938 
241.048401 303986.375 
269.043396 361051.40625 
271.059235 2022591.875 
287.054077 79942.507812 
297.038452 456105.5 
END IONS

BEGIN IONS
RTINSECONDS=266.112
CHARGE=1+
MSLEVEL=2
SMILES=O=C1C(=C(O)/C(=C(/c2ccccc2)\C(=O)OC)/O1)c1ccccc1
INCHI=InChI=1S/C19H14O5/c1-23-18(21)15(13-10-6-3-7-11-13)17-16(20)14(19(22)24-17)12-8-4-2-5-9-12/h2-11,20H,1H3/b17-15+
INCHIKEY=OMZRMXULWNMRAE-BMRADRMJSA-N
CLASS=Pulvinic Acid Derivatives
ADDUCT=[M+H]+
INSTRUMENT=Thermo Q-Exactive Focus
PRECURSOR_MZ=323.0919
COMPOUND_NAME=Vulpinic acid
ION_MODE=positive
FORMULA=C19H14O5
75.193604 135400.984375 
89.03936 1515803.625 
91.964165 1134202.0 
105.034111 776613.9375 
117.033928 1230744.75 
145.028366 3417416.5 
157.028793 566697.6875 
178.077667 3040426.0 
179.085785 5567509.0 
207.080231 52625604.0 
217.064606 2292153.75 
235.075027 25154008.0 
245.060181 1745894.5 
263.069946 45080284.0 
291.064728 12180036.0 
291.097382 722285.375 
END IONS

BEGIN IONS
RTINSECONDS=112.401001
CHARGE=1+
MSLEVEL=2
SMILES=Cc1cc(c(c2c1C(=O)Oc1c(O2)c2c(c(c1CO)O)C(=O)OC2O)C=O)OC
INCHI=InChI=1S/C19H14O10/c1-6-3-9(26-2)7(4-20)14-10(6)17(23)28-15-8(5-21)13(22)11-12(16(15)27-14)19(25)29-18(11)24/h3-4,19,21-22,25H,5H2,1-2H3
INCHIKEY=FYPCEUKJORJHDL-UHFFFAOYSA-N
CLASS=Depsidones
ADDUCT=[M+NH4]+
INSTRUMENT=Thermo Q-Exactive Focus
PRECURSOR_MZ=420.0931
COMPOUND_NAME=Constictic acid
ION_MODE=positive
FORMULA=C19H14O10
66.648712 6770.8125 
71.219261 7293.474609 
82.87056 7018.007324 
83.806778 7351.521973 
99.008675 23374.646484 
119.013649 10769.303711 
165.052628 20340.691406 
191.035294 8255.475586 
193.050385 10977.758789 
227.07193 14757.744141 
229.05072 14436.207031 
231.066574 22668.435547 
243.065842 117715.375 
255.066544 15023.429688 
257.045471 34238.480469 
287.055237 51474.816406 
311.055969 104782.1875 
313.034912 130719.351562 
339.050842 478829.875 
357.062531 24129.587891 
367.046112 84490.101562 
370.093048 22948.070312 
385.056305 329305.0 
389.138092 6173.039062 
402.119446 12683.099609 
END IONS

BEGIN IONS
RTINSECONDS=256.127014
CHARGE=1+
MSLEVEL=2
SMILES=CCCCCC1=CC(=O)C=C(OC)C21C(=O)Oc1c2c(c(c(c1)O)C(=O)O)CCCCC
INCHI=InChI=1S/C25H30O7/c1-4-6-8-10-15-12-16(26)13-20(31-3)25(15)22-17(11-9-7-5-2)21(23(28)29)18(27)14-19(22)32-24(25)30/h12-14,27H,4-11H2,1-3H3,(H,28,29)
INCHIKEY=LOGCRVAWKCZXQM-UHFFFAOYSA-N
CLASS=Depsones
ADDUCT=[2M+H]+
INSTRUMENT=Thermo Q-Exactive Focus
PRECURSOR_MZ=885.4061
COMPOUND_NAME=Picrolichenic acid
ION_MODE=positive
FORMULA=C25H30O7
69.070663 452227.1875 
71.086311 179420.65625 
82.126595 330369.1875 
95.086205 355904.34375 
131.085403 708402.0625 
137.059265 379400.96875 
151.075241 1231352.125 
159.080414 901829.9375 
221.117157 1512870.75 
227.069717 1843250.25 
229.085632 2031802.75 
241.085281 1600571.125 
253.048889 4160740.25 
255.065018 2272950.5 
283.13269 1484165.25 
309.112396 1276410.375 
310.119324 7458770.5 
311.127106 5669506.0 
366.181885 19283934.0 
381.205231 9588641.0 
384.192078 2035358.625 
399.215912 3017128.0 
425.194611 620645.4375 
433.176605 216499.671875 
443.205597 37883128.0 
489.848114 129323.273438 
543.71991 25612.835938 
547.430542 4671.007324 
593.242981 15440.203125 
666.018005 211886.9375 
684.927246 6526.364258 
694.272034 223110.84375 
701.402954 15928.289062 
708.401611 5360.356445 
716.997925 6565.539551 
781.230713 203850.0625 
END IONS

BEGIN IONS
RTINSECONDS=275.477997
CHARGE=1+
MSLEVEL=2
SMILES=O=C1Oc2c(c(C)c(Cl)c(OC)c2)Oc2c(Cl)c(O)c(Cl)c(C)c12
INCHI=InChI=1S/C16H11Cl3O5/c1-5-9-15(12(19)13(20)11(5)18)24-14-6(2)10(17)7(22-3)4-8(14)23-16(9)21/h4,20H,1-3H3
INCHIKEY=XEDMLQPKKYHCKK-UHFFFAOYSA-N
CLASS=Depsidones
ADDUCT=[M+NH4]+
INSTRUMENT=Thermo Q-Exactive Focus
PRECURSOR_MZ=406.0016
COMPOUND_NAME=Dechlorodiploicin
ION_MODE=positive
FORMULA=C16H11Cl3O5
50.48912 5209.241699 
68.560699 5889.912109 
71.549606 5399.705566 
71.647789 6344.875488 
77.614372 5985.688477 
106.428604 6124.562988 
110.193298 5874.039062 
127.167747 6287.724609 
160.649124 5813.366699 
169.005219 38831.050781 
176.986938 37500.875 
185.000656 7678.563477 
233.036835 20961.142578 
236.503464 5781.555664 
261.031921 9769.37793 
262.0401 16610.005859 
294.992889 10166.424805 
297.008759 19363.636719 
318.970154 9210.311523 
325.003784 36478.304688 
352.998077 13352.389648 
388.974701 192271.109375 
END IONS

BEGIN IONS
RTINSECONDS=341.950012
CHARGE=1+
MSLEVEL=2
SMILES=CC(C)(C)CCCCCCCCCC1C(C(=O)O)C(C(=O)O1)C
INCHI=InChI=1S/C19H34O4/c1-14-16(17(20)21)15(23-18(14)22)12-10-8-6-5-7-9-11-13-19(2,3)4/h14-16H,5-13H2,1-4H3,(H,20,21)
INCHIKEY=NRFWTRPHJATQOB-UHFFFAOYSA-N
CLASS=Paraconic acids
ADDUCT=[M+NH4]+
INSTRUMENT=Thermo Q-Exactive Focus
PRECURSOR_MZ=344.2801
COMPOUND_NAME=Neodihydroprotolichesterinic acid
ION_MODE=positive
FORMULA=C19H34O4
57.070553 35081.582031 
67.054832 45627.089844 
69.070419 49109.121094 
81.070305 97408.59375 
83.08593 44704.996094 
95.085747 85819.851562 
109.101295 45255.65625 
133.100357 31550.048828 
147.116516 42699.082031 
161.132645 22620.621094 
207.209763 30108.759766 
217.194946 23369.835938 
245.225708 73034.742188 
263.235901 97914.632812 
281.24646 20798.273438 
291.230804 58190.820312 
309.241455 105596.21875 
327.252258 54641.824219 
END IONS

BEGIN IONS
RTINSECONDS=243.354996
CHARGE=1+
MSLEVEL=2
SMILES=CCCCCC(=O)Cc1cc(cc(c1C(=O)Oc1cc(c(c(c1)CC(=O)CCCCC)C(=O)O)OC)O)O
INCHI=InChI=1S/C29H36O9/c1-4-6-8-10-20(30)12-18-14-22(32)16-24(33)26(18)29(36)38-23-15-19(13-21(31)11-9-7-5-2)27(28(34)35)25(17-23)37-3/h14-17,32-33H,4-13H2,1-3H3,(H,34,35)
INCHIKEY=DGXLEDCXMIJNPJ-UHFFFAOYSA-N
CLASS=Depsides (Didepsides)
ADDUCT=[M+K]+
INSTRUMENT=Thermo Q-Exactive Focus
PRECURSOR_MZ=567.1996
COMPOUND_NAME=Arthoniaic acid
ION_MODE=positive
FORMULA=C29H36O9
54.216278 6459.244141 
55.680851 5535.456055 
56.123981 6629.227539 
61.579353 5898.887695 
93.592758 6350.245605 
111.639725 6510.169434 
138.443481 6495.737305 
148.905548 7503.636719 
152.968292 6603.311035 
153.358856 7246.51123 
176.232925 5057.103027 
241.973038 4306.226074 
285.440521 7637.813477 
287.06897 14494.041992 
301.084717 14030.100586 
301.332336 6210.065918 
319.094727 389719.8125 
344.889008 4859.710938 
389.7836 4665.549316 
393.365021 6550.78125 
413.785309 2772.508301 
420.987579 7759.049316 
519.354004 4510.445312 
539.978516 6181.151855 
END IONS

BEGIN IONS
RTINSECONDS=315.019012
CHARGE=1+
MSLEVEL=2
SMILES=OC(=O)c1c(OC)cc(cc1CCCCC)OC(=O)c1c(CCCCC)cc(OC)cc1OC
INCHI=InChI=1S/C27H36O7/c1-6-8-10-12-18-15-21(17-22(32-4)24(18)26(28)29)34-27(30)25-19(13-11-9-7-2)14-20(31-3)16-23(25)33-5/h14-17H,6-13H2,1-5H3,(H,28,29)
INCHIKEY=FNJKTDQIJKLZGZ-UHFFFAOYSA-N
CLASS=Depsides (Didepsides)
ADDUCT=[2M+NH4]+
INSTRUMENT=Thermo Q-Exactive Focus
PRECURSOR_MZ=962.5266
COMPOUND_NAME=Planaic acid
ION_MODE=positive
FORMULA=C27H36O7
66.719322 146004.765625 
69.016716 148844.890625 
70.440414 65145.53125 
73.206543 57974.910156 
91.969978 323588.375 
121.064705 177931.9375 
151.075211 1195218.625 
177.090347 806793.25 
188.082855 784358.375 
193.085739 809404.1875 
217.121933 1255555.25 
235.132446 100320120.0 
280.313354 182252.984375 
308.336578 169701.359375 
314.851013 94683.625 
325.968628 80013.671875 
347.275391 25354.75 
352.435913 166886.359375 
391.718567 66593.8125 
426.183868 173490.671875 
427.096313 176263.03125 
472.642365 12188.646484 
473.252411 1503588.0 
487.35199 11799.082031 
524.636719 217012.125 
535.654907 203299.125 
606.933838 74782.359375 
608.040344 50331.441406 
612.210022 64202.582031 
906.191833 197560.5 
933.28772 25862.835938 
END IONS

BEGIN IONS
RTINSECONDS=233.940002
CHARGE=1+
MSLEVEL=2
SMILES=O=C1c2c(CC(=O)CCCCC)cc(O)c(O)c2Oc2c(O1)cc(c(c2CCCCC)C(=O)O)O
INCHI=InChI=1S/C26H30O9/c1-3-5-7-9-15(27)11-14-12-18(29)22(30)24-20(14)26(33)34-19-13-17(28)21(25(31)32)16(23(19)35-24)10-8-6-4-2/h12-13,28-30H,3-11H2,1-2H3,(H,31,32)
INCHIKEY=BQHHNAPTXQOPBW-UHFFFAOYSA-N
CLASS=Depsidones
ADDUCT=[2M+NH4]+
INSTRUMENT=Thermo Q-Exactive Focus
PRECURSOR_MZ=990.4123
COMPOUND_NAME=3-Hydroxyphysodic acid
ION_MODE=positive
FORMULA=C26H30O9
71.086487 1330157.875 
95.085953 368919.75 
99.080742 744176.9375 
135.080505 525117.5 
153.053223 218775.953125 
177.091171 840896.25 
179.033585 620746.0 
205.086075 720784.0625 
219.065201 984920.0 
263.091614 1206618.5 
273.039612 685386.125 
275.055237 1212607.875 
317.139252 2056970.25 
327.123688 1023539.9375 
328.093872 1582418.125 
329.103027 1480292.875 
373.129272 3800178.0 
373.200592 1967703.75 
387.144562 843601.8125 
399.108582 4825622.5 
401.196533 6616182.0 
427.175964 39825216.0 
443.207458 3666020.0 
469.186829 2673892.0 
487.197205 29805810.0 
545.213745 32701.53125 
559.962463 140065.96875 
560.824646 251696.375 
612.921265 35731.472656 
618.02124 186699.171875 
741.31427 71856.445312 
752.584534 40059.6875 
776.219788 72918.09375 
831.635254 36616.59375 
904.884399 223634.75 
913.094177 8277.483398 
949.054565 73279.289062 
END IONS

BEGIN IONS
RTINSECONDS=270.446991
CHARGE=1+
MSLEVEL=2
SMILES=CC1=C(C(=O)O)[C@@H](CCCCCCCCCCCCC(C)CO)OC1=O
INCHI=InChI=1S/C21H36O5/c1-16(15-22)13-11-9-7-5-3-4-6-8-10-12-14-18-19(20(23)24)17(2)21(25)26-18/h16,18,22H,3-15H2,1-2H3,(H,23,24)/t16?,18-/m1/s1
INCHIKEY=FEGXSCTZZUZMJG-UHUGOGIASA-N
CLASS=Paraconic acids
ADDUCT=[M+NH4]+
INSTRUMENT=Thermo Q-Exactive Focus
PRECURSOR_MZ=386.2906
COMPOUND_NAME=Isomurolic acid
ION_MODE=positive
FORMULA=C21H36O5
67.055733 2423968.25 
69.071495 1473556.25 
81.071556 5712659.0 
83.087082 2058084.5 
95.087013 6912967.0 
109.102615 4253906.5 
121.102776 2233306.25 
135.118622 1299579.75 
147.118729 1264657.375 
155.035797 2354361.0 
239.130051 592207.3125 
253.146378 541786.125 
267.162079 600832.5 
277.255157 1996527.375 
287.240967 1108598.125 
305.250427 5113496.0 
315.235352 633474.1875 
333.246979 1713621.625 
351.256653 2438862.5 
369.267242 14594365.0 
END IONS

BEGIN IONS
RTINSECONDS=384.52301
CHARGE=1+
MSLEVEL=2
SMILES=CC1(C2C(CCC1OC(=O)C)(C)C1C(CC2)([C@]2(C(C(C1)O)C(CC2)[C@]1(C)O[C@@H](C(C)(OC(=O)C)C)CC1)C)C)C
INCHI=InChI=1S/C34H56O6/c1-20(35)38-26-13-15-31(7)24(29(26,3)4)12-17-32(8)25(31)19-23(37)28-22(11-16-33(28,32)9)34(10)18-14-27(40-34)30(5,6)39-21(2)36/h22-28,37H,11-19H2,1-10H3/t22?,23?,24?,25?,26?,27-,28?,31?,32?,33-,34-/m1/s1
INCHIKEY=TWRWTOXPYGQKPW-ZWXXETMRSA-N
CLASS=Terpenoids : Triterpenes
ADDUCT=[2M+H]+
INSTRUMENT=Thermo Q-Exactive Focus
PRECURSOR_MZ=1121.8232
COMPOUND_NAME=Diacetylpyxinol
ION_MODE=positive
FORMULA=C34H56O6
95.086288 25238102.0 
107.086273 27124738.0 
109.101799 29633138.0 
125.096558 25670754.0 
127.112213 29935238.0 
135.117554 25376176.0 
147.117157 43099020.0 
189.164124 62104936.0 
191.179794 35135224.0 
215.179977 22117308.0 
233.190353 19699336.0 
255.210968 7043514.0 
283.24295 5683356.5 
287.237976 4671669.5 
321.258453 2052926.0 
337.289276 5735104.0 
367.299713 1539516.625 
381.315552 1623919.0 
397.310333 1550023.25 
405.352264 11482291.0 
423.362762 85920208.0 
465.374207 7626588.0 
483.384247 60544896.0 
483.455933 384107.875 
501.394775 56847300.0 
543.404053 3814059.0 
561.416626 8186633.5 
END IONS

BEGIN IONS
RTINSECONDS=104.549004
CHARGE=1+
MSLEVEL=2
SMILES=Cc1c(O)c(C(=O)O)c(C)cc1O
INCHI=InChI=1S/C9H10O4/c1-4-3-6(10)5(2)8(11)7(4)9(12)13/h3,10-11H,1-2H3,(H,12,13)
INCHIKEY=VHNLJRRECIZZPX-UHFFFAOYSA-N
CLASS=Cleavage Products of Depsides and Depsidones
ADDUCT=[M+H]+
INSTRUMENT=Thermo Q-Exactive Focus
PRECURSOR_MZ=183.0657
COMPOUND_NAME=b-Orcinolcarboxylic acid
ION_MODE=positive
FORMULA=C9H10O4
81.070496 406078.28125 
83.01339 326100.375 
98.984657 509708.53125 
109.065079 533159.0625 
113.963943 281406.9375 
151.039215 209827.328125 
165.054596 30721078.0 
END IONS

BEGIN IONS
RTINSECONDS=292.683014
CHARGE=1+
MSLEVEL=2
SMILES=O=C1Oc2c(c3C[C@@](O)(CCCCC)OC(=O)c3c(O)c2)Oc2c1c(cc(c2)OC)CC(=O)CCCCC
INCHI=InChI=1S/C29H34O9/c1-4-6-8-10-18(30)12-17-13-19(35-3)14-22-24(17)27(32)37-23-15-21(31)25-20(26(23)36-22)16-29(34,38-28(25)33)11-9-7-5-2/h13-15,31,34H,4-12,16H2,1-3H3/t29-/m1/s1
INCHIKEY=DQYWDDCXRXABIH-GDLZYMKVSA-N
CLASS=Depsidones
ADDUCT=[2M+NH4]+
INSTRUMENT=Thermo Q-Exactive Focus
PRECURSOR_MZ=1070.4749
COMPOUND_NAME=Alpha-collatolic acid
ION_MODE=positive
FORMULA=C29H34O9
81.070541 242314.140625 
95.086464 256219.0625 
99.081276 7976440.5 
123.044418 1599610.875 
137.023743 503492.65625 
150.031265 426861.5 
164.046921 1220640.5 
177.055405 1838598.25 
206.057571 1668833.625 
231.10228 869241.0 
262.120514 1310674.0 
285.076233 1767434.125 
301.143921 2742171.0 
311.056122 1873917.0 
313.070984 5889161.5 
315.160034 1873505.5 
369.13385 7969567.0 
383.149353 4627907.0 
385.165161 4908545.0 
393.133575 4463018.5 
411.14447 24457342.0 
429.155457 4182501.5 
465.22757 2769923.75 
467.207245 29837362.0 
491.207367 7134394.5 
509.217957 26679550.0 
527.228638 52850216.0 
END IONS

BEGIN IONS
RTINSECONDS=109.910004
CHARGE=1+
MSLEVEL=2
SMILES=Cc1cc(c(c2c1C(=O)Oc1c(O2)c2c(c(c1CO)O)C(=O)OC2O)C=O)OC
INCHI=InChI=1S/C19H14O10/c1-6-3-9(26-2)7(4-20)14-10(6)17(23)28-15-8(5-21)13(22)11-12(16(15)27-14)19(25)29-18(11)24/h3-4,19,21-22,25H,5H2,1-2H3
INCHIKEY=FYPCEUKJORJHDL-UHFFFAOYSA-N
CLASS=Depsidones
ADDUCT=[M+H]+
INSTRUMENT=Thermo Q-Exactive Focus
PRECURSOR_MZ=403.0665
COMPOUND_NAME=Constictic acid
ION_MODE=positive
FORMULA=C19H14O10
52.176544 128827.78125 
52.775753 39290.925781 
91.969131 213592.25 
99.008339 1086517.875 
119.013245 511232.4375 
179.070129 958889.4375 
193.050262 384160.78125 
227.070648 482549.25 
229.049606 1268675.375 
231.065384 983845.6875 
243.065277 5421620.0 
257.044189 2091324.0 
283.059692 725529.75 
287.055054 2031385.5 
311.054932 4679478.0 
313.034454 5905908.5 
339.050049 18552300.0 
357.060944 854299.0625 
367.044952 2421691.0 
385.055542 3712039.75 
385.103882 195333.546875 
END IONS

BEGIN IONS
RTINSECONDS=14.0917
CHARGE=1+
MSLEVEL=2
SMILES=OC[C@@H](O)[C@@H](O)[C@H](O)[C@H](O)CO
INCHI=InChI=1S/C6H14O6/c7-1-3(9)5(11)6(12)4(10)2-8/h3-12H,1-2H2/t3-,4-,5-,6-/m1/s1
INCHIKEY=FBPFZTCFMRRESA-KVTDHHQDSA-N
CLASS="Polyols, Monosaccharides, Carbohydrates"
ADDUCT=[M+H]+
INSTRUMENT=Thermo Q-Exactive Focus
PRECURSOR_MZ=183.0869
COMPOUND_NAME=D-Mannitol
ION_MODE=positive
FORMULA=C6H14O6
57.034428 5168578.0 
61.029312 6008572.0 
69.034332 42054344.0 
83.049835 10104471.0 
85.029099 8797130.0 
99.044601 7652614.5 
111.044594 6335171.0 
129.054779 6009896.0 
147.065231 3188631.25 
165.075882 1331794.0 
END IONS

BEGIN IONS
RTINSECONDS=291.563995
CHARGE=1+
MSLEVEL=2
SMILES=O=C1c2c(C(=O)CCCC)cc(OC)cc2Oc2c(O1)cc(c(c2CCCCC)C(=O)O)O
INCHI=InChI=1S/C25H28O8/c1-4-6-8-9-15-21(24(28)29)18(27)13-20-23(15)32-19-12-14(31-3)11-16(17(26)10-7-5-2)22(19)25(30)33-20/h11-13,27H,4-10H2,1-3H3,(H,28,29)
INCHIKEY=JHEWMLHQNRHTQX-UHFFFAOYSA-N
CLASS=Depsidones
ADDUCT=[M+Na+CH3CN]+
INSTRUMENT=Thermo Q-Exactive Focus
PRECURSOR_MZ=520.1947
COMPOUND_NAME=Lobaric acid
ION_MODE=positive
FORMULA=C25H28O8
54.613441 8779.856445 
58.501156 10091.503906 
69.989967 8980.619141 
73.675232 12062.072266 
76.363792 12159.973633 
112.827049 9205.303711 
113.968269 9473.371094 
120.057327 8630.248047 
121.02977 13766.104492 
175.102325 6621.335449 
182.518616 9804.496094 
202.947388 14134.939453 
246.33757 6239.816895 
247.790359 6231.024902 
253.328171 13568.542969 
307.037079 6478.361816 
388.988251 14251.648438 
405.094635 52480.382812 
417.165619 14194.811523 
419.143494 11765.251953 
435.178223 348321.90625 
461.157471 269235.8125 
479.168152 2078876.125 
497.174438 9991.96582 
END IONS

BEGIN IONS
RTINSECONDS=233.654007
CHARGE=1+
MSLEVEL=2
SMILES=Oc1cc(OC)cc(CCCCC)c1C(=O)O
INCHI=InChI=1S/C13H18O4/c1-3-4-5-6-9-7-10(17-2)8-11(14)12(9)13(15)16/h7-8,14H,3-6H2,1-2H3,(H,15,16)
INCHIKEY=JWSADSZPLGCVPA-UHFFFAOYSA-N
CLASS=Cleavage Products of Depsides and Depsidones
ADDUCT=[M+H]+
INSTRUMENT=Thermo Q-Exactive Focus
PRECURSOR_MZ=239.1283
COMPOUND_NAME=4-O-methylolivetolcarboxylic acid
ION_MODE=positive
FORMULA=C13H18O4
50.772598 20910.015625 
59.05022 195354.921875 
62.321606 67163.867188 
69.070496 35596.558594 
79.054771 80626.242188 
107.049324 204534.6875 
137.059937 3498395.0 
163.075623 1361549.875 
165.054825 1263004.0 
174.067825 997179.1875 
203.106735 2085684.0 
221.117508 23408668.0 
END IONS

BEGIN IONS
RTINSECONDS=255.029999
CHARGE=1+
MSLEVEL=2
SMILES=CC(C)C[C@H](NC(=O)c1ccccc1)C(=O)OC[C@@H](NC(=O)c1ccccc1)Cc1ccccc1
INCHI=InChI=1S/C29H32N2O4/c1-21(2)18-26(31-28(33)24-16-10-5-11-17-24)29(34)35-20-25(19-22-12-6-3-7-13-22)30-27(32)23-14-8-4-9-15-23/h3-17,21,25-26H,18-20H2,1-2H3,(H,30,32)(H,31,33)/t25-,26-/m0/s1
INCHIKEY=JOOSAYNHLJGJCN-UIOOFZCWSA-N
CLASS=N-Containing Compounds
ADDUCT=[2M+H]+
INSTRUMENT=Thermo Q-Exactive Focus
PRECURSOR_MZ=945.4802
COMPOUND_NAME=Hypothallin
ION_MODE=positive
FORMULA=C29H32N2O4
79.055115 5862865.5 
91.054932 15016923.0 
105.034081 160892080.0 
117.070358 72622944.0 
122.060471 20756254.0 
134.09671 23124592.0 
190.122925 39033720.0 
218.118011 12605128.0 
221.947723 978965.1875 
238.122955 199900672.0 
239.106964 2515709.0 
256.133514 106708696.0 
272.164276 868281.125 
301.566284 615910.25 
304.618439 377089.96875 
326.496429 32330.576172 
335.678162 11352.12793 
358.36615 567372.125 
395.332184 903854.25 
401.524536 603457.1875 
404.130768 1314571.125 
429.493988 645054.6875 
457.634155 666560.875 
473.184387 241628.4375 
473.244293 13714991.0 
506.524872 335023.375 
516.095459 361399.1875 
525.656311 634281.0625 
554.002075 916028.0625 
586.993958 343644.21875 
587.926147 400183.25 
609.35553 636292.5 
611.803711 801646.5 
650.364624 195931.5 
654.83905 860210.1875 
654.885925 60239.652344 
692.964966 634043.5625 
728.627747 995214.5 
735.100769 843180.1875 
778.136536 226452.953125 
778.588623 632803.0625 
795.657043 421670.46875 
873.681458 236249.53125 
END IONS

BEGIN IONS
RTINSECONDS=401.480011
CHARGE=1+
MSLEVEL=2
SMILES=CC1(C)[C@@H](OC(=O)C)C[C@@H](OC(=O)C)[C@]2(C)[C@H]3CC[C@@H]4[C@@]5(C)CC[C@H](C(C)(O)C)[C@@H]5CC[C@@]4(C)[C@]3(C)CCC12
INCHI=InChI=1S/C34H56O5/c1-20(35)38-27-19-28(39-21(2)36)34(10)24(29(27,3)4)15-18-33(9)26(34)12-11-25-31(7)16-13-22(30(5,6)37)23(31)14-17-32(25,33)8/h22-28,37H,11-19H2,1-10H3/t22-,23-,24?,25+,26-,27-,28+,31-,32+,33+,34-/m0/s1
INCHIKEY=HIGXRAWIRQTPEC-GAGXLZTKSA-N
CLASS=Terpenoids : Triterpenes
ADDUCT=[2M+NH4]+
INSTRUMENT=Thermo Q-Exactive Focus
PRECURSOR_MZ=1106.8599
COMPOUND_NAME="1beta,3beta-diacetoxy-22-hopanol"
ION_MODE=positive
FORMULA=C34H56O5
81.070747 5935549.0 
95.086281 13652655.0 
107.086159 8220018.5 
109.101791 10309471.0 
121.101814 9898414.0 
135.117203 10000450.0 
149.132996 11302740.0 
189.164108 5974633.5 
191.17981 6406304.0 
203.179825 6982354.0 
217.195602 7766398.5 
257.226624 2009698.75 
269.227295 1234052.375 
271.243073 1585050.25 
313.29071 508920.5 
337.29007 405782.6875 
349.122681 294323.0625 
351.303528 286990.78125 
365.322357 458979.40625 
367.336761 3949763.0 
407.36795 27878218.0 
425.378235 3793611.75 
447.347198 374321.21875 
465.669006 308958.03125 
467.389984 3728868.75 
484.412231 406529.8125 
485.08374 374636.125 
520.459106 368070.65625 
527.410645 4913662.0 
544.437317 4779608.5 
562.447632 46480904.0 
586.838318 336897.15625 
621.901611 43532.804688 
757.592834 25455.056641 
781.04541 23567.525391 
889.052795 52629.8125 
901.816528 58700.355469 
1004.323303 157518.171875 
1013.483765 450007.53125 
1021.133972 294634.25 
1060.414307 330940.0625 
1124.286011 48760.453125 
1124.692383 55000.144531 
1125.062378 140257.84375 
1125.934326 16000.592773 
1127.976807 198312.28125 
END IONS

BEGIN IONS
RTINSECONDS=335.604004
CHARGE=1+
MSLEVEL=2
SMILES=CCCCCCCCCCCCC[C@@H]1[C@@H](C(=O)O)[C@H](C)C(=O)O1
INCHI=InChI=1S/C19H34O4/c1-3-4-5-6-7-8-9-10-11-12-13-14-16-17(18(20)21)15(2)19(22)23-16/h15-17H,3-14H2,1-2H3,(H,20,21)/t15-,16+,17-/m0/s1
INCHIKEY=WLGALFYTFVOQPY-BBWFWOEESA-N
CLASS=Paraconic acids
ADDUCT=[M+H]+
INSTRUMENT=Thermo Q-Exactive Focus
PRECURSOR_MZ=327.2535
COMPOUND_NAME=Roccellaric acid
ION_MODE=positive
FORMULA=C19H34O4
67.054565 108405.90625 
69.070175 154101.140625 
81.069992 216542.390625 
83.08551 122813.898438 
95.08548 265999.5 
109.100822 122658.703125 
133.100433 89701.664062 
147.115799 78374.929688 
205.192337 28809.794922 
207.209351 77411.453125 
217.193985 52931.25 
245.224319 175046.703125 
263.234924 143806.84375 
273.218475 23566.132812 
281.246887 18796.5 
291.229706 121890.585938 
309.240295 80664.945312 
END IONS

BEGIN IONS
RTINSECONDS=203.740997
CHARGE=1+
MSLEVEL=2
SMILES=Cc1cc(=O)c2c(c(c(cc2o1)OC)C)O
INCHI=InChI=1S/C12H12O4/c1-6-4-8(13)11-10(16-6)5-9(15-3)7(2)12(11)14/h4-5,14H,1-3H3
INCHIKEY=RGTSAUBIQAKKLC-UHFFFAOYSA-N
CLASS=Chromanes and Chromones
ADDUCT=[M+H]+
INSTRUMENT=Thermo Q-Exactive Focus
PRECURSOR_MZ=221.0814
COMPOUND_NAME=Eugenitin
ION_MODE=positive
FORMULA=C12H12O4
91.96386 2133403.25 
151.039246 4152245.75 
177.055191 7607065.5 
189.055405 8234976.0 
END IONS

BEGIN IONS
RTINSECONDS=275.089996
CHARGE=1+
MSLEVEL=2
SMILES=Oc1cc(OC(=O)c2c(O)cc(OC)cc2CCC(=O)CC)cc(CCCCC)c1C(=O)O
INCHI=InChI=1S/C25H30O8/c1-4-6-7-8-15-12-19(14-20(27)22(15)24(29)30)33-25(31)23-16(9-10-17(26)5-2)11-18(32-3)13-21(23)28/h11-14,27-28H,4-10H2,1-3H3,(H,29,30)
INCHIKEY=UCYIOAVHQGSYLP-UHFFFAOYSA-N
CLASS=Depsides (Didepsides)
ADDUCT=[2M+NH4]+
INSTRUMENT=Thermo Q-Exactive Focus
PRECURSOR_MZ=934.4225
COMPOUND_NAME=Miriquidic acid
ION_MODE=positive
FORMULA=C25H30O8
68.063255 111563.328125 
72.657448 50538.148438 
96.000519 139837.28125 
105.985107 141346.25 
121.065254 220787.875 
131.085968 235090.75 
137.059967 295923.5625 
163.075592 392297.875 
163.111771 301604.5625 
176.083527 468386.03125 
179.07045 728879.5 
191.106903 29921962.0 
214.865585 63393.273438 
235.096786 43783792.0 
236.099731 48909.625 
286.915222 26311.054688 
287.809784 9340.242188 
293.844757 10189.486328 
296.229248 272999.15625 
342.882568 12913.422852 
369.147217 11444.944336 
388.449768 24353.964844 
390.531158 36129.894531 
441.019531 148000.75 
459.202484 37879.230469 
505.002014 64062.421875 
513.858032 70318.820312 
642.965698 12237.049805 
655.026245 9786.249023 
666.268433 45263.558594 
737.645264 12017.018555 
767.897949 66174.21875 
799.647522 37415.3125 
814.546814 149641.078125 
911.834656 23566.943359 
916.316467 192787.0 
954.624268 139436.765625 
END IONS

BEGIN IONS
RTINSECONDS=168.240997
CHARGE=1+
MSLEVEL=2
SMILES=O=C1c2c(C)cc(O)c(C=O)c2Oc2c(O1)c(c(c(c2C)C(=O)O)O)COC(=O)C
INCHI=InChI=1S/C20H16O10/c1-7-4-12(23)10(5-21)17-13(7)20(27)30-18-11(6-28-9(3)22)15(24)14(19(25)26)8(2)16(18)29-17/h4-5,23-24H,6H2,1-3H3,(H,25,26)
INCHIKEY=SKXNIRUDASOCCN-UHFFFAOYSA-N
CLASS=Depsidones
ADDUCT=[M+H]+
INSTRUMENT=Thermo Q-Exactive Focus
PRECURSOR_MZ=417.0822
COMPOUND_NAME=Physodalic acid
ION_MODE=positive
FORMULA=C20H16O10
59.543941 5920.783203 
63.214111 5712.244629 
65.370193 6064.791016 
82.65271 5864.616211 
85.761047 6422.317383 
99.615715 5866.987793 
131.049652 13211.007812 
167.034225 10199.699219 
201.05571 8529.324219 
204.005051 6506.677734 
217.735641 6245.93457 
219.028564 55270.195312 
247.023972 9752.966797 
257.044556 14831.873047 
285.039917 1116667.875 
301.036407 13929.970703 
303.05014 80646.015625 
313.071381 21332.851562 
339.050842 369595.5625 
357.061096 241165.703125 
357.105927 11615.833984 
367.044312 12980.991211 
399.070282 10105.170898 
END IONS

BEGIN IONS
RTINSECONDS=236.483002
CHARGE=1+
MSLEVEL=2
SMILES=COc1cc2c(c(=O)oc(CCCCC)c2)c(OC)c1
INCHI=InChI=1S/C16H20O4/c1-4-5-6-7-12-8-11-9-13(18-2)10-14(19-3)15(11)16(17)20-12/h8-10H,4-7H2,1-3H3
INCHIKEY=NKYAIPHVDQBFLF-UHFFFAOYSA-N
CLASS=Cleavage Products of Depsides and Depsidones
ADDUCT=[2M+Na]+
INSTRUMENT=Thermo Q-Exactive Focus
PRECURSOR_MZ=575.2621
COMPOUND_NAME="2,4-Di-O-methylolivetonide"
ION_MODE=positive
FORMULA=C16H20O4
69.235649 518214.46875 
299.125244 146874512.0 
317.136139 1643386.375 
END IONS

BEGIN IONS
RTINSECONDS=107.995003
CHARGE=1+
MSLEVEL=2
SMILES=Oc1cc2c(c3c1C(=O)OC3)c1c(O)cc(C)c(C(=O)O)c1o2
INCHI=InChI=1S/C16H10O7/c1-5-2-7(17)13-12-6-4-22-16(21)11(6)8(18)3-9(12)23-14(13)10(5)15(19)20/h2-3,17-18H,4H2,1H3,(H,19,20)
INCHIKEY=QZYZPZAPRHESDA-UHFFFAOYSA-N
CLASS=Dibenzofuranes
ADDUCT=[M+NH4]+
INSTRUMENT=Thermo Q-Exactive Focus
PRECURSOR_MZ=332.077
COMPOUND_NAME=Porphyrilic acid
ION_MODE=positive
FORMULA=C16H10O7
67.915726 5897.654785 
75.91465 4987.76709 
80.811935 5948.664062 
88.406837 4971.85498 
93.747566 5200.145508 
116.122833 5694.708984 
139.054596 5792.147461 
164.979584 5213.228516 
171.138596 5388.208008 
180.155563 5528.061523 
195.044998 7562.526367 
218.597412 4926.602539 
241.049942 9398.769531 
251.033997 10763.508789 
269.044525 163846.421875 
279.029144 7767.600586 
297.03949 662726.6875 
303.29599 5995.305176 
315.049896 1264972.625 
END IONS

BEGIN IONS
RTINSECONDS=361.985992
CHARGE=1+
MSLEVEL=2
SMILES=C[C@@]12CCCC([C@H]1CC[C@]13[C@H]2CC[C@H](C1)C(=C)C3)(C)C
INCHI=InChI=1S/C20H32/c1-14-12-20-11-8-16-18(2,3)9-5-10-19(16,4)17(20)7-6-15(14)13-20/h15-17H,1,5-13H2,2-4H3/t15-,16-,17+,19-,20-/m1/s1
INCHIKEY=ONVABDHFQKWOSV-HPUSYDDDSA-N
CLASS=Terpenoids : Diterpenes
ADDUCT=[M+H]+
INSTRUMENT=Thermo Q-Exactive Focus
PRECURSOR_MZ=273.2582
COMPOUND_NAME=Kaurane
ION_MODE=positive
FORMULA=C20H32
69.070801 8240.958008 
81.070587 29879.457031 
95.086044 32618.166016 
107.085945 18033.337891 
109.101646 29294.835938 
149.132584 25279.699219 
163.148102 29810.0625 
177.16391 8629.867188 
203.179764 5831.089355 
217.195389 8429.896484 
251.52243 2066.373047 
END IONS

BEGIN IONS
RTINSECONDS=110.188004
CHARGE=1+
MSLEVEL=2
SMILES=O=C1c2c(C)cc(O)c(C=O)c2Oc2c(O1)c(c(c1c2C(O)OC1=O)O)CO
INCHI=InChI=1S/C18H12O10/c1-5-2-8(21)6(3-19)13-9(5)16(23)27-14-7(4-20)12(22)10-11(15(14)26-13)18(25)28-17(10)24/h2-3,18,20-22,25H,4H2,1H3
INCHIKEY=QQTKVXCQLZIJPP-UHFFFAOYSA-N
CLASS=Depsidones
ADDUCT=[M+H]+
INSTRUMENT=Thermo Q-Exactive Focus
PRECURSOR_MZ=389.0509
COMPOUND_NAME=Salazinic acid
ION_MODE=positive
FORMULA=C18H12O10
58.589802 4604.592285 
60.058136 4923.202637 
91.964882 65390.269531 
99.008339 208402.03125 
119.013222 191019.09375 
179.033737 9627.084961 
185.05957 17594.712891 
213.054962 103472.828125 
215.034363 256760.234375 
229.049591 408499.65625 
241.049881 138700.109375 
243.028885 235125.4375 
297.039337 1028380.5 
299.019226 1128595.875 
299.055481 233958.171875 
325.034088 2000546.0 
339.050232 258662.1875 
343.044403 420929.5625 
353.029114 241462.15625 
357.060242 89931.695312 
371.039886 135407.8125 
END IONS

BEGIN IONS
RTINSECONDS=346.587006
CHARGE=1+
MSLEVEL=2
SMILES=CCCCCCCCCCCCC[C@H]1C(=C(C(=O)O1)C)C(=O)O
INCHI=InChI=1S/C19H32O4/c1-3-4-5-6-7-8-9-10-11-12-13-14-16-17(18(20)21)15(2)19(22)23-16/h16H,3-14H2,1-2H3,(H,20,21)/t16-/m0/s1
INCHIKEY=SLQVVNFTCYVCPB-INIZCTEOSA-N
CLASS=Paraconic acids
ADDUCT=[M+NH4]+
INSTRUMENT=Thermo Q-Exactive Focus
PRECURSOR_MZ=342.2644
COMPOUND_NAME=Lichesterinic acid
ION_MODE=positive
FORMULA=C19H32O4
57.070824 12887.303711 
69.070816 19110.859375 
83.08844 18769.644531 
93.070587 11622.007812 
95.086136 12775.086914 
97.101929 15316.102539 
135.11734 10604.140625 
141.054886 10399.633789 
149.132629 6932.919434 
167.07019 7138.931152 
177.091888 6562.581543 
222.928818 5699.813965 
233.227142 13695.254883 
261.222717 7116.426758 
279.232452 5764.093262 
289.215729 10557.40625 
307.227661 11457.761719 
325.23764 91545.0625 
END IONS

BEGIN IONS
RTINSECONDS=413.644012
CHARGE=1+
MSLEVEL=2
SMILES=CC1(C)C2[C@@](CCC1)(C)[C@H]1CC[C@@H]3[C@@]4(C)CC[C@H](C(C)(O)C)[C@@H]4CC[C@@]3(C)[C@]1(C)CC2=O
INCHI=InChI=1S/C30H50O2/c1-25(2)14-9-15-28(6)23-11-10-22-27(5)16-12-19(26(3,4)32)20(27)13-17-29(22,7)30(23,8)18-21(31)24(25)28/h19-20,22-24,32H,9-18H2,1-8H3/t19-,20-,22+,23+,24?,27-,28+,29+,30+/m0/s1
INCHIKEY=MAVUFYZBQWGXHD-GZTHSXTLSA-N
CLASS=Terpenoids : Triterpenes
ADDUCT=[M+H]+
INSTRUMENT=Thermo Q-Exactive Focus
PRECURSOR_MZ=443.3889
COMPOUND_NAME=22-hydroxy-6-hopanone
ION_MODE=positive
FORMULA=C30H50O2
59.050087 639108.1875 
81.070663 611516.9375 
95.086189 992507.8125 
107.086021 678623.625 
109.101677 1005671.6875 
121.101471 780135.6875 
147.11705 571387.8125 
149.132828 654339.6875 
191.179489 619890.4375 
203.179611 963348.0625 
217.195526 423861.5 
221.190582 302012.40625 
367.336487 116083.414062 
407.367706 149151.5 
425.377472 266967.21875 
END IONS

BEGIN IONS
RTINSECONDS=97.5569
CHARGE=1+
MSLEVEL=2
SMILES=CC(=O)c1c(O)cc(O)cc1O
INCHI=InChI=1S/C8H8O4/c1-4(9)8-6(11)2-5(10)3-7(8)12/h2-3,10-12H,1H3
INCHIKEY=XLEYFDVVXLMULC-UHFFFAOYSA-N
CLASS=Cleavage Products of Depsides and Depsidones
ADDUCT=[M+H]+
INSTRUMENT=Thermo Q-Exactive Focus
PRECURSOR_MZ=169.0501
COMPOUND_NAME="2,4,6-Trihydroxyacetophenone"
ION_MODE=positive
FORMULA=C8H8O4
52.764278 125268.375 
53.255077 129376.21875 
67.018822 256763.53125 
67.055473 259880.609375 
68.998161 177913.6875 
95.050018 318876.9375 
120.946053 154666.953125 
123.044548 3199794.5 
127.039421 1722981.5 
151.039398 8016111.5 
END IONS

BEGIN IONS
RTINSECONDS=233.692993
CHARGE=1+
MSLEVEL=2
SMILES=CC(=O)CCCCCCCCCCCCC[C@H]1[C@H](C(C)C(=O)O1)C(=O)O
INCHI=InChI=1S/C21H36O5/c1-16(22)14-12-10-8-6-4-3-5-7-9-11-13-15-18-19(20(23)24)17(2)21(25)26-18/h17-19H,3-15H2,1-2H3,(H,23,24)/t17?,18-,19-/m0/s1
INCHIKEY=SPGPUDJMXMJNCU-MNNMKWMVSA-N
CLASS=Paraconic acids
ADDUCT=[M+NH4]+
INSTRUMENT=Thermo Q-Exactive Focus
PRECURSOR_MZ=386.2906
COMPOUND_NAME=Dihydropertusaric
ION_MODE=positive
FORMULA=C21H36O5
67.05481 18651584.0 
81.070244 38691884.0 
95.085648 54812928.0 
109.101135 33391536.0 
121.100868 15251012.0 
123.116478 15812030.0 
135.116318 12583952.0 
177.162827 4105680.75 
236.839355 2407312.5 
247.571884 2583977.75 
259.242676 2185994.75 
277.250732 13236025.0 
287.235474 10589686.0 
305.246185 27100594.0 
315.230652 3579271.25 
333.240692 10950269.0 
351.25119 13452637.0 
369.26181 63120020.0 
END IONS

BEGIN IONS
RTINSECONDS=157.334
CHARGE=1+
MSLEVEL=2
SMILES=Cc1c(c(c2c(c1)C(=O)c1cc(cc(c1C2=O)O)O)O)C(=O)O
INCHI=InChI=1S/C16H10O7/c1-5-2-7-12(14(20)10(5)16(22)23)15(21)11-8(13(7)19)3-6(17)4-9(11)18/h2-4,17-18,20H,1H3,(H,22,23)
INCHIKEY=UZOHDKGTYVTYDZ-UHFFFAOYSA-N
CLASS=Quinones
ADDUCT=[M+H+CH3CN]+
INSTRUMENT=Thermo Q-Exactive Focus
PRECURSOR_MZ=356.077
COMPOUND_NAME=Endocrocin
ION_MODE=positive
FORMULA=C16H10O7
50.330467 6658.793457 
59.313557 7234.362793 
87.549545 8228.146484 
91.054924 9681.358398 
110.651962 8835.305664 
112.966019 8028.330566 
119.34127 7803.774414 
175.918777 5156.322266 
184.569336 8360.520508 
205.073578 8371.180664 
209.060837 8036.742188 
230.430969 9825.386719 
237.054062 9365.895508 
244.943558 8652.083984 
265.049805 63726.640625 
283.061096 7522.688965 
293.044983 14573.686523 
321.039368 591343.1875 
339.049927 1382300.625 
END IONS

BEGIN IONS
RTINSECONDS=133.477997
CHARGE=1+
MSLEVEL=2
SMILES=O=C1c2c(c3c(cc(O)c(O)c3)o2)C(=O)c2c1c1c(o2)cc(c(c1)O)O
INCHI=InChI=1S/C18H8O8/c19-7-1-5-11(3-9(7)21)25-17-13(5)15(23)18-14(16(17)24)6-2-8(20)10(22)4-12(6)26-18/h1-4,19-22H
INCHIKEY=PDICCECAPKBDBB-UHFFFAOYSA-N
CLASS=Quinones
ADDUCT=[2M+NH4]+
INSTRUMENT=Thermo Q-Exactive Focus
PRECURSOR_MZ=722.0782
COMPOUND_NAME=Thelephoric acid
ION_MODE=positive
FORMULA=C18H8O8
51.643906 8479.212891 
53.89819 7473.783203 
56.354099 7531.585449 
57.359192 8817.010742 
57.671677 7695.445312 
114.032005 8449.800781 
119.223198 8179.925781 
135.538864 8595.954102 
139.581818 8940.236328 
153.785797 8541.345703 
158.528015 9019.051758 
179.820084 8927.138672 
202.858551 8239.891602 
213.540009 7746.087402 
269.044525 8789.244141 
277.750702 7168.288574 
279.029022 13838.155273 
297.039307 19699.931641 
307.023926 11354.625977 
325.033875 201959.5625 
335.017578 5436.878418 
345.969635 7286.475098 
353.028778 580297.75 
378.798065 3240.112305 
405.576111 9917.006836 
436.134155 3552.000488 
446.768524 9477.567383 
516.67395 7719.037598 
567.314758 9194.304688 
595.389221 8394.290039 
604.407959 8314.804688 
630.40509 9891.049805 
656.896545 8923.251953 
END IONS

BEGIN IONS
RTINSECONDS=260.98999
CHARGE=1+
MSLEVEL=2
SMILES=O=C1c2c(CC(=O)CCCCC)cc(O)cc2Oc2c(O1)cc(c(c2CCCCC)C(=O)O)O
INCHI=InChI=1S/C26H30O8/c1-3-5-7-9-16(27)11-15-12-17(28)13-20-22(15)26(32)34-21-14-19(29)23(25(30)31)18(24(21)33-20)10-8-6-4-2/h12-14,28-29H,3-11H2,1-2H3,(H,30,31)
INCHIKEY=KVTYWHGIZSCFLG-UHFFFAOYSA-N
CLASS=Depsidones
ADDUCT=[M+Na+CH3CN]+
INSTRUMENT=Thermo Q-Exactive Focus
PRECURSOR_MZ=534.2104
COMPOUND_NAME=Physodic acid
ION_MODE=positive
FORMULA=C26H30O8
94.756401 6715.782715 
99.224106 6826.672852 
113.89579 6626.779785 
116.300728 6780.33252 
136.25322 6823.921875 
153.74707 6601.481445 
202.824799 6816.702637 
205.64003 6258.28125 
206.084717 7403.837891 
224.459793 6092.84082 
301.282349 6074.584961 
305.194458 5697.730957 
354.422333 2573.637207 
380.108856 3377.288818 
407.184418 10314.320312 
413.621979 7909.28418 
413.672546 7777.070312 
417.697632 7227.925293 
449.194519 443020.5 
471.981232 6804.109375 
475.174072 55826.398438 
493.184479 596162.3125 
493.250031 11069.224609 
END IONS

BEGIN IONS
RTINSECONDS=196.212006
CHARGE=1+
MSLEVEL=2
SMILES=O=C(O)c1c(CCC)c(Cl)c(OC)cc1O
INCHI=InChI=1S/C11H13ClO4/c1-3-4-6-9(11(14)15)7(13)5-8(16-2)10(6)12/h5,13H,3-4H2,1-2H3,(H,14,15)
INCHIKEY=JRBWSDAHJPBRDM-UHFFFAOYSA-N
CLASS=Cleavage Products of Depsides and Depsidones
ADDUCT=[M+H]+
INSTRUMENT=Thermo Q-Exactive Focus
PRECURSOR_MZ=245.0581
COMPOUND_NAME=5-Chlorodivaricatinic acid
ION_MODE=positive
FORMULA=C11H13ClO4
52.886665 15044.09668 
58.569515 15527.717773 
76.258446 17976.515625 
81.852242 15375.068359 
97.362457 15799.499023 
101.804901 17362.113281 
145.065292 46836.273438 
174.067947 369946.84375 
177.054993 114376.640625 
191.070557 83107.367188 
192.078445 548596.375 
209.036667 216351.515625 
227.047302 2623354.5 
END IONS

BEGIN IONS
RTINSECONDS=105.608002
CHARGE=1+
MSLEVEL=2
SMILES=Cc1cc(=O)c2c(c(c(cc2o1)OC)COC(=O)/C=C(\C)/CC(=O)O)O
INCHI=InChI=1S/C18H18O8/c1-9(4-15(20)21)5-16(22)25-8-11-13(24-3)7-14-17(18(11)23)12(19)6-10(2)26-14/h5-7,23H,4,8H2,1-3H3,(H,20,21)/b9-5+
INCHIKEY=JSLBEJMNMZJONS-WEVVVXLNSA-N
CLASS=Chromanes and Chromones
ADDUCT=[M+H]+
INSTRUMENT=Thermo Q-Exactive Focus
PRECURSOR_MZ=363.108
COMPOUND_NAME=Lepraric acid
ION_MODE=positive
FORMULA=C18H18O8
55.43454 5689.330078 
67.793053 6161.317383 
81.034149 5804.697754 
84.024605 6681.55127 
114.989601 6453.027832 
121.028496 66137.492188 
133.064926 7090.790527 
146.54274 6479.430176 
161.059418 38455.359375 
185.702698 6553.640137 
189.054398 420576.84375 
204.041595 7916.266113 
219.064972 1608002.875 
241.04689 168049.625 
259.616333 6549.947266 
289.590057 7171.29248 
303.350006 5660.716309 
327.100739 6560.532715 
END IONS

BEGIN IONS
RTINSECONDS=122.359001
CHARGE=1+
MSLEVEL=2
SMILES=O=C1c2c(C)cc(O)cc2Oc2c(O1)cc1c(c2O)C(=O)OC1
INCHI=InChI=1S/C16H10O7/c1-6-2-8(17)4-9-11(6)16(20)23-10-3-7-5-21-15(19)12(7)13(18)14(10)22-9/h2-4,17-18H,5H2,1H3
INCHIKEY=LPUOVEFMUOQBFV-UHFFFAOYSA-N
CLASS=Depsidones
ADDUCT=[M+H+CH3OH]+
INSTRUMENT=Thermo Q-Exactive Focus
PRECURSOR_MZ=347.0767
COMPOUND_NAME=Variolaric acid
ION_MODE=positive
FORMULA=C16H10O7
50.481899 26994.708984 
55.018711 37535.417969 
56.596363 30669.486328 
64.346718 34953.925781 
83.013237 303246.0 
97.020866 7393.646973 
131.990829 6002.524902 
146.692581 7233.816895 
151.002472 36197.125 
169.012939 345412.78125 
191.033188 187423.1875 
201.055283 131920.671875 
213.054214 71450.429688 
241.048889 328771.78125 
269.043518 277018.53125 
271.059296 2328233.75 
285.038818 100412.28125 
297.038605 665666.875 
315.04892 2968699.25 
END IONS

BEGIN IONS
RTINSECONDS=259.928986
CHARGE=1+
MSLEVEL=2
SMILES=O=C1c2c(CC(=O)CCCCC)cc(OC)c(O)c2Oc2c(O1)cc(c(c2CCCCC)C(=O)O)O
INCHI=InChI=1S/C27H32O9/c1-4-6-8-10-16(28)12-15-13-19(34-3)23(30)25-21(15)27(33)35-20-14-18(29)22(26(31)32)17(24(20)36-25)11-9-7-5-2/h13-14,29-30H,4-12H2,1-3H3,(H,31,32)
INCHIKEY=YFNNJORBJZUGCV-UHFFFAOYSA-N
CLASS=Depsidones
ADDUCT=[2M+Na]+
INSTRUMENT=Thermo Q-Exactive Focus
PRECURSOR_MZ=1023.399
COMPOUND_NAME=Lividic acid
ION_MODE=positive
FORMULA=C27H32O9
75.662788 51741.101562 
91.962875 89868.734375 
106.417686 57349.890625 
127.625206 63360.382812 
143.76413 60503.902344 
145.950653 74376.320312 
167.303131 62105.011719 
203.846802 60469.125 
224.429352 68922.164062 
229.083405 66750.945312 
239.224609 50889.851562 
245.979553 46163.65625 
285.697906 69078.210938 
299.08786 218304.515625 
300.096863 167228.109375 
311.790375 40790.363281 
366.108582 127690.523438 
377.704651 56759.328125 
437.192871 239578.875 
440.535858 68823.273438 
449.120819 100365.734375 
449.191132 83362.21875 
461.193115 160011.828125 
479.20343 8788681.0 
504.218719 59275.007812 
505.182251 1684293.375 
523.193176 12371060.0 
530.881531 49913.039062 
534.183594 65560.148438 
555.935242 26523.945312 
564.223022 44772.894531 
576.136108 12108.545898 
682.325867 67399.460938 
852.128296 51178.085938 
965.997314 63606.636719 
1040.055542 57972.554688 
END IONS

BEGIN IONS
RTINSECONDS=259.095001
CHARGE=1+
MSLEVEL=2
SMILES=O=C1Oc2c(c(CC(=O)CCCCC)c(C(=O)O)c(O)c2)Oc2c1c(cc(c2)O)CC(=O)CCCCC
INCHI=InChI=1S/C28H32O9/c1-3-5-7-9-17(29)11-16-12-19(31)14-22-24(16)28(35)37-23-15-21(32)25(27(33)34)20(26(23)36-22)13-18(30)10-8-6-4-2/h12,14-15,31-32H,3-11,13H2,1-2H3,(H,33,34)
INCHIKEY=ZDIOCINAHISORH-UHFFFAOYSA-N
CLASS=Depsidones
ADDUCT=[M+H+CH3OH]+
INSTRUMENT=Thermo Q-Exactive Focus
PRECURSOR_MZ=545.2387
COMPOUND_NAME=Alpha-Alectoronic acid
ION_MODE=positive
FORMULA=C28H32O9
58.790588 12793.595703 
68.260193 13575.594727 
71.086525 277028.59375 
85.140663 16485.701172 
98.061188 14657.920898 
99.080917 146838.3125 
126.451408 15748.416992 
163.037842 7772.995605 
176.580215 7073.944336 
205.050034 15832.867188 
213.781052 7446.291504 
240.527466 15170.183594 
271.061523 42734.433594 
273.075867 16620.269531 
281.044586 44989.265625 
297.040558 48772.953125 
299.054718 142015.40625 
301.14444 34753.277344 
355.116455 68700.359375 
369.13324 96850.148438 
371.148865 95211.1875 
379.117645 131416.34375 
397.12793 622382.0 
415.137909 86483.335938 
451.212708 57823.632812 
453.190857 104115.320312 
469.223694 34503.75 
495.201935 252001.546875 
510.215363 10386.469727 
510.511169 15202.546875 
513.210083 156422.609375 
END IONS

BEGIN IONS
RTINSECONDS=134.815002
CHARGE=1+
MSLEVEL=2
SMILES=OC1=C(OC)C(=O)c2c(O)c3oc(C(=O)C)c(O)c3c(O)c2C1=O
INCHI=InChI=1S/C15H10O9/c1-3(16)13-11(21)6-7(17)4-5(9(19)14(6)24-13)10(20)15(23-2)12(22)8(4)18/h17,19,21-22H,1-2H3
INCHIKEY=ILUWXELFYCLFHQ-UHFFFAOYSA-N
CLASS=Quinones
ADDUCT=[M+H]+
INSTRUMENT=Thermo Q-Exactive Focus
PRECURSOR_MZ=335.0403
COMPOUND_NAME=Chiodectonic acid
ION_MODE=positive
FORMULA=C15H10O9
50.037022 4503.941895 
50.520023 9918.385742 
60.540886 4115.280273 
81.025002 4539.545898 
84.553131 4771.018066 
92.664719 4763.088379 
111.446053 10211.102539 
137.826782 13248.963867 
149.303741 10441.196289 
177.601517 10221.017578 
190.026337 18170.552734 
208.036209 14293.512695 
243.02858 24215.761719 
261.039154 70735.921875 
271.023773 26466.359375 
289.03418 47738.058594 
292.021118 392717.84375 
317.028992 155695.46875 
END IONS

BEGIN IONS
RTINSECONDS=333.156006
CHARGE=1+
MSLEVEL=2
SMILES=CC[C@@H](C)C[C@@H](C)[C@@H]([C@H](C)C(=O)O[C@@H]([C@H](C)C[C@H](C)CC)[C@H](C)C(=O)O)O
INCHI=InChI=1S/C22H42O5/c1-9-13(3)11-15(5)19(23)17(7)22(26)27-20(18(8)21(24)25)16(6)12-14(4)10-2/h13-20,23H,9-12H2,1-8H3,(H,24,25)/t13-,14-,15-,16-,17+,18+,19+,20+/m1/s1
INCHIKEY=ZQEUMOKDJCSNHB-IHRHECOVSA-N
CLASS=Acids
ADDUCT=[2M+H]+
INSTRUMENT=Thermo Q-Exactive Focus
PRECURSOR_MZ=773.6143
COMPOUND_NAME=Bourgeanic acid
ION_MODE=positive
FORMULA=C22H42O5
57.070736 142653.65625 
69.070641 459032.625 
83.086052 890190.25 
95.08606 489737.84375 
111.08062 872401.875 
111.117111 378982.59375 
149.132782 575505.75 
167.142731 2290759.5 
185.153275 2334818.75 
203.164062 183627.203125 
218.020355 29186.457031 
246.804718 25976.636719 
277.599213 10666.644531 
294.77832 8678.392578 
300.391785 8739.329102 
303.346375 8478.457031 
369.301086 54337.554688 
387.308167 49890.734375 
443.973389 9940.438477 
446.33316 8791.631836 
447.344177 24937.876953 
520.241211 9217.373047 
526.619019 23456.744141 
635.499573 9197.660156 
END IONS

BEGIN IONS
RTINSECONDS=262.011993
CHARGE=1+
MSLEVEL=2
SMILES=Cc1cc(c(c(c1C(=O)O)O)C)OC(=O)c1c(c(c(cc1C)OC)C)OC
INCHI=InChI=1S/C20H22O7/c1-9-8-14(11(3)17(21)15(9)19(22)23)27-20(24)16-10(2)7-13(25-5)12(4)18(16)26-6/h7-8,21H,1-6H3,(H,22,23)
INCHIKEY=MIJKZXWOOXIEEU-UHFFFAOYSA-N
CLASS=Depsides (Didepsides)
ADDUCT=[M+Na+CH3CN]+
INSTRUMENT=Thermo Q-Exactive Focus
PRECURSOR_MZ=438.1529
COMPOUND_NAME=Diffractaic acid
ION_MODE=positive
FORMULA=C20H22O7
66.741058 24574.841797 
87.506371 14891.650391 
91.970383 24697.886719 
96.146492 14258.946289 
102.511894 14586.09668 
118.915649 22010.291016 
151.143982 23839.832031 
166.214584 24965.857422 
187.036652 58171.863281 
192.996292 13982.345703 
193.085938 851742.75 
270.87323 10612.467773 
305.43161 2898.181396 
335.401215 11229.851562 
351.063416 27698.771484 
361.190979 12221.332031 
379.115173 380963.53125 
397.12558 2228531.0 
415.134949 40926.652344 
420.892639 10905.476562 
END IONS

BEGIN IONS
RTINSECONDS=262.005005
CHARGE=1+
MSLEVEL=2
SMILES=Oc1c(C(=O)Oc2c(OC)cc(c(C(=O)O)c2O)CCC)c(CCC)cc(OC)c1
INCHI=InChI=1S/C22H26O8/c1-5-7-12-9-14(28-3)11-15(23)17(12)22(27)30-20-16(29-4)10-13(8-6-2)18(19(20)24)21(25)26/h9-11,23-24H,5-8H2,1-4H3,(H,25,26)
INCHIKEY=CPHXGYQLOSNELY-UHFFFAOYSA-N
CLASS=Depsides (Didepsides)
ADDUCT=[M+Na]+
INSTRUMENT=Thermo Q-Exactive Focus
PRECURSOR_MZ=441.1525
COMPOUND_NAME=Sekikaic acid
ION_MODE=positive
FORMULA=C22H26O8
85.041199 84941.078125 
87.781242 88010.8125 
91.970253 32820.695312 
215.067947 4741062.5 
231.062866 3323035.75 
249.073639 1599241.25 
423.143555 208790.234375 
END IONS

BEGIN IONS
RTINSECONDS=293.572998
CHARGE=1+
MSLEVEL=2
SMILES=O=C1c2c(C)c(Cl)c(OC)cc2Oc2c(O1)c(c(c(c2C)Cl)OC)Cl
INCHI=InChI=1S/C17H13Cl3O5/c1-6-10-8(5-9(22-3)11(6)18)24-14-7(2)12(19)15(23-4)13(20)16(14)25-17(10)21/h5H,1-4H3
INCHIKEY=HEZSUFJPGFDKIG-UHFFFAOYSA-N
CLASS=Depsidones
ADDUCT=[M+H]+
INSTRUMENT=Thermo Q-Exactive Focus
PRECURSOR_MZ=402.9907
COMPOUND_NAME=3-Dechloro-4-O-methyldiploicin
ION_MODE=positive
FORMULA=C17H13Cl3O5
50.490067 5633.827637 
52.967693 5550.642578 
54.431103 5292.87793 
74.142662 6639.397949 
113.015442 7438.054199 
129.017975 11704.647461 
142.01796 13742.152344 
143.891678 6436.673828 
169.005112 64891.367188 
176.986008 54386.015625 
198.008667 6593.058594 
204.982117 9093.239258 
247.052902 22435.96875 
276.054352 29543.673828 
296.001007 26276.458984 
309.009735 17288.560547 
311.02417 50142.53125 
324.031616 22327.041016 
339.018799 41272.519531 
367.013733 28372.357422 
371.026245 15911.682617 
END IONS

BEGIN IONS
RTINSECONDS=188.992004
CHARGE=1+
MSLEVEL=2
SMILES=O=C1O/C(=C(/C(=O)N[C@H](C(=O)O)Cc2ccccc2)\c2ccccc2)/C(=C1c1ccccc1)O
INCHI=InChI=1S/C27H21NO6/c29-23-21(18-12-6-2-7-13-18)27(33)34-24(23)22(19-14-8-3-9-15-19)25(30)28-20(26(31)32)16-17-10-4-1-5-11-17/h1-15,20,29H,16H2,(H,28,30)(H,31,32)/b24-22+/t20-/m0/s1
INCHIKEY=XTLHEUFWRQKNNG-YVURAWIMSA-N
CLASS=Pulvinic Acid Derivatives
ADDUCT=[M+Na]+
INSTRUMENT=Thermo Q-Exactive Focus
PRECURSOR_MZ=478.1267
COMPOUND_NAME=Norrhizocarpic acid
ION_MODE=positive
FORMULA=C27H21NO6
91.968376 44383.878906 
142.063293 29631.714844 
188.069107 93038.203125 
287.068939 217071.796875 
331.058899 100367.78125 
END IONS

BEGIN IONS
RTINSECONDS=121.279999
CHARGE=1+
MSLEVEL=2
SMILES=Cc1cc(=O)c2c(cc3c(C(=CC(=O)C3=O)OC)c2OC)o1
INCHI=InChI=1S/C16H12O6/c1-7-4-9(17)14-12(22-7)5-8-13(16(14)21-3)11(20-2)6-10(18)15(8)19/h4-6H,1-3H3
INCHIKEY=GESAVORGYOGKOW-UHFFFAOYSA-N
CLASS=Quinones
ADDUCT=[M+H]+
INSTRUMENT=Thermo Q-Exactive Focus
PRECURSOR_MZ=301.0712
COMPOUND_NAME=Canarione dimethylether
ION_MODE=positive
FORMULA=C16H12O6
214.06163 8778050.0 
229.048492 39817628.0 
242.056839 11493160.0 
243.064545 14201407.0 
258.0513 31308502.0 
273.074799 91714032.0 
END IONS

BEGIN IONS
RTINSECONDS=371.28299
CHARGE=1+
MSLEVEL=2
SMILES=CC1(C)C2CC[C@@]3(C)C(CCC4C3(C)CCC3C(=O)C(CCC43C)(C)C)C2(C)CC(OC(=O)C)C1=O
INCHI=InChI=1S/C32H50O4/c1-19(33)36-21-18-30(7)22(28(4,5)26(21)35)13-15-32(9)24(30)11-10-23-29(6)17-16-27(2,3)25(34)20(29)12-14-31(23,32)8/h20-24H,10-18H2,1-9H3/t20?,21?,22?,23?,24?,29?,30?,31?,32-/m0/s1
INCHIKEY=GSRPBBFLBACVKY-AJWNXJQWSA-N
CLASS=Terpenoids : Triterpenes
ADDUCT=[M+NH4]+
INSTRUMENT=Thermo Q-Exactive Focus
PRECURSOR_MZ=516.4053
COMPOUND_NAME="2a-Acetoxy-3,22-stictandione"
ION_MODE=positive
FORMULA=C32H50O4
69.070724 540150.125 
95.086136 1870878.375 
107.086029 2312965.25 
109.101578 2216988.0 
125.096336 2347877.25 
133.101364 2854991.75 
159.116898 1846860.5 
175.148285 1426871.375 
187.148087 1733164.875 
201.163788 1887118.875 
215.179703 1439117.0 
219.174301 1269937.5 
313.25351 460079.1875 
315.268433 6168.960938 
421.346497 4984489.5 
439.357117 8974296.0 
499.377747 786899.25 
END IONS

BEGIN IONS
RTINSECONDS=191.460007
CHARGE=1+
MSLEVEL=2
SMILES=Oc1c(C(=O)Oc2cc(C)c(c(O)c2C)C(=O)O)c(C)cc(OC)c1C(=O)O
INCHI=InChI=1S/C19H18O9/c1-7-5-10(9(3)15(20)12(7)17(22)23)28-19(26)13-8(2)6-11(27-4)14(16(13)21)18(24)25/h5-6,20-21H,1-4H3,(H,22,23)(H,24,25)
INCHIKEY=WCWYEXBIRSSVGF-UHFFFAOYSA-N
CLASS=Depsides (Didepsides)
ADDUCT=[2M+Na]+
INSTRUMENT=Thermo Q-Exactive Focus
PRECURSOR_MZ=803.1799
COMPOUND_NAME=Squamatic acid
ION_MODE=positive
FORMULA=C19H18O9
58.995884 62172.289062 
71.666084 34666.761719 
74.18869 68666.679688 
80.685379 77047.820312 
80.974449 36221.648438 
105.479546 35533.171875 
135.832977 35063.125 
145.834137 35611.160156 
153.478073 30721.953125 
156.967194 35890.460938 
187.036026 787428.625 
209.043549 14069.797852 
219.385803 85791.351562 
231.025543 21698708.0 
238.891068 9853.820312 
288.950623 83333.40625 
322.572876 37609.34375 
377.061768 381287.28125 
395.071442 334605.28125 
413.08255 2293331.75 
414.680817 9114.145508 
427.361328 11317.550781 
465.617096 37468.078125 
504.249695 12958.077148 
573.491333 12270.100586 
639.346436 11237.511719 
677.357544 15370.624023 
709.378357 14416.867188 
831.535461 38124.253906 
END IONS

BEGIN IONS
RTINSECONDS=234.763
CHARGE=1+
MSLEVEL=2
SMILES=O=C1c2c(CC(=O)CCCCC)cc(O)c(O)c2Oc2c(O1)cc(c(c2CCCCC)C(=O)O)O
INCHI=InChI=1S/C26H30O9/c1-3-5-7-9-15(27)11-14-12-18(29)22(30)24-20(14)26(33)34-19-13-17(28)21(25(31)32)16(23(19)35-24)10-8-6-4-2/h12-13,28-30H,3-11H2,1-2H3,(H,31,32)
INCHIKEY=BQHHNAPTXQOPBW-UHFFFAOYSA-N
CLASS=Depsidones
ADDUCT=[M+Na+CH3CN]+
INSTRUMENT=Thermo Q-Exactive Focus
PRECURSOR_MZ=550.2053
COMPOUND_NAME=3-Hydroxyphysodic acid
ION_MODE=positive
FORMULA=C26H30O9
66.83802 6633.355957 
71.62207 6886.214355 
80.257698 7415.665527 
80.98481 6656.526855 
87.683517 6891.65918 
90.434875 7085.718262 
120.722061 7253.01416 
144.805374 6560.421875 
155.697403 6559.146973 
172.991577 6781.07373 
173.945648 7141.904297 
178.168304 6444.667969 
213.289795 6791.82959 
256.641357 6848.266113 
260.276917 6822.313965 
261.754181 6557.505371 
287.990509 6674.67334 
301.109039 6318.958008 
327.551147 7466.922363 
384.911774 6343.020996 
423.173645 7933.870117 
429.830902 6503.282227 
438.946777 8033.214844 
447.178589 11019.220703 
465.189362 391943.71875 
491.169342 58046.414062 
505.799469 6948.660156 
509.179352 564953.25 
END IONS

BEGIN IONS
RTINSECONDS=273.832001
CHARGE=1+
MSLEVEL=2
SMILES=Oc1cc(OC(=O)c2c(O)cc(OC)cc2CCC(=O)CC)cc(CCCCC)c1C(=O)O
INCHI=InChI=1S/C25H30O8/c1-4-6-7-8-15-12-19(14-20(27)22(15)24(29)30)33-25(31)23-16(9-10-17(26)5-2)11-18(32-3)13-21(23)28/h11-14,27-28H,4-10H2,1-3H3,(H,29,30)
INCHIKEY=UCYIOAVHQGSYLP-UHFFFAOYSA-N
CLASS=Depsides (Didepsides)
ADDUCT=[M+NH4]+
INSTRUMENT=Thermo Q-Exactive Focus
PRECURSOR_MZ=476.2284
COMPOUND_NAME=Miriquidic acid
ION_MODE=positive
FORMULA=C25H30O8
57.0345 10672677.0 
79.181572 285287.78125 
91.969833 1000195.0 
103.58416 489728.53125 
121.065292 1893540.125 
131.085953 1618172.875 
163.076157 2913041.0 
163.111801 2202475.25 
176.083939 2471759.75 
179.070908 4678087.0 
191.106903 137584208.0 
235.096786 139162912.0 
END IONS

BEGIN IONS
RTINSECONDS=255.949997
CHARGE=1+
MSLEVEL=2
SMILES=CCCCCC1=CC(=O)C=C(OC)C21C(=O)Oc1c2c(c(c(c1)O)C(=O)O)CCCCC
INCHI=InChI=1S/C25H30O7/c1-4-6-8-10-15-12-16(26)13-20(31-3)25(15)22-17(11-9-7-5-2)21(23(28)29)18(27)14-19(22)32-24(25)30/h12-14,27H,4-11H2,1-3H3,(H,28,29)
INCHIKEY=LOGCRVAWKCZXQM-UHFFFAOYSA-N
CLASS=Depsones
ADDUCT=[M+H]+
INSTRUMENT=Thermo Q-Exactive Focus
PRECURSOR_MZ=443.207
COMPOUND_NAME=Picrolichenic acid
ION_MODE=positive
FORMULA=C25H30O7
57.034012 802789.0 
60.229607 2248298.75 
69.070717 5184381.5 
91.054649 3553597.75 
91.970093 8138949.5 
131.085114 4085408.25 
151.075272 7759861.5 
159.080551 6973976.5 
163.075378 4653946.0 
221.117386 11107615.0 
227.069687 14514643.0 
229.086014 9769580.0 
241.085999 12040690.0 
253.049057 33879524.0 
255.064453 15891251.0 
283.132172 9519617.0 
309.11142 8429815.0 
310.119232 47489268.0 
311.127228 40601108.0 
329.137512 9209124.0 
366.181915 128406544.0 
381.2052 63084596.0 
384.192108 19145692.0 
399.216339 19715722.0 
425.194031 6448015.5 
END IONS

BEGIN IONS
RTINSECONDS=138.449997
CHARGE=1+
MSLEVEL=2
SMILES=O=C1c2c(C)cc(OC)c(C=O)c2Oc2c(O1)c(c(c1c2C(O)OC1=O)O)C
INCHI=InChI=1S/C19H14O9/c1-6-4-9(25-3)8(5-20)15-10(6)17(22)27-14-7(2)13(21)11-12(16(14)26-15)19(24)28-18(11)23/h4-5,19,21,24H,1-3H3
INCHIKEY=SKCUFZLDTAYNBZ-UHFFFAOYSA-N
CLASS=Depsidones
ADDUCT=[M+Na]+
INSTRUMENT=Thermo Q-Exactive Focus
PRECURSOR_MZ=409.0536
COMPOUND_NAME=Stictic acid
ION_MODE=positive
FORMULA=C19H14O9
58.357109 33222.992188 
67.463783 41913.929688 
81.00325 34707.113281 
91.969749 86554.164062 
111.016563 37349.75 
127.751656 34909.355469 
131.168045 35178.4375 
179.479721 32861.421875 
184.303329 34422.761719 
191.513489 41917.4375 
195.4599 39464.351562 
215.033997 23801.140625 
221.952209 34212.273438 
253.690186 5756.693359 
292.820221 33381.242188 
321.078583 44857.550781 
337.073151 67592.179688 
347.057495 82752.132812 
363.052765 75472.398438 
365.06781 107278.640625 
391.047852 64292.683594 
END IONS

BEGIN IONS
RTINSECONDS=314.244995
CHARGE=1+
MSLEVEL=2
SMILES=OC(=O)c1c(OC)cc(cc1CCCCC)OC(=O)c1c(CCCCC)cc(OC)cc1OC
INCHI=InChI=1S/C27H36O7/c1-6-8-10-12-18-15-21(17-22(32-4)24(18)26(28)29)34-27(30)25-19(13-11-9-7-2)14-20(31-3)16-23(25)33-5/h14-17H,6-13H2,1-5H3,(H,28,29)
INCHIKEY=FNJKTDQIJKLZGZ-UHFFFAOYSA-N
CLASS=Depsides (Didepsides)
ADDUCT=[M+Na]+
INSTRUMENT=Thermo Q-Exactive Focus
PRECURSOR_MZ=495.2359
COMPOUND_NAME=Planaic acid
ION_MODE=positive
FORMULA=C27H36O7
85.829079 55975.488281 
90.626244 55925.3125 
108.43959 56029.808594 
112.719742 57409.558594 
115.300148 58219.402344 
125.520241 56602.996094 
149.234848 54676.105469 
159.800293 39938.578125 
217.122543 11762.058594 
235.132431 1051830.75 
235.156418 14457.958984 
243.099472 177343.765625 
248.30069 6494.124512 
281.917603 9376.745117 
316.336945 66906.335938 
359.587433 37860.566406 
410.378876 11209.100586 
444.165344 50434.746094 
448.546112 11746.225586 
449.323639 11445.863281 
513.245117 361119.59375 
514.698059 7313.045898 
END IONS

BEGIN IONS
RTINSECONDS=190.018005
CHARGE=1+
MSLEVEL=2
SMILES=O=C1c2c(C)cc(O)c(C=O)c2Oc2c(O1)c(c(c(c2C)C(=O)O)O)C
INCHI=InChI=1S/C18H14O8/c1-6-4-10(20)9(5-19)16-11(6)18(24)26-15-8(3)13(21)12(17(22)23)7(2)14(15)25-16/h4-5,20-21H,1-3H3,(H,22,23)
INCHIKEY=FOKAHYDSEWGOHN-UHFFFAOYSA-N
CLASS=Depsidones
ADDUCT=[M+H]+
INSTRUMENT=Thermo Q-Exactive Focus
PRECURSOR_MZ=359.0767
COMPOUND_NAME=Virensic acid
ION_MODE=positive
FORMULA=C18H14O8
50.212048 2761.97876 
83.013809 467984.25 
91.967964 17077.449219 
131.049591 146881.6875 
173.06012 45859.390625 
179.033997 22529.375 
201.055145 236279.125 
203.070053 15226.90332 
231.065857 414441.5625 
257.045441 287846.59375 
259.060913 194264.78125 
285.039978 6873900.5 
303.05072 294635.3125 
313.071381 184124.78125 
341.066376 985595.5625 
END IONS

BEGIN IONS
RTINSECONDS=279.541992
CHARGE=1+
MSLEVEL=2
SMILES=O=C1c2c(CCCCC)cc(OC)c(O)c2Oc2c(O1)cc(c(c2CCCCC)C(=O)O)O
INCHI=InChI=1S/C25H30O8/c1-4-6-8-10-14-12-17(31-3)21(27)23-19(14)25(30)32-18-13-16(26)20(24(28)29)15(22(18)33-23)11-9-7-5-2/h12-13,26-27H,4-11H2,1-3H3,(H,28,29)
INCHIKEY=VZPSCITXDMDLDC-UHFFFAOYSA-N
CLASS=Depsidones
ADDUCT=[2M+NH4]+
INSTRUMENT=Thermo Q-Exactive Focus
PRECURSOR_MZ=934.4225
COMPOUND_NAME=3-Hydroxycolensoic acid
ION_MODE=positive
FORMULA=C25H30O8
64.743523 126596.96875 
66.950882 120702.101562 
69.613365 66817.3125 
78.291855 122113.953125 
81.898224 145468.09375 
91.969353 238433.203125 
133.064529 47745.023438 
151.039093 92957.476562 
163.074646 43811.539062 
165.05455 54385.675781 
193.048965 68489.804688 
207.102173 132334.484375 
221.117081 5553728.0 
233.081009 132819.84375 
237.112045 71597.3125 
287.054779 231559.015625 
289.143188 465135.9375 
343.117432 371734.46875 
345.133392 444320.0 
345.205566 332788.71875 
371.112091 2435439.25 
371.184265 354459.65625 
373.200073 653702.5625 
399.17981 12462104.0 
441.129822 223185.65625 
441.190491 3289999.25 
449.208893 151352.5625 
459.200775 15406903.0 
533.013855 84103.257812 
533.84967 59987.296875 
551.890625 11117.636719 
583.088684 10233.023438 
630.571411 12207.810547 
637.894287 34721.207031 
791.494141 5108.111328 
808.036682 148015.359375 
820.909119 226202.734375 
898.953125 14456.777344 
966.91748 40892.488281 
END IONS

BEGIN IONS
RTINSECONDS=334.204987
CHARGE=1+
MSLEVEL=2
SMILES=O=C(O)C[C@@H]([C@H](CCCCCCCCCCCCCC)C(=O)O)C(=O)OC
INCHI=InChI=1S/C21H38O6/c1-3-4-5-6-7-8-9-10-11-12-13-14-15-17(20(24)25)18(16-19(22)23)21(26)27-2/h17-18H,3-16H2,1-2H3,(H,22,23)(H,24,25)/t17-,18-/m0/s1
INCHIKEY=MZWQZYDNVSKPPF-ROUUACIJSA-N
CLASS=Acids
ADDUCT=[2M+NH4]+
INSTRUMENT=Thermo Q-Exactive Focus
PRECURSOR_MZ=790.5681
COMPOUND_NAME=Isorangiformic acid
ION_MODE=positive
FORMULA=C21H38O6
57.070744 146888.8125 
69.070747 198897.421875 
81.070625 194629.140625 
83.086273 176506.234375 
95.086151 149348.71875 
97.101669 231205.15625 
133.101257 167777.75 
147.117081 95085.273438 
161.132645 88973.9375 
165.091187 152116.734375 
179.10704 95673.757812 
193.12207 82350.46875 
245.226715 262053.71875 
255.211441 76825.585938 
263.237244 82115.304688 
273.221893 84193.117188 
291.231934 320009.0625 
301.216248 230742.59375 
309.242462 151059.0 
319.226776 215870.65625 
337.237427 184039.8125 
355.247833 624844.625 
369.263702 1445432.875 
387.273773 266533.84375 
404.298065 21843.621094 
447.346313 16340.543945 
482.410034 9501.500977 
505.412811 24160.03125 
587.680786 22466.808594 
604.670715 14283.646484 
651.542969 9310.967773 
764.390808 25534.521484 
END IONS

BEGIN IONS
RTINSECONDS=256.704987
CHARGE=1+
MSLEVEL=2
SMILES=O=C1Oc2c(c3C[C@@](O)(CCCCC)OC(=O)c3c(O)c2)Oc2c1c(cc(c2)OC)CC(=O)CCCCC
INCHI=InChI=1S/C29H34O9/c1-4-6-8-10-18(30)12-17-13-19(35-3)14-22-24(17)27(32)37-23-15-21(31)25-20(26(23)36-22)16-29(34,38-28(25)33)11-9-7-5-2/h13-15,31,34H,4-12,16H2,1-3H3/t29-/m1/s1
INCHIKEY=DQYWDDCXRXABIH-GDLZYMKVSA-N
CLASS=Depsidones
ADDUCT=[M+H]+
INSTRUMENT=Thermo Q-Exactive Focus
PRECURSOR_MZ=527.2281
COMPOUND_NAME=Alpha-collatolic acid
ION_MODE=positive
FORMULA=C29H34O9
54.394936 19076.5 
57.417019 20012.677734 
71.086487 377779.0 
84.805702 31237.435547 
92.898407 25217.324219 
99.081223 174825.3125 
113.280457 25054.839844 
123.044769 24886.0 
153.08345 22890.611328 
176.856125 23857.396484 
177.055008 36504.207031 
205.0737 39815.867188 
231.103729 27640.042969 
241.086075 27636.269531 
259.095276 31861.722656 
285.076324 69775.125 
295.06073 46375.738281 
298.04895 45158.285156 
311.055267 83488.726562 
313.070709 180330.15625 
315.160645 54889.773438 
368.127075 143078.78125 
369.134003 389393.1875 
383.149994 135940.703125 
393.133728 163367.5 
411.144318 533631.0 
429.155762 109153.171875 
439.139099 54804.75 
441.228668 65770.96875 
467.207336 1168001.0 
482.254456 51246.222656 
491.207794 101687.296875 
509.218414 972685.3125 
END IONS

BEGIN IONS
RTINSECONDS=142.815002
CHARGE=1+
MSLEVEL=2
SMILES=[C@@H]1(CC(=O)N2[C@H](C(=O)N[C@H](CC(=O)N3[C@@H](C(=O)N1)CCC3)c1ccccc1)CCC2)c1ccccc1
INCHI=InChI=1S/C28H32N4O4/c33-25-17-21(19-9-3-1-4-10-19)29-27(35)23-13-7-16-32(23)26(34)18-22(20-11-5-2-6-12-20)30-28(36)24-14-8-15-31(24)25/h1-6,9-12,21-24H,7-8,13-18H2,(H,29,35)(H,30,36)/t21-,22-,23-,24+/m1/s1
INCHIKEY=PDLPVRYEPINIBU-YCAMKHIRSA-N
CLASS=N-Containing Compounds
ADDUCT=[2M+NH4]+
INSTRUMENT=Thermo Q-Exactive Focus
PRECURSOR_MZ=994.5191
COMPOUND_NAME=Roccanin
ION_MODE=positive
FORMULA=C28H32N4O4
70.065674 5743771.5 
106.065376 4077774.25 
112.075996 2667549.5 
131.048935 21452228.0 
140.070236 5739434.5 
141.065582 1247562.5 
185.107147 1958194.875 
200.106491 13821624.0 
203.117264 2711440.75 
228.101288 19398470.0 
245.127884 8509966.0 
246.111618 1282411.125 
287.138458 429655.25 
333.159088 490845.0625 
339.177399 95449.28125 
341.196442 2455523.0 
350.185974 826164.6875 
375.169128 2478190.5 
384.189758 152945.484375 
392.195709 217743.40625 
429.224396 117392.609375 
433.550018 283096.53125 
447.236694 207749.21875 
471.235962 1356066.875 
489.248535 50562148.0 
535.213684 36308.921875 
556.649536 12825.849609 
669.032349 94641.070312 
698.727417 43506.625 
747.191223 12201.055664 
785.804626 11304.975586 
941.61792 98862.40625 
END IONS

BEGIN IONS
RTINSECONDS=213.841995
CHARGE=1+
MSLEVEL=2
SMILES=Oc1c(Oc2cc(OC)cc3c2C(=O)OC3(O)CCCC)c(CCCCC)c(c(c1)O)C(=O)O
INCHI=InChI=1S/C25H30O9/c1-4-6-8-9-15-20(23(28)29)17(26)13-18(27)22(15)33-19-12-14(32-3)11-16-21(19)24(30)34-25(16,31)10-7-5-2/h11-13,26-27,31H,4-10H2,1-3H3,(H,28,29)
INCHIKEY=BWRBGHBJBQFFAW-UHFFFAOYSA-N
CLASS=Diphenylethers
ADDUCT=[2M+NH4]+
INSTRUMENT=Thermo Q-Exactive Focus
PRECURSOR_MZ=966.4123
COMPOUND_NAME=Lobariolcarboxylic acid (Lobarin)
ION_MODE=positive
FORMULA=C25H30O9
67.663986 351810.96875 
72.957123 291491.375 
83.04966 356839.4375 
85.065353 2971367.75 
95.086067 633608.4375 
109.140541 305332.75 
137.023148 2141969.75 
157.506027 288349.21875 
177.090759 725791.125 
192.959915 334135.5 
193.085876 426202.53125 
209.941971 354243.84375 
235.096115 776868.75 
247.094986 422709.34375 
269.117065 968067.625 
287.127167 2468217.25 
343.119843 1941278.125 
343.189117 3590541.75 
356.124939 4520994.5 
357.132721 6710605.5 
371.184631 12968337.0 
395.18454 5353167.0 
397.163696 47675600.0 
413.194977 17528100.0 
439.17453 3904383.5 
457.184784 26731814.0 
475.195496 9931553.0 
548.415283 15364.515625 
552.940735 16879.847656 
607.081421 181270.4375 
641.665039 186639.984375 
650.264893 59189.835938 
758.849792 19078.697266 
770.40155 410017.59375 
779.773865 50525.789062 
787.922791 403554.15625 
848.427917 6088.734863 
850.036926 404268.75 
946.720093 57658.449219 
END IONS

BEGIN IONS
RTINSECONDS=298.484985
CHARGE=1+
MSLEVEL=2
SMILES=O=c1c2c(c(Cl)c(OC)c(Cl)c2OC)oc2c1c(cc(c2)OC)C
INCHI=InChI=1S/C17H14Cl2O5/c1-7-5-8(21-2)6-9-10(7)14(20)11-15(22-3)12(18)17(23-4)13(19)16(11)24-9/h5-6H,1-4H3
INCHIKEY=KAJRGHJEGIZHMO-UHFFFAOYSA-N
CLASS=Chromanes and Chromones
ADDUCT=[M+K]+
INSTRUMENT=Thermo Q-Exactive Focus
PRECURSOR_MZ=406.9855
COMPOUND_NAME="2,4-Dichlor-1,3,6-tri-O-methylnorlichexanthone"
ION_MODE=positive
FORMULA=C17H14Cl2O5
101.010582 198050.0 
292.029999 246760.09375 
312.983246 573371.25 
325.991516 793792.375 
326.998322 433232.4375 
327.988861 496219.375 
348.94165 2249853.5 
376.937592 438009.53125 
END IONS

BEGIN IONS
RTINSECONDS=403.70401
CHARGE=1+
MSLEVEL=2
SMILES=CC1(C)[C@@H](OC(=O)C)C[C@@H](OC(=O)C)[C@]2(C)[C@H]3CC[C@@H]4[C@@]5(C)CC[C@H](C(C)(O)C)[C@@H]5CC[C@@]4(C)[C@]3(C)CCC12
INCHI=InChI=1S/C34H56O5/c1-20(35)38-27-19-28(39-21(2)36)34(10)24(29(27,3)4)15-18-33(9)26(34)12-11-25-31(7)16-13-22(30(5,6)37)23(31)14-17-32(25,33)8/h22-28,37H,11-19H2,1-10H3/t22-,23-,24?,25+,26-,27-,28+,31-,32+,33+,34-/m0/s1
INCHIKEY=HIGXRAWIRQTPEC-GAGXLZTKSA-N
CLASS=Terpenoids : Triterpenes
ADDUCT=[2M+K]+
INSTRUMENT=Thermo Q-Exactive Focus
PRECURSOR_MZ=1127.7893
COMPOUND_NAME="1beta,3beta-diacetoxy-22-hopanol"
ION_MODE=positive
FORMULA=C34H56O5
79.500763 11877.525391 
80.64653 12286.588867 
91.966934 29660.087891 
103.164307 12966.47168 
140.341888 12880.099609 
143.576157 12891.302734 
153.026337 13262.777344 
153.232864 13501.774414 
199.437515 13933.25293 
210.915253 13624.683594 
220.983215 12138.419922 
242.041214 12412.705078 
263.075653 12285.231445 
272.134644 14850.333984 
279.683136 11947.820312 
294.228668 11635.523438 
304.41864 12215.311523 
325.878906 13796.448242 
347.628571 13170.735352 
362.682648 13502.038086 
370.8367 12770.947266 
382.341248 11235.018555 
427.944946 13054.061523 
448.984802 12618.003906 
463.578735 13139.101562 
481.55014 11960.197266 
552.641663 14393.841797 
568.405457 15186.915039 
569.401367 17817.666016 
581.419434 24287.912109 
582.415161 28604.548828 
583.377075 2393951.25 
668.284302 14327.469727 
782.614014 13996.482422 
896.695312 16623.171875 
937.792297 12778.291016 
1004.352844 14096.080078 
1023.684814 13619.65332 
END IONS

BEGIN IONS
RTINSECONDS=335.170013
CHARGE=1+
MSLEVEL=2
SMILES=CCCCCCCCCCCCC[C@@H]1OC(=O)C(=C)[C@@H]1C(=O)O
INCHI=InChI=1S/C19H32O4/c1-3-4-5-6-7-8-9-10-11-12-13-14-16-17(18(20)21)15(2)19(22)23-16/h16-17H,2-14H2,1H3,(H,20,21)/t16-,17-/m0/s1
INCHIKEY=WZYZDHVPSZCEEP-IRXDYDNUSA-N
CLASS=Paraconic acids
ADDUCT=[M+H+CH3CN]+
INSTRUMENT=Thermo Q-Exactive Focus
PRECURSOR_MZ=366.2644
COMPOUND_NAME=allo-Protolichesterinic acid
ION_MODE=positive
FORMULA=C19H32O4
67.055115 63895.089844 
69.070786 62829.023438 
81.070518 86682.703125 
93.070381 74571.4375 
95.085976 68731.0625 
121.101212 82602.796875 
135.116867 56379.5 
217.195312 11908.269531 
233.226395 55447.648438 
243.210724 41420.484375 
261.221191 52936.714844 
289.215973 69187.039062 
307.226257 107390.476562 
325.237488 87547.0 
END IONS

BEGIN IONS
RTINSECONDS=142.552994
CHARGE=1+
MSLEVEL=2
SMILES=[C@@H]1(CC(=O)N2[C@H](C(=O)N[C@H](CC(=O)N3[C@@H](C(=O)N1)CCC3)c1ccccc1)CCC2)c1ccccc1
INCHI=InChI=1S/C28H32N4O4/c33-25-17-21(19-9-3-1-4-10-19)29-27(35)23-13-7-16-32(23)26(34)18-22(20-11-5-2-6-12-20)30-28(36)24-14-8-15-31(24)25/h1-6,9-12,21-24H,7-8,13-18H2,(H,29,35)(H,30,36)/t21-,22-,23-,24+/m1/s1
INCHIKEY=PDLPVRYEPINIBU-YCAMKHIRSA-N
CLASS=N-Containing Compounds
ADDUCT=[2M+Na]+
INSTRUMENT=Thermo Q-Exactive Focus
PRECURSOR_MZ=999.4745
COMPOUND_NAME=Roccanin
ION_MODE=positive
FORMULA=C28H32N4O4
72.748009 65772.929688 
80.374222 78353.09375 
81.829605 74423.601562 
88.350616 84668.1875 
106.653984 89972.890625 
119.516052 75393.875 
124.620682 84376.554688 
161.06813 109231.703125 
189.821426 69937.945312 
190.105042 71636.460938 
249.099503 280790.3125 
250.082794 142522.015625 
267.109528 1875976.875 
267.135254 108008.25 
284.136658 276546.21875 
336.167572 129357.585938 
355.140778 531869.125 
361.048187 5183.880859 
363.178253 255361.390625 
379.174408 75964.5 
392.033142 57738.332031 
419.425507 79455.671875 
424.036621 64734.179688 
449.521881 88291.648438 
455.957703 96434.734375 
469.216736 70608.898438 
491.253448 58252.390625 
493.217072 179349.140625 
511.230499 36033028.0 
526.61499 6255.498047 
568.477051 51370.128906 
601.017822 16397.396484 
603.096863 81296.101562 
621.996338 20581.445312 
649.561096 91905.242188 
701.133606 17361.386719 
721.552612 60552.5 
723.634399 59314.199219 
762.085388 92752.140625 
788.105408 81029.90625 
788.668152 67276.976562 
791.259888 93153.882812 
911.262695 94098.8125 
927.113159 92415.273438 
961.522522 97096.953125 
1030.886475 83223.257812 
END IONS

BEGIN IONS
RTINSECONDS=277.041992
CHARGE=1+
MSLEVEL=2
SMILES=COc1cc(O)c2c(C(=O)c3c(C2=O)c(O)c(C(=O)CCCCC)c(O)c3)c1
INCHI=InChI=1S/C21H20O7/c1-3-4-5-6-13(22)18-15(24)9-12-17(21(18)27)20(26)16-11(19(12)25)7-10(28-2)8-14(16)23/h7-9,23-24,27H,3-6H2,1-2H3
INCHIKEY=MLTVHORGISIISB-UHFFFAOYSA-N
CLASS=Quinones
ADDUCT=[M+H]+
INSTRUMENT=Thermo Q-Exactive Focus
PRECURSOR_MZ=385.1287
COMPOUND_NAME=Solorinic acid
ION_MODE=positive
FORMULA=C21H20O7
55.055172 12502.439453 
66.35714 11824.163086 
78.065338 12074.770508 
79.055031 16275.392578 
81.070618 41596.234375 
103.161537 13511.259766 
133.599579 11184.958008 
157.023972 5752.271484 
180.78894 4579.799316 
201.95105 5480.400879 
215.579025 11886.575195 
224.568649 6530.352051 
235.309464 11837.064453 
271.060425 29265.287109 
299.055267 1131918.375 
311.055328 32165.542969 
313.07074 71810.507812 
325.070862 284854.96875 
367.118011 414393.5625 
367.164551 11350.483398 
406.321899 6818.734863 
END IONS

BEGIN IONS
RTINSECONDS=241.488998
CHARGE=1+
MSLEVEL=2
SMILES=Oc1c(C(=O)Oc2cc(O)c(C(=O)O)c(CC(=O)CCC)c2)c(CC(=O)CCC)cc(OC)c1
INCHI=InChI=1S/C25H28O9/c1-4-6-16(26)8-14-11-19(13-20(28)22(14)24(30)31)34-25(32)23-15(9-17(27)7-5-2)10-18(33-3)12-21(23)29/h10-13,28-29H,4-9H2,1-3H3,(H,30,31)
INCHIKEY=QZZMDINWSWWNKM-UHFFFAOYSA-N
CLASS=Depsides (Didepsides)
ADDUCT=[M+NH4]+
INSTRUMENT=Thermo Q-Exactive Focus
PRECURSOR_MZ=490.2077
COMPOUND_NAME=Glomellic acid
ION_MODE=positive
FORMULA=C25H28O9
51.83326 1629713.25 
91.970306 2200159.5 
96.018494 1995885.625 
137.059708 6025111.5 
163.075485 12759788.0 
179.033676 15555152.0 
189.091019 24661060.0 
207.101715 76289184.0 
221.081039 38974460.0 
235.096527 309333376.0 
END IONS

BEGIN IONS
RTINSECONDS=124.357002
CHARGE=1+
MSLEVEL=2
SMILES=O[C@H]1[C@H](O)[C@@H](O)[C@H](Oc2c(C)c3oc(C)cc(=O)c3c(O)c2C)O[C@@H]1COC(=O)C
INCHI=InChI=1S/C20H24O10/c1-7-5-11(22)13-14(23)8(2)18(9(3)19(13)28-7)30-20-17(26)16(25)15(24)12(29-20)6-27-10(4)21/h5,12,15-17,20,23-26H,6H2,1-4H3/t12-,15-,16+,17-,20+/m1/s1
INCHIKEY=NJRLDXGREKHXGV-IVABAYMNSA-N
CLASS=Chromanes and Chromones
ADDUCT=[2M+Na]+
INSTRUMENT=Thermo Q-Exactive Focus
PRECURSOR_MZ=871.2637
COMPOUND_NAME=Galapagin
ION_MODE=positive
FORMULA=C20H24O10
62.28241 37739.011719 
66.307938 32434.056641 
73.048409 31694.238281 
82.373276 15462.304688 
93.213837 38109.359375 
123.869446 14764.833984 
131.164261 15562.857422 
136.127808 14008.772461 
136.463776 36570.445312 
151.779099 14866.979492 
212.44577 9488.800781 
219.520065 39200.558594 
227.053421 130630.328125 
227.19812 40391.894531 
242.055374 10056.196289 
243.06282 784027.6875 
299.122223 4037.300537 
330.799377 10145.175781 
347.727234 4477.179199 
377.582855 14637.446289 
382.80191 37801.066406 
383.723846 12720.749023 
394.351166 3877.788574 
428.464569 15505.547852 
447.126404 6934810.5 
449.128235 14519.892578 
478.216675 15039.429688 
484.208466 4715.62207 
508.987335 3843.716064 
509.196655 10541.551758 
519.286011 10863.793945 
535.379272 41415.691406 
562.050964 9894.444336 
601.553101 42440.898438 
604.709717 4840.42041 
615.984558 3915.122559 
617.742737 38820.332031 
627.049988 4960.396484 
775.113525 19359.136719 
842.193604 15183.49707 
898.717407 15436.973633 
END IONS

BEGIN IONS
RTINSECONDS=314.191986
CHARGE=1+
MSLEVEL=2
SMILES=O=C1C(=C(O)/C(=C(/c2ccccc2)\C(=O)N[C@@H](Cc2ccccc2)C(=O)OC)/O1)c1ccccc1
INCHI=InChI=1S/C28H23NO6/c1-34-27(32)21(17-18-11-5-2-6-12-18)29-26(31)23(20-15-9-4-10-16-20)25-24(30)22(28(33)35-25)19-13-7-3-8-14-19/h2-16,21,30H,17H2,1H3,(H,29,31)/b25-23+/t21-/m0/s1
INCHIKEY=DKDGWAKCXBFTMM-KZKMBZSSSA-N
CLASS=Pulvinic Acid Derivatives
ADDUCT=[M+NH4]+
INSTRUMENT=Thermo Q-Exactive Focus
PRECURSOR_MZ=487.1869
COMPOUND_NAME=Rhizocarpic acid
ION_MODE=positive
FORMULA=C28H23NO6
91.970726 81442.15625 
105.033913 78754.054688 
112.92186 31636.974609 
120.0811 1805212.875 
121.065903 101353.609375 
163.075592 64773.40625 
179.085876 61361.800781 
180.102173 1015601.1875 
207.080688 626647.5 
217.065201 33112.863281 
235.075485 333377.8125 
263.070251 545403.6875 
291.065155 84109.0625 
303.452454 15216.171875 
326.216217 17644.466797 
327.845154 30502.791016 
332.560028 15092.851562 
367.043518 17166.375 
383.140228 15993.646484 
413.938141 6733.93457 
441.771759 26683.148438 
454.754639 17907.630859 
455.807495 25677.552734 
470.160217 423999.15625 
END IONS

BEGIN IONS
RTINSECONDS=305.433014
CHARGE=1+
MSLEVEL=2
SMILES=CCCCCCCCCCCC1[C@H](C(=O)O)C(C)C(=O)O1
INCHI=InChI=1S/C17H30O4/c1-3-4-5-6-7-8-9-10-11-12-14-15(16(18)19)13(2)17(20)21-14/h13-15H,3-12H2,1-2H3,(H,18,19)/t13?,14?,15-/m1/s1
INCHIKEY=PKXAQFKGSXYQJX-YMAMQOFZSA-N
CLASS=Paraconic acids
ADDUCT=[M+H+CH3CN]+
INSTRUMENT=Thermo Q-Exactive Focus
PRECURSOR_MZ=340.2488
COMPOUND_NAME=Nephrosteranic acid
ION_MODE=positive
FORMULA=C17H30O4
67.055099 80958.484375 
69.07077 105800.367188 
81.070648 160070.0625 
83.086174 72280.640625 
95.086075 157297.171875 
109.101494 93266.28125 
123.117096 54401.804688 
133.101059 66321.976562 
147.116806 51427.019531 
179.179337 78025.203125 
189.163773 51746.308594 
217.195694 120304.484375 
235.205627 164100.765625 
253.215836 54469.421875 
263.200439 88722.921875 
281.210999 119594.9375 
299.12677 9170.483398 
299.221619 53304.859375 
308.356018 5795.17041 
316.728241 5583.567871 
END IONS

BEGIN IONS
RTINSECONDS=266.897003
CHARGE=1+
MSLEVEL=2
SMILES=O=C(Oc1c(O)cc(CCCCC)c(C(=O)O)c1O)c1c(CCC)cc(OC)cc1OC
INCHI=InChI=1S/C24H30O8/c1-5-7-8-10-15-12-17(25)22(21(26)20(15)23(27)28)32-24(29)19-14(9-6-2)11-16(30-3)13-18(19)31-4/h11-13,25-26H,5-10H2,1-4H3,(H,27,28)
INCHIKEY=AAKHGLJWUOZNTQ-UHFFFAOYSA-N
CLASS=Depsides (Didepsides)
ADDUCT=[M+Na]+
INSTRUMENT=Thermo Q-Exactive Focus
PRECURSOR_MZ=469.1838
COMPOUND_NAME=Merochlorophaeic acid
ION_MODE=positive
FORMULA=C24H30O8
53.30621 111953.921875 
58.518066 28550.228516 
81.90226 27727.683594 
91.969337 204366.46875 
151.075638 197083.609375 
176.083099 177408.671875 
179.106796 247264.21875 
189.090942 406606.0625 
192.078323 366924.71875 
207.101746 15535389.0 
245.078278 288297.9375 
247.094513 159360.921875 
451.172913 5980985.0 
END IONS

BEGIN IONS
RTINSECONDS=259.492004
CHARGE=1+
MSLEVEL=2
SMILES=O=C1c2c(CC(=O)CCCCC)cc(OC)c(O)c2Oc2c(O1)cc(c(c2CCCCC)C(=O)O)O
INCHI=InChI=1S/C27H32O9/c1-4-6-8-10-16(28)12-15-13-19(34-3)23(30)25-21(15)27(33)35-20-14-18(29)22(26(31)32)17(24(20)36-25)11-9-7-5-2/h13-14,29-30H,4-12H2,1-3H3,(H,31,32)
INCHIKEY=YFNNJORBJZUGCV-UHFFFAOYSA-N
CLASS=Depsidones
ADDUCT=[M+Na]+
INSTRUMENT=Thermo Q-Exactive Focus
PRECURSOR_MZ=523.1944
COMPOUND_NAME=Lividic acid
ION_MODE=positive
FORMULA=C27H32O9
69.473305 27357.035156 
152.126312 46380.386719 
479.203583 1409824.625 
505.182831 225238.8125 
END IONS

BEGIN IONS
RTINSECONDS=260.717987
CHARGE=1+
MSLEVEL=2
SMILES=O=C1c2c(CC(=O)CCCCC)cc(O)cc2Oc2c(O1)cc(c(c2CCCCC)C(=O)O)O
INCHI=InChI=1S/C26H30O8/c1-3-5-7-9-16(27)11-15-12-17(28)13-20-22(15)26(32)34-21-14-19(29)23(25(30)31)18(24(21)33-20)10-8-6-4-2/h12-14,28-29H,3-11H2,1-2H3,(H,30,31)
INCHIKEY=KVTYWHGIZSCFLG-UHFFFAOYSA-N
CLASS=Depsidones
ADDUCT=[2M+H]+
INSTRUMENT=Thermo Q-Exactive Focus
PRECURSOR_MZ=941.396
COMPOUND_NAME=Physodic acid
ION_MODE=positive
FORMULA=C26H30O8
65.678185 11436.461914 
71.086655 28163.917969 
91.970352 19050.591797 
99.081459 22390.630859 
107.085945 11723.296875 
158.97821 11272.335938 
163.039795 12759.901367 
177.091827 16033.634766 
177.642349 10854.15625 
205.085648 13981.959961 
226.507767 11564.605469 
249.113708 16362.701172 
259.061035 25224.21875 
266.395447 12930.066406 
301.144531 39528.160156 
312.100281 23218.351562 
313.108246 22982.802734 
357.134369 48051.761719 
357.206909 19753.775391 
383.114563 39343.042969 
385.203003 57018.136719 
409.202209 16830.064453 
411.181274 430164.84375 
427.213379 43575.976562 
453.190735 70607.179688 
471.202698 307211.8125 
551.833435 9415.074219 
671.122986 10617.84375 
706.894958 11433.458984 
838.05719 10652.951172 
END IONS

BEGIN IONS
RTINSECONDS=269.585999
CHARGE=1+
MSLEVEL=2
SMILES=O=C1Oc2c(c(CC(=O)CCCCC)c(C(=O)O)c(O)c2)Oc2c1c(cc(c2)O)CC(=O)CCCCC
INCHI=InChI=1S/C28H32O9/c1-3-5-7-9-17(29)11-16-12-19(31)14-22-24(16)28(35)37-23-15-21(32)25(27(33)34)20(26(23)36-22)13-18(30)10-8-6-4-2/h12,14-15,31-32H,3-11,13H2,1-2H3,(H,33,34)
INCHIKEY=ZDIOCINAHISORH-UHFFFAOYSA-N
CLASS=Depsidones
ADDUCT=[2M+NH4]+
INSTRUMENT=Thermo Q-Exactive Focus
PRECURSOR_MZ=1042.4436
COMPOUND_NAME=Alpha-Alectoronic acid
ION_MODE=positive
FORMULA=C28H32O9
84.990288 325623.125 
91.970764 573677.25 
99.081177 8705285.0 
123.04409 337239.5 
137.02359 365815.21875 
163.03952 767849.1875 
173.739548 262854.21875 
192.042557 303582.84375 
221.118011 339175.75 
227.072449 339482.46875 
245.081696 801441.0625 
271.060913 1076305.375 
273.076233 1556412.875 
287.128601 1100986.25 
297.039856 1759313.5 
299.054993 3139987.0 
355.118256 4354170.5 
369.133148 2959957.5 
371.148956 4507701.5 
379.117737 3005547.75 
397.12854 18774836.0 
427.212585 2161187.5 
451.21286 1869568.875 
453.191101 31926522.0 
477.191437 7548556.0 
495.201813 20290022.0 
513.212463 23207308.0 
530.239502 234634.375 
537.279968 292753.75 
572.563171 103187.921875 
578.444153 149997.03125 
624.423218 63341.957031 
635.18512 10797.411133 
655.204041 105405.242188 
715.594788 329311.40625 
756.939026 34070.925781 
888.802429 134867.34375 
889.014465 330227.625 
END IONS

BEGIN IONS
RTINSECONDS=333.973999
CHARGE=1+
MSLEVEL=2
SMILES=CCCCCCCCCCCCC[C@@H]1OC(=O)C(=C)[C@@H]1C(=O)O
INCHI=InChI=1S/C19H32O4/c1-3-4-5-6-7-8-9-10-11-12-13-14-16-17(18(20)21)15(2)19(22)23-16/h16-17H,2-14H2,1H3,(H,20,21)/t16-,17-/m0/s1
INCHIKEY=WZYZDHVPSZCEEP-IRXDYDNUSA-N
CLASS=Paraconic acids
ADDUCT=[2M+Na]+
INSTRUMENT=Thermo Q-Exactive Focus
PRECURSOR_MZ=671.4499
COMPOUND_NAME=allo-Protolichesterinic acid
ION_MODE=positive
FORMULA=C19H32O4
71.754372 8394.981445 
78.730499 10678.334961 
86.703392 9011.049805 
91.963921 14857.693359 
96.104599 9608.922852 
112.204086 11217.194336 
125.818794 11841.545898 
151.012039 9303.092773 
185.900024 8451.208008 
186.713089 7739.362793 
216.260941 3328.723389 
220.274673 3859.851074 
240.190186 9689.598633 
253.196915 7197.057129 
267.24118 9400.678711 
291.041107 6997.225098 
347.219299 1165378.875 
347.261627 12619.598633 
353.889893 3579.120117 
355.596222 7368.92041 
365.993317 10110.969727 
404.828156 7797.331055 
432.085632 9444.807617 
468.731964 3177.935791 
545.577148 8532.711914 
549.57666 12969.833008 
572.742798 9478.34668 
582.966858 7923.314941 
END IONS

BEGIN IONS
RTINSECONDS=263.933014
CHARGE=1+
MSLEVEL=2
SMILES=CC(=O)CCCCCCCCCCCCC[C@@H]1C(C(=O)O)C(=C)C(=O)O1
INCHI=InChI=1S/C21H34O5/c1-16(22)14-12-10-8-6-4-3-5-7-9-11-13-15-18-19(20(23)24)17(2)21(25)26-18/h18-19H,2-15H2,1H3,(H,23,24)/t18-,19?/m1/s1
INCHIKEY=SKQHRBRVCRUFSX-MRTLOADZSA-N
CLASS=Paraconic acids
ADDUCT=[M+H+CH3OH]+
INSTRUMENT=Thermo Q-Exactive Focus
PRECURSOR_MZ=399.2747
COMPOUND_NAME=Muronic acid
ION_MODE=positive
FORMULA=C21H34O5
67.055176 66460.859375 
81.070816 115698.164062 
93.070633 68765.328125 
95.086403 146466.25 
109.101746 66485.273438 
121.065216 250061.65625 
135.117096 69266.140625 
218.085159 11407.614258 
255.232193 158081.921875 
267.210907 15821.925781 
275.237549 33562.179688 
285.222412 29486.623047 
303.2323 159989.015625 
321.243469 45998.578125 
331.227661 89820.835938 
349.23761 47587.167969 
363.253021 103925.242188 
367.248779 80157.773438 
381.265045 52447.457031 
END IONS

BEGIN IONS
RTINSECONDS=241.074005
CHARGE=1+
MSLEVEL=2
SMILES=Oc1c(C(=O)Oc2cc(O)c(C(=O)O)c(CC(=O)CCC)c2)c(CC(=O)CCC)cc(OC)c1
INCHI=InChI=1S/C25H28O9/c1-4-6-16(26)8-14-11-19(13-20(28)22(14)24(30)31)34-25(32)23-15(9-17(27)7-5-2)10-18(33-3)12-21(23)29/h10-13,28-29H,4-9H2,1-3H3,(H,30,31)
INCHIKEY=QZZMDINWSWWNKM-UHFFFAOYSA-N
CLASS=Depsides (Didepsides)
ADDUCT=[2M+NH4]+
INSTRUMENT=Thermo Q-Exactive Focus
PRECURSOR_MZ=962.381
COMPOUND_NAME=Glomellic acid
ION_MODE=positive
FORMULA=C25H28O9
71.050018 177789.6875 
89.635887 372983.34375 
91.969872 760248.375 
137.059738 1188523.75 
163.075241 2628739.75 
179.034042 3034387.75 
189.090942 5800308.0 
207.101669 18933556.0 
221.080841 12862398.0 
235.096497 134618800.0 
239.091263 6692747.0 
279.801422 72500.484375 
337.725861 62963.1875 
344.919678 60281.832031 
354.002472 61840.859375 
356.231079 53511.179688 
357.251953 210900.59375 
369.870483 386059.625 
445.270966 69261.59375 
447.344177 236982.578125 
455.169739 123456.0625 
466.140533 232363.921875 
473.181793 3527482.5 
490.207733 2290965.25 
541.780273 364041.3125 
565.630493 105187.796875 
577.422424 203817.671875 
604.343567 302747.46875 
713.970764 220233.984375 
987.256836 124608.648438 
END IONS

BEGIN IONS
RTINSECONDS=251.175003
CHARGE=1+
MSLEVEL=2
SMILES=O=C1c2c(CC(=O)CCCCC)cc(O)cc2Oc2c(O1)cc(c(c2CCCCC)C(=O)O)O
INCHI=InChI=1S/C26H30O8/c1-3-5-7-9-16(27)11-15-12-17(28)13-20-22(15)26(32)34-21-14-19(29)23(25(30)31)18(24(21)33-20)10-8-6-4-2/h12-14,28-29H,3-11H2,1-2H3,(H,30,31)
INCHIKEY=KVTYWHGIZSCFLG-UHFFFAOYSA-N
CLASS=Depsidones
ADDUCT=[M+H]+
INSTRUMENT=Thermo Q-Exactive Focus
PRECURSOR_MZ=471.2019
COMPOUND_NAME=Physodic acid
ION_MODE=positive
FORMULA=C26H30O8
67.60936 1560245.25 
71.086418 13698673.0 
95.086464 2697705.25 
99.081375 4642240.5 
107.086433 1663371.875 
163.039658 2651049.5 
175.076309 1900255.125 
177.091614 3347650.25 
203.071274 6595396.0 
205.087601 2789492.75 
249.111954 1953485.0 
257.045227 2264171.75 
259.060974 5965627.5 
285.040466 3183839.75 
301.143646 10414779.0 
312.100189 9856610.0 
313.10788 11197448.0 
357.134644 12762531.0 
357.205658 9975934.0 
383.113342 13551479.0 
385.201385 19046630.0 
409.201691 1794461.75 
411.181122 122019952.0 
427.212646 14986208.0 
453.191986 20243234.0 
END IONS

BEGIN IONS
RTINSECONDS=368.303986
CHARGE=1+
MSLEVEL=2
SMILES=CC1(C)C2CC[C@@]3(C)C(CCC4C3(C)CCC3C(=O)C(CCC43C)(C)C)C2(C)CC(OC(=O)C)C1=O
INCHI=InChI=1S/C32H50O4/c1-19(33)36-21-18-30(7)22(28(4,5)26(21)35)13-15-32(9)24(30)11-10-23-29(6)17-16-27(2,3)25(34)20(29)12-14-31(23,32)8/h20-24H,10-18H2,1-9H3/t20?,21?,22?,23?,24?,29?,30?,31?,32-/m0/s1
INCHIKEY=GSRPBBFLBACVKY-AJWNXJQWSA-N
CLASS=Terpenoids : Triterpenes
ADDUCT=[M+H]+
INSTRUMENT=Thermo Q-Exactive Focus
PRECURSOR_MZ=499.3787
COMPOUND_NAME="2a-Acetoxy-3,22-stictandione"
ION_MODE=positive
FORMULA=C32H50O4
95.086113 803759.625 
107.085983 792927.5 
109.101616 782007.875 
125.096375 722208.5 
133.101334 934610.625 
159.116943 698805.9375 
187.148514 453523.59375 
201.164047 524675.6875 
215.17955 552767.25 
219.174393 337238.875 
295.245972 43838.667969 
313.253387 107574.78125 
421.346649 955708.5 
439.357208 1632021.375 
439.41803 42557.226562 
481.368256 95725.59375 
END IONS

BEGIN IONS
RTINSECONDS=332.307007
CHARGE=1+
MSLEVEL=2
SMILES=CC[C@@H](C)C[C@@H](C)[C@@H]([C@H](C)C(=O)O[C@@H]([C@H](C)C[C@H](C)CC)[C@H](C)C(=O)O)O
INCHI=InChI=1S/C22H42O5/c1-9-13(3)11-15(5)19(23)17(7)22(26)27-20(18(8)21(24)25)16(6)12-14(4)10-2/h13-20,23H,9-12H2,1-8H3,(H,24,25)/t13-,14-,15-,16-,17+,18+,19+,20+/m1/s1
INCHIKEY=ZQEUMOKDJCSNHB-IHRHECOVSA-N
CLASS=Acids
ADDUCT=[2M+NH4]+
INSTRUMENT=Thermo Q-Exactive Focus
PRECURSOR_MZ=790.6408
COMPOUND_NAME=Bourgeanic acid
ION_MODE=positive
FORMULA=C22H42O5
57.070671 691279.1875 
69.070564 2438977.75 
83.08606 4439390.5 
95.085854 2725549.25 
109.101372 1951617.25 
111.080597 4731988.0 
149.132843 3277379.25 
167.142715 15130168.0 
185.153259 15209361.0 
194.960159 149019.84375 
203.163864 1227511.5 
265.227448 10284.155273 
304.834717 19404.800781 
320.779755 148315.71875 
346.782196 20294.722656 
369.299133 906262.375 
374.715759 22226.564453 
387.309723 2783412.0 
404.334991 41722.046875 
413.326508 178338.484375 
447.342438 167218.390625 
454.332153 162704.359375 
459.016022 158424.203125 
476.649689 147426.046875 
508.049805 26384.449219 
524.835571 29678.605469 
580.952942 27704.078125 
691.895874 30393.224609 
727.223755 157569.0 
730.719849 152044.1875 
END IONS

BEGIN IONS
RTINSECONDS=294.731995
CHARGE=1+
MSLEVEL=2
SMILES=O=c1c2c(c(Cl)c(OC)c(Cl)c2OC)oc2c1c(cc(c2)OC)C
INCHI=InChI=1S/C17H14Cl2O5/c1-7-5-8(21-2)6-9-10(7)14(20)11-15(22-3)12(18)17(23-4)13(19)16(11)24-9/h5-6H,1-4H3
INCHIKEY=KAJRGHJEGIZHMO-UHFFFAOYSA-N
CLASS=Chromanes and Chromones
ADDUCT=[M+H]+
INSTRUMENT=Thermo Q-Exactive Focus
PRECURSOR_MZ=369.0297
COMPOUND_NAME="2,4-Dichlor-1,3,6-tri-O-methylnorlichexanthone"
ION_MODE=positive
FORMULA=C17H14Cl2O5
90.957626 32317.378906 
91.966759 36677.96875 
107.702286 214091.828125 
277.025848 507107.46875 
289.025787 140070.125 
290.033325 687000.3125 
291.040314 295754.75 
310.985748 1182911.375 
319.035126 324803.09375 
END IONS

BEGIN IONS
RTINSECONDS=262.94101
CHARGE=1+
MSLEVEL=2
SMILES=Cc1cc(c(c(c1C(=O)O)O)C)OC(=O)c1c(c(c(cc1C)OC)C)OC
INCHI=InChI=1S/C20H22O7/c1-9-8-14(11(3)17(21)15(9)19(22)23)27-20(24)16-10(2)7-13(25-5)12(4)18(16)26-6/h7-8,21H,1-6H3,(H,22,23)
INCHIKEY=MIJKZXWOOXIEEU-UHFFFAOYSA-N
CLASS=Depsides (Didepsides)
ADDUCT=[M+H]+
INSTRUMENT=Thermo Q-Exactive Focus
PRECURSOR_MZ=375.1444
COMPOUND_NAME=Diffractaic acid
ION_MODE=positive
FORMULA=C20H22O7
79.054962 1044626.25 
91.054939 937875.6875 
91.96904 3415827.25 
105.070129 1384260.75 
107.0495 1195712.5 
137.059738 1919676.125 
150.067749 5801905.5 
163.075348 647425.75 
178.062241 4626785.0 
193.085953 203850672.0 
258.40451 262488.1875 
END IONS

BEGIN IONS
RTINSECONDS=278.136993
CHARGE=1+
MSLEVEL=2
SMILES=CCCCCc1cc(cc(c1C(=O)O)OC)OC(=O)c1c(cc(cc1CC(=O)CCCCC)OC)O
INCHI=InChI=1S/C28H36O8/c1-5-7-9-11-18-14-22(17-24(35-4)26(18)27(31)32)36-28(33)25-19(13-20(29)12-10-8-6-2)15-21(34-3)16-23(25)30/h14-17,30H,5-13H2,1-4H3,(H,31,32)
INCHIKEY=UANVCGQMNRTKGM-UHFFFAOYSA-N
CLASS=Depsides (Didepsides)
ADDUCT=[M+H+C2H6OS]+
INSTRUMENT=Thermo Q-Exactive Focus
PRECURSOR_MZ=579.2628
COMPOUND_NAME=Confluentic acid
ION_MODE=positive
FORMULA=C28H36O8
64.123077 6339.76709 
90.485146 8110.322754 
91.970688 14211.492188 
111.2808 6959.896484 
137.060074 26019.863281 
163.075653 25287.693359 
182.057755 32484.775391 
218.058502 34556.316406 
221.117172 87974.109375 
235.132584 44620.316406 
237.11264 29158.335938 
263.127808 395132.28125 
278.115631 15551.763672 
337.344879 6574.359375 
376.279663 6927.530762 
END IONS

BEGIN IONS
RTINSECONDS=288.890015
CHARGE=1+
MSLEVEL=2
SMILES=O=C1c2c(C(=O)CCCC)cc(OC)cc2Oc2c(O1)cc(c(c2CCCCC)C(=O)O)O
INCHI=InChI=1S/C25H28O8/c1-4-6-8-9-15-21(24(28)29)18(27)13-20-23(15)32-19-12-14(31-3)11-16(17(26)10-7-5-2)22(19)25(30)33-20/h11-13,27H,4-10H2,1-3H3,(H,28,29)
INCHIKEY=JHEWMLHQNRHTQX-UHFFFAOYSA-N
CLASS=Depsidones
ADDUCT=[M+NH4]+
INSTRUMENT=Thermo Q-Exactive Focus
PRECURSOR_MZ=474.2128
COMPOUND_NAME=Lobaric acid
ION_MODE=positive
FORMULA=C25H28O8
55.781296 51597.589844 
57.070972 769851.75 
85.065666 297404.34375 
137.023621 318319.03125 
201.091568 342450.8125 
255.065796 366364.28125 
265.122101 293980.15625 
269.118103 287698.59375 
287.128723 398199.125 
309.11322 334635.125 
343.192108 493760.625 
369.096985 1579626.625 
371.186676 1181719.625 
379.154175 1081005.625 
397.164948 9093653.0 
421.164856 9207756.0 
439.175812 3580599.75 
457.186035 16373273.0 
END IONS

BEGIN IONS
RTINSECONDS=216.660004
CHARGE=1+
MSLEVEL=2
SMILES=Cc1c(c(O)cc(O)c1)C(=O)Oc1cc(OC)c(C(=O)Oc2cc(O)c(C(=O)O)c(C)c2)c(C)c1
INCHI=InChI=1S/C25H22O10/c1-11-5-14(26)8-17(27)21(11)24(31)35-16-7-13(3)22(19(10-16)33-4)25(32)34-15-6-12(2)20(23(29)30)18(28)9-15/h5-10,26-28H,1-4H3,(H,29,30)
INCHIKEY=BXLGBRLDRRZQKR-UHFFFAOYSA-N
CLASS=Depsides (Tridepsides)
ADDUCT=[M+H]+
INSTRUMENT=Thermo Q-Exactive Focus
PRECURSOR_MZ=483.1291
COMPOUND_NAME=Ovoic acid
ION_MODE=positive
FORMULA=C25H22O10
65.124672 13755.455078 
67.055214 29040.232422 
68.998032 23223.023438 
91.96994 14038.257812 
122.036598 37762.949219 
122.472679 16002.480469 
147.912003 14685.145508 
151.039322 2442230.25 
165.055054 3700875.25 
187.126648 11686.741211 
232.04866 16420.693359 
233.31778 15548.764648 
247.682724 11329.953125 
263.993378 14877.298828 
276.761139 12863.538086 
317.074951 11223.50293 
320.57962 14512.985352 
330.851959 14071.165039 
346.090454 6209.624023 
380.859924 6943.742188 
392.867584 10959.598633 
436.521942 15063.770508 
449.714874 13784.811523 
452.113983 6669.042969 
453.984833 13659.639648 
END IONS

BEGIN IONS
RTINSECONDS=260.739014
CHARGE=1+
MSLEVEL=2
SMILES=O=C1Oc2c(c(CC(=O)CCCCC)c(C(=O)O)c(O)c2)Oc2c1c(cc(c2)O)CC(=O)CCCCC
INCHI=InChI=1S/C28H32O9/c1-3-5-7-9-17(29)11-16-12-19(31)14-22-24(16)28(35)37-23-15-21(32)25(27(33)34)20(26(23)36-22)13-18(30)10-8-6-4-2/h12,14-15,31-32H,3-11,13H2,1-2H3,(H,33,34)
INCHIKEY=ZDIOCINAHISORH-UHFFFAOYSA-N
CLASS=Depsidones
ADDUCT=[M+Na]+
INSTRUMENT=Thermo Q-Exactive Focus
PRECURSOR_MZ=535.1944
COMPOUND_NAME=Alpha-Alectoronic acid
ION_MODE=positive
FORMULA=C28H32O9
56.760151 3175.60083 
91.969925 71822.226562 
270.085999 211582.03125 
393.130493 53163.546875 
419.110565 149097.9375 
447.215546 54927.808594 
449.196136 49270.039062 
491.204315 962840.625 
491.271515 43161.113281 
517.183594 90726.0 
END IONS

BEGIN IONS
RTINSECONDS=276.955994
CHARGE=1+
MSLEVEL=2
SMILES=CC(=O)CCCCCCCCCCCCC[C@@H]1C(C(=O)O)C(=C)C(=O)O1
INCHI=InChI=1S/C21H34O5/c1-16(22)14-12-10-8-6-4-3-5-7-9-11-13-15-18-19(20(23)24)17(2)21(25)26-18/h18-19H,2-15H2,1H3,(H,23,24)/t18-,19?/m1/s1
INCHIKEY=SKQHRBRVCRUFSX-MRTLOADZSA-N
CLASS=Paraconic acids
ADDUCT=[M+NH4]+
INSTRUMENT=Thermo Q-Exactive Focus
PRECURSOR_MZ=384.275
COMPOUND_NAME=Muronic acid
ION_MODE=positive
FORMULA=C21H34O5
67.054985 5000319.0 
81.070465 9586967.0 
93.070404 5969725.5 
95.085968 9760542.0 
121.064873 15239904.0 
122.068146 8381171.0 
256.234772 3997590.5 
276.240753 2051871.25 
286.224609 2615882.25 
304.234833 9774439.0 
314.219238 2126609.0 
332.229248 7144912.0 
350.240356 8722244.0 
367.248077 11455968.0 
END IONS

BEGIN IONS
RTINSECONDS=333.550995
CHARGE=1+
MSLEVEL=2
SMILES=CCCCCCCCCCCCC[C@H]1[C@H]([C@H](C(=O)O1)C)C(=O)O
INCHI=InChI=1S/C19H34O4/c1-3-4-5-6-7-8-9-10-11-12-13-14-16-17(18(20)21)15(2)19(22)23-16/h15-17H,3-14H2,1-2H3,(H,20,21)/t15-,16+,17+/m1/s1
INCHIKEY=WLGALFYTFVOQPY-IKGGRYGDSA-N
CLASS=Paraconic acids
ADDUCT=[M+NH4]+
INSTRUMENT=Thermo Q-Exactive Focus
PRECURSOR_MZ=344.2801
COMPOUND_NAME=Nephromopsic acid
ION_MODE=positive
FORMULA=C19H34O4
69.070732 649872.25 
81.07058 798800.8125 
83.086105 320901.5625 
95.086098 877430.5 
97.101715 446814.71875 
109.101639 380256.59375 
147.117188 407165.59375 
161.13266 189685.375 
207.210571 485797.09375 
217.195496 241146.5 
245.226227 1035151.3125 
263.236511 1135301.875 
273.221436 23561.089844 
281.247314 647575.375 
291.231354 744296.0625 
309.242126 1119627.25 
327.213165 4246.288086 
327.252808 972955.375 
END IONS

BEGIN IONS
RTINSECONDS=289.335999
CHARGE=1+
MSLEVEL=2
SMILES=O=C1c2c(C(=O)CCCC)cc(OC)cc2Oc2c(O1)cc(c(c2CCCCC)C(=O)O)O
INCHI=InChI=1S/C25H28O8/c1-4-6-8-9-15-21(24(28)29)18(27)13-20-23(15)32-19-12-14(31-3)11-16(17(26)10-7-5-2)22(19)25(30)33-20/h11-13,27H,4-10H2,1-3H3,(H,28,29)
INCHIKEY=JHEWMLHQNRHTQX-UHFFFAOYSA-N
CLASS=Depsidones
ADDUCT=[2M+NH4]+
INSTRUMENT=Thermo Q-Exactive Focus
PRECURSOR_MZ=930.3912
COMPOUND_NAME=Lobaric acid
ION_MODE=positive
FORMULA=C25H28O8
67.028 193008.359375 
85.065514 1821961.875 
91.968567 490279.1875 
95.086044 968878.0625 
137.023636 358006.65625 
201.091507 1941638.0 
227.072128 772776.0 
235.096039 385492.5625 
255.06572 2771428.0 
269.118164 1738991.125 
287.128601 2262328.0 
293.11734 1344165.75 
343.190521 2388563.25 
369.096985 6138597.0 
371.18573 3605833.75 
379.153503 5777915.5 
397.164856 44609244.0 
421.164825 49702628.0 
439.175446 16885548.0 
457.186127 85503608.0 
END IONS

BEGIN IONS
RTINSECONDS=337.725006
CHARGE=1+
MSLEVEL=2
SMILES=CCCCCCCCCCCCC[C@H]1[C@H]([C@H](C(=O)O1)C)C(=O)O
INCHI=InChI=1S/C19H34O4/c1-3-4-5-6-7-8-9-10-11-12-13-14-16-17(18(20)21)15(2)19(22)23-16/h15-17H,3-14H2,1-2H3,(H,20,21)/t15-,16+,17+/m1/s1
INCHIKEY=WLGALFYTFVOQPY-IKGGRYGDSA-N
CLASS=Paraconic acids
ADDUCT=[M+H+CH3OH]+
INSTRUMENT=Thermo Q-Exactive Focus
PRECURSOR_MZ=359.2797
COMPOUND_NAME=Nephromopsic acid
ION_MODE=positive
FORMULA=C19H34O4
67.055099 133570.078125 
69.070724 141987.71875 
81.070786 265527.96875 
83.086159 120210.59375 
95.086006 297682.96875 
109.101524 172795.734375 
133.101273 104099.328125 
147.116974 79389.398438 
207.211243 70024.609375 
217.195435 57061.863281 
245.226349 226036.8125 
263.236847 244946.609375 
291.231384 90743.203125 
295.262878 97428.75 
309.242096 78884.9375 
323.258575 41832.558594 
341.267883 79570.617188 
342.238129 24175.601562 
END IONS

BEGIN IONS
RTINSECONDS=323.584015
CHARGE=1+
MSLEVEL=2
SMILES=CC(C)C[C@@H](C(=O)OC)NC(=O)/C(=C\1/C(=C(C(=O)O1)c1ccccc1)O)/c1ccccc1
INCHI=InChI=1S/C25H25NO6/c1-15(2)14-18(24(29)31-3)26-23(28)20(17-12-8-5-9-13-17)22-21(27)19(25(30)32-22)16-10-6-4-7-11-16/h4-13,15,18,27H,14H2,1-3H3,(H,26,28)/b22-20-/t18-/m0/s1
INCHIKEY=IBSRGCBHIASQMQ-BKBKCADHSA-N
CLASS=Pulvinic Acid Derivatives
ADDUCT=[M+H]+
INSTRUMENT=Thermo Q-Exactive Focus
PRECURSOR_MZ=436.176
COMPOUND_NAME=Epanorin
ION_MODE=positive
FORMULA=C25H25NO6
58.678501 2488347.0 
63.936108 2616293.75 
79.006134 44571.953125 
86.09687 252030208.0 
89.039192 3553276.25 
91.967102 2921360.0 
145.027847 6117039.5 
146.117188 159143232.0 
178.07724 8443497.0 
179.085251 12689558.0 
207.07988 130851528.0 
217.064362 7291416.0 
235.074646 66842376.0 
245.059204 5024791.5 
263.069427 120877336.0 
291.06427 25323342.0 
404.148712 3812618.0 
END IONS

BEGIN IONS
RTINSECONDS=66.619904
CHARGE=1+
MSLEVEL=2
SMILES=Cc1c(O)cc(C)cc1O
INCHI=InChI=1S/C8H10O2/c1-5-3-7(9)6(2)8(10)4-5/h3-4,9-10H,1-2H3
INCHIKEY=GHVHDYYKJYXFGU-UHFFFAOYSA-N
CLASS=Cleavage Products of Depsides and Depsidones
ADDUCT=[M+H]+
INSTRUMENT=Thermo Q-Exactive Focus
PRECURSOR_MZ=139.0759
COMPOUND_NAME=Beta-orcinol
ION_MODE=positive
FORMULA=C8H10O2
53.039417 154197.1875 
91.054855 2249961.25 
93.070435 4043417.25 
95.049728 1162606.25 
121.065041 30838956.0 
END IONS

BEGIN IONS
RTINSECONDS=276.194
CHARGE=1+
MSLEVEL=2
SMILES=CC(=O)CCCCCCCCCCCCC[C@@H]1C(C(C)C(=O)O1)C(=O)O
INCHI=InChI=1S/C21H36O5/c1-16(22)14-12-10-8-6-4-3-5-7-9-11-13-15-18-19(20(23)24)17(2)21(25)26-18/h17-19H,3-15H2,1-2H3,(H,23,24)/t17?,18-,19?/m1/s1
INCHIKEY=SPGPUDJMXMJNCU-JLAWEPINSA-N
CLASS=Paraconic acids
ADDUCT=[M+NH4]+
INSTRUMENT=Thermo Q-Exactive Focus
PRECURSOR_MZ=386.2906
COMPOUND_NAME=Dihydromuronic acid
ION_MODE=positive
FORMULA=C21H36O5
55.055286 6457205.5 
67.055214 14719834.0 
81.070831 38710796.0 
83.086403 13270899.0 
95.086304 49785752.0 
109.101921 24937652.0 
123.117393 10017932.0 
135.117249 10347481.0 
261.257782 512194.625 
277.253387 10940347.0 
287.237915 5933619.0 
305.248077 24570422.0 
315.232758 4520433.5 
333.243805 8751805.0 
351.253754 13850902.0 
369.26413 89678488.0 
END IONS

BEGIN IONS
RTINSECONDS=279.604004
CHARGE=1+
MSLEVEL=2
SMILES=O=C(OC)/C(=C\1/OC(=O)C(=C1O)c1ccccc1)/c1c(OC)cccc1
INCHI=InChI=1S/C20H16O6/c1-24-14-11-7-6-10-13(14)16(19(22)25-2)18-17(21)15(20(23)26-18)12-8-4-3-5-9-12/h3-11,21H,1-2H3/b18-16+
INCHIKEY=IWYVMUDIEOXASM-FBMGVBCBSA-N
CLASS=Pulvinic Acid Derivatives
ADDUCT=[M+NH4]+
INSTRUMENT=Thermo Q-Exactive Focus
PRECURSOR_MZ=370.1291
COMPOUND_NAME=Leprapinic acid
ION_MODE=positive
FORMULA=C20H16O6
89.039131 207997.171875 
91.054626 1273729.375 
91.966698 241160.046875 
117.033478 264897.15625 
119.049179 6456751.5 
145.028122 857972.1875 
147.043808 5894738.0 
175.038666 3353385.5 
181.100708 161025.46875 
194.072449 252857.453125 
209.096512 198913.15625 
237.090607 2094001.875 
247.075439 221128.625 
265.085205 1341282.0 
278.057251 500012.1875 
293.080048 4389029.5 
321.075043 6716804.5 
353.101227 1996213.75 
END IONS

BEGIN IONS
RTINSECONDS=198.393997
CHARGE=1+
MSLEVEL=2
SMILES=O=C1c2c(C)c(Cl)c(O)c(Cl)c2Oc2c(O1)cc(c(c2C)C(=O)OC)OC
INCHI=InChI=1S/C18H14Cl2O7/c1-6-11-16(13(20)14(21)12(6)19)27-15-7(2)10(17(22)25-4)8(24-3)5-9(15)26-18(11)23/h5,21H,1-4H3
INCHIKEY=RPHAAJGBADUATP-UHFFFAOYSA-N
CLASS=Depsidones
ADDUCT=[M+H+CH3OH]+
INSTRUMENT=Thermo Q-Exactive Focus
PRECURSOR_MZ=445.0457
COMPOUND_NAME=Gangaleoidin
ION_MODE=positive
FORMULA=C18H14Cl2O7
50.79483 229678.484375 
53.66856 241157.390625 
90.33992 305928.6875 
106.904869 261812.578125 
118.375656 276473.84375 
120.90567 255525.015625 
129.729523 279068.875 
158.45726 292563.71875 
190.662735 260336.421875 
203.475189 410524.125 
211.514206 65187.949219 
243.744675 269308.78125 
281.985657 322912.28125 
292.978027 706552.875 
293.984253 1422834.5 
309.979431 546365.625 
320.972656 2072613.0 
337.975006 1188030.0 
348.966949 9297948.0 
365.971436 662939.1875 
380.993256 25418144.0 
413.01947 7984314.5 
462.726562 289723.125 
END IONS

BEGIN IONS
RTINSECONDS=316.980988
CHARGE=1+
MSLEVEL=2
SMILES=O=C1c2c(CCCCC)cc(OC)c(OC)c2Oc2c(O1)cc(c(c2CCCCC)C(=O)O)O
INCHI=InChI=1S/C26H32O8/c1-5-7-9-11-15-13-18(31-3)23(32-4)24-20(15)26(30)33-19-14-17(27)21(25(28)29)16(22(19)34-24)12-10-8-6-2/h13-14,27H,5-12H2,1-4H3,(H,28,29)
INCHIKEY=GHBZVNHEVHMKOB-UHFFFAOYSA-N
CLASS=Depsidones
ADDUCT=[2M+NH4]+
INSTRUMENT=Thermo Q-Exactive Focus
PRECURSOR_MZ=962.4538
COMPOUND_NAME=3-Methoxycolensoic acid
ION_MODE=positive
FORMULA=C26H32O8
88.202301 109195.109375 
91.054291 134192.546875 
103.501015 133297.15625 
107.071014 131539.0625 
113.586121 114153.4375 
117.113701 123961.695312 
151.07489 177529.546875 
165.053909 206318.421875 
178.418716 135718.578125 
179.069611 271900.21875 
207.065186 215002.5 
235.132751 9092009.0 
247.096298 391601.3125 
248.272827 144622.65625 
251.127441 254413.96875 
253.123611 176374.09375 
301.070221 364399.8125 
303.158875 750363.3125 
343.117676 617510.75 
359.149719 644577.375 
359.220001 670360.9375 
385.128357 2530931.5 
387.216553 1684772.625 
413.195618 23427754.0 
414.199402 824233.375 
429.227325 939378.0 
455.206238 8711567.0 
473.216888 35900576.0 
491.367859 101496.382812 
518.433899 137653.21875 
547.335938 233653.171875 
600.755432 12242.103516 
628.933533 147864.25 
845.212585 47145.402344 
882.973022 141809.6875 
885.295471 53715.652344 
907.617493 14431.717773 
908.468079 117529.203125 
927.39209 90041.875 
977.77063 12472.800781 
END IONS

BEGIN IONS
RTINSECONDS=260.199005
CHARGE=1+
MSLEVEL=2
SMILES=O=C1c2c(CC(=O)CCCCC)cc(O)cc2Oc2c(O1)cc(c(c2CCCCC)C(=O)O)O
INCHI=InChI=1S/C26H30O8/c1-3-5-7-9-16(27)11-15-12-17(28)13-20-22(15)26(32)34-21-14-19(29)23(25(30)31)18(24(21)33-20)10-8-6-4-2/h12-14,28-29H,3-11H2,1-2H3,(H,30,31)
INCHIKEY=KVTYWHGIZSCFLG-UHFFFAOYSA-N
CLASS=Depsidones
ADDUCT=[2M+Na]+
INSTRUMENT=Thermo Q-Exactive Focus
PRECURSOR_MZ=963.3779
COMPOUND_NAME=Physodic acid
ION_MODE=positive
FORMULA=C26H30O8
67.176529 31575.808594 
68.666367 28460.59375 
83.945343 30377.158203 
88.891685 28507.234375 
91.963158 45978.167969 
96.712029 31614.460938 
127.785782 29815.333984 
144.05246 24935.402344 
155.08223 35407.847656 
170.946121 20645.871094 
213.601379 30360.439453 
231.831558 25641.65625 
267.469666 27397.640625 
268.663239 24669.933594 
284.571442 19483.708984 
290.303467 22304.660156 
342.433258 15014.427734 
349.966156 20907.699219 
350.805878 20933.394531 
361.401123 25120.744141 
407.182098 49353.523438 
414.037872 12890.90332 
431.189209 30032.603516 
449.194611 2871662.75 
472.457764 35943.941406 
475.174194 366826.28125 
481.649536 37997.402344 
493.184631 5032952.5 
539.599182 44226.625 
543.967957 30223.746094 
552.558533 22140.955078 
597.667236 19757.880859 
631.238892 18647.716797 
697.723755 16267.138672 
733.36499 10667.643555 
804.611877 20041.042969 
823.502808 26562.615234 
909.339233 10932.734375 
939.506958 30193.083984 
943.673889 11291.650391 
944.166382 20636.316406 
998.164001 14240.706055 
END IONS

BEGIN IONS
RTINSECONDS=134.345001
CHARGE=1+
MSLEVEL=2
SMILES=Cc1cc(=O)c2c(cc3c(C(=CC(=O)C3=O)OC)c2OC)o1
INCHI=InChI=1S/C16H12O6/c1-7-4-9(17)14-12(22-7)5-8-13(16(14)21-3)11(20-2)6-10(18)15(8)19/h4-6H,1-3H3
INCHIKEY=GESAVORGYOGKOW-UHFFFAOYSA-N
CLASS=Quinones
ADDUCT=[M+H+HCOOH]+
INSTRUMENT=Thermo Q-Exactive Focus
PRECURSOR_MZ=347.0767
COMPOUND_NAME=Canarione dimethylether
ION_MODE=positive
FORMULA=C16H12O6
54.665565 60642.363281 
62.550087 15319.680664 
75.044853 37595.203125 
174.031006 134067.84375 
201.054382 197614.609375 
213.054184 202015.59375 
229.04892 1019397.375 
261.038513 712171.625 
270.014954 1332596.125 
273.074463 1077468.125 
285.03833 4926003.5 
303.048889 751873.0 
317.064606 7417520.0 
END IONS

BEGIN IONS
RTINSECONDS=346.062012
CHARGE=1+
MSLEVEL=2
SMILES=CCCCCCCCCCCCC[C@H]1C(=C(C(=O)O1)C)C(=O)O
INCHI=InChI=1S/C19H32O4/c1-3-4-5-6-7-8-9-10-11-12-13-14-16-17(18(20)21)15(2)19(22)23-16/h16H,3-14H2,1-2H3,(H,20,21)/t16-/m0/s1
INCHIKEY=SLQVVNFTCYVCPB-INIZCTEOSA-N
CLASS=Paraconic acids
ADDUCT=[M+H]+
INSTRUMENT=Thermo Q-Exactive Focus
PRECURSOR_MZ=325.2379
COMPOUND_NAME=Lichesterinic acid
ION_MODE=positive
FORMULA=C19H32O4
55.05526 103975.257812 
57.070889 109204.59375 
69.070816 216935.890625 
71.086525 81357.429688 
83.086334 132843.90625 
97.101868 128824.726562 
107.086136 73720.546875 
121.101738 60511.984375 
141.054718 83915.84375 
155.07048 38438.011719 
191.107025 26891.757812 
233.226135 22003.886719 
243.2117 22006.71875 
261.222046 29954.738281 
289.217346 69709.414062 
307.22757 83271.109375 
END IONS

BEGIN IONS
RTINSECONDS=253.934998
CHARGE=1+
MSLEVEL=2
SMILES=CC(C)C[C@H](NC(=O)c1ccccc1)C(=O)OC[C@@H](NC(=O)c1ccccc1)Cc1ccccc1
INCHI=InChI=1S/C29H32N2O4/c1-21(2)18-26(31-28(33)24-16-10-5-11-17-24)29(34)35-20-25(19-22-12-6-3-7-13-22)30-27(32)23-14-8-4-9-15-23/h3-17,21,25-26H,18-20H2,1-2H3,(H,30,32)(H,31,33)/t25-,26-/m0/s1
INCHIKEY=JOOSAYNHLJGJCN-UIOOFZCWSA-N
CLASS=N-Containing Compounds
ADDUCT=[M+Na]+
INSTRUMENT=Thermo Q-Exactive Focus
PRECURSOR_MZ=495.226
COMPOUND_NAME=Hypothallin
ION_MODE=positive
FORMULA=C29H32N2O4
79.05513 82253.109375 
91.969292 84235.671875 
99.129852 24701.101562 
105.034103 687429.25 
117.070396 747354.9375 
122.060585 189815.5625 
238.123199 945741.3125 
258.110443 2357339.25 
258.136169 113827.273438 
260.105072 395474.0 
END IONS

BEGIN IONS
RTINSECONDS=191.016006
CHARGE=1+
MSLEVEL=2
SMILES=Oc1c(C(=O)Oc2cc(C)c(c(O)c2C)C(=O)O)c(C)cc(OC)c1C(=O)O
INCHI=InChI=1S/C19H18O9/c1-7-5-10(9(3)15(20)12(7)17(22)23)28-19(26)13-8(2)6-11(27-4)14(16(13)21)18(24)25/h5-6,20-21H,1-4H3,(H,22,23)(H,24,25)
INCHIKEY=WCWYEXBIRSSVGF-UHFFFAOYSA-N
CLASS=Depsides (Didepsides)
ADDUCT=[M+Na]+
INSTRUMENT=Thermo Q-Exactive Focus
PRECURSOR_MZ=413.0849
COMPOUND_NAME=Squamatic acid
ION_MODE=positive
FORMULA=C19H18O9
57.580208 84227.257812 
60.579369 63807.84375 
61.550476 66111.875 
62.636593 70967.257812 
91.332062 82084.640625 
91.970619 88931.640625 
111.969696 80444.8125 
119.615273 80797.898438 
164.782333 29295.585938 
165.161118 33175.996094 
173.11525 6297.274414 
187.035324 393195.9375 
188.743652 5917.373535 
231.025665 7431759.5 
241.810333 79042.617188 
249.258179 17836.537109 
284.44751 85755.820312 
284.576355 33390.578125 
302.064423 6684.574219 
306.877563 5672.744629 
340.452606 17228.417969 
366.468811 82185.398438 
375.993652 6204.560059 
376.253632 6160.031738 
377.062347 159932.59375 
395.070923 85284.257812 
END IONS

BEGIN IONS
RTINSECONDS=334.795013
CHARGE=1+
MSLEVEL=2
SMILES=CCCCCCCCCCCCCC[C@H](C(=O)OC)[C@@H](C(=O)O)CC(=O)O
INCHI=InChI=1S/C21H38O6/c1-3-4-5-6-7-8-9-10-11-12-13-14-15-17(21(26)27-2)18(20(24)25)16-19(22)23/h17-18H,3-16H2,1-2H3,(H,22,23)(H,24,25)/t17-,18-/m0/s1
INCHIKEY=LGCPAGYPUFWEBQ-ROUUACIJSA-N
CLASS=Acids
ADDUCT=[M+H]+
INSTRUMENT=Thermo Q-Exactive Focus
PRECURSOR_MZ=387.2747
COMPOUND_NAME=Rangiformic acid
ION_MODE=positive
FORMULA=C21H38O6
57.070724 1369854.75 
69.070656 2475749.25 
81.070534 2520221.25 
83.086235 1891398.625 
97.101631 1847904.0 
119.085686 1960207.375 
133.101242 2210465.25 
147.116821 1142440.5 
161.132706 847222.0 
165.09108 937175.125 
179.106979 687343.25 
231.210785 498193.4375 
245.226135 1607440.625 
255.21022 548750.625 
263.236908 436204.8125 
291.230957 1123694.0 
301.216217 611645.8125 
319.226868 679185.375 
337.237518 686401.4375 
355.247681 1991900.75 
369.26355 1761882.5 
405.584106 6409.569824 
END IONS

BEGIN IONS
RTINSECONDS=184.949005
CHARGE=1+
MSLEVEL=2
SMILES=CC(C[C@H](NC(=O)/C(=C\1/C(=C(c2ccccc2)C(=O)O1)O)/c1ccccc1)C(=O)O)C
INCHI=InChI=1S/C24H23NO6/c1-14(2)13-17(23(28)29)25-22(27)19(16-11-7-4-8-12-16)21-20(26)18(24(30)31-21)15-9-5-3-6-10-15/h3-12,14,17,26H,13H2,1-2H3,(H,25,27)(H,28,29)/b21-19-/t17-/m0/s1
INCHIKEY=ZQLBONJLBKDOLE-UFVMTTLYSA-N
CLASS=Pulvinic Acid Derivatives
ADDUCT=[2M+NH4]+
INSTRUMENT=Thermo Q-Exactive Focus
PRECURSOR_MZ=860.3394
COMPOUND_NAME=Norepanorin
ION_MODE=positive
FORMULA=C24H23NO6
62.764061 7779.979004 
66.33744 7165.715332 
81.084808 8968.719727 
83.044601 8445.756836 
86.097168 49806.324219 
91.964691 17349.162109 
132.102158 23330.306641 
195.564926 9857.313477 
207.080124 50906.023438 
235.075043 48717.371094 
255.223358 8452.256836 
263.070526 149124.71875 
291.066345 33385.597656 
344.920532 10329.956055 
376.155701 10603.160156 
422.159424 105937.859375 
641.146912 8721.385742 
681.461914 10047.56543 
END IONS

BEGIN IONS
RTINSECONDS=392.645996
CHARGE=1+
MSLEVEL=2
SMILES=CC1(C)C2CC[C@]3([C@@]4(CC[C@H]5[C@H](CC[C@@]5([C@H]4CC[C@@H]3[C@@]2(C)C(=O)C=C1)C)C(C)(O)C)C)C
INCHI=InChI=1S/C30H48O2/c1-25(2)15-14-24(31)30(8)21(25)13-18-29(7)23(30)10-9-22-27(5)16-11-19(26(3,4)32)20(27)12-17-28(22,29)6/h14-15,19-23,32H,9-13,16-18H2,1-8H3/t19-,20-,21?,22+,23-,27-,28+,29+,30-/m0/s1
INCHIKEY=YLKHZBZGHNOEES-LISTXKHRSA-N
CLASS=Terpenoids : Triterpenes
ADDUCT=[2M+Na]+
INSTRUMENT=Thermo Q-Exactive Focus
PRECURSOR_MZ=903.7206
COMPOUND_NAME=22-Hydoxy-2-hopen-1-one
ION_MODE=positive
FORMULA=C30H48O2
63.034695 7592.424316 
65.747749 8131.913574 
67.27713 8333.573242 
89.742592 9739.621094 
117.545616 8915.763672 
119.696007 12181.157227 
127.808952 9137.40332 
154.514114 10200.098633 
194.073105 4255.904785 
213.211792 9210.418945 
222.572128 4675.401855 
222.826004 8277.925781 
233.518204 9258.866211 
246.423187 3957.330322 
285.348053 8531.878906 
327.539032 4290.460449 
392.846893 8532.995117 
450.373871 7396.783203 
457.139954 4464.090332 
463.353973 1880636.5 
481.364838 52121.3125 
496.279297 10069.431641 
504.379974 31852.306641 
598.060547 4309.519043 
645.624756 12716.96582 
762.101807 10354.459961 
770.628174 8325.4375 
807.078064 8497.108398 
828.525879 8896.869141 
866.095154 11304.922852 
END IONS

BEGIN IONS
RTINSECONDS=144.544998
CHARGE=1+
MSLEVEL=2
SMILES=[C@@H]1(CC(=O)N2[C@H](C(=O)N[C@H](CC(=O)N3[C@@H](C(=O)N1)CCC3)c1ccccc1)CCC2)c1ccccc1
INCHI=InChI=1S/C28H32N4O4/c33-25-17-21(19-9-3-1-4-10-19)29-27(35)23-13-7-16-32(23)26(34)18-22(20-11-5-2-6-12-20)30-28(36)24-14-8-15-31(24)25/h1-6,9-12,21-24H,7-8,13-18H2,(H,29,35)(H,30,36)/t21-,22-,23-,24+/m1/s1
INCHIKEY=PDLPVRYEPINIBU-YCAMKHIRSA-N
CLASS=N-Containing Compounds
ADDUCT=[M+NH4]+
INSTRUMENT=Thermo Q-Exactive Focus
PRECURSOR_MZ=506.2767
COMPOUND_NAME=Roccanin
ION_MODE=positive
FORMULA=C28H32N4O4
51.262051 912652.0625 
57.06657 862947.5 
70.065842 66269940.0 
106.065315 38710752.0 
112.075806 27888256.0 
114.055107 12621788.0 
131.048981 213492256.0 
140.070389 45058320.0 
185.107361 19139724.0 
200.106583 106767344.0 
203.117264 21049630.0 
227.117828 10812075.0 
228.101349 130116768.0 
244.144196 9903239.0 
245.127808 57598516.0 
333.160736 5315771.0 
340.185394 108596.289062 
341.195648 19149514.0 
350.185455 3733440.75 
375.169861 21546624.0 
471.237793 8746267.0 
472.218079 3728136.25 
488.234985 215418.53125 
489.248383 125744304.0 
END IONS

BEGIN IONS
RTINSECONDS=228.960999
CHARGE=1+
MSLEVEL=2
SMILES=O=C(OC)/C(=C\1/OC(=O)C(=C1OC)c1ccccc1)/c1c(OC)cccc1
INCHI=InChI=1S/C21H18O6/c1-24-15-12-8-7-11-14(15)17(20(22)26-3)19-18(25-2)16(21(23)27-19)13-9-5-4-6-10-13/h4-12H,1-3H3/b19-17+
INCHIKEY=WGZKMINRLLRJPF-HTXNQAPBSA-N
CLASS=Pulvinic Acid Derivatives
ADDUCT=[2M+NH4]+
INSTRUMENT=Thermo Q-Exactive Focus
PRECURSOR_MZ=750.2551
COMPOUND_NAME=Leprapinic acid methyl ether
ION_MODE=positive
FORMULA=C21H18O6
91.054695 1901924.0 
103.054573 1738441.5 
105.03373 2328857.0 
115.054291 5599748.5 
131.048981 2463958.25 
145.028046 4541087.0 
161.059326 21805690.0 
189.054138 38415040.0 
208.08754 1227218.875 
212.151413 870581.625 
219.080536 1286628.625 
223.113113 866182.0 
251.105911 74001056.0 
275.069641 1032380.3125 
279.100769 53144256.0 
292.072327 2051957.0 
307.059662 843698.1875 
307.095673 38229340.0 
331.418243 787384.375 
335.090363 92824808.0 
367.116608 50617028.0 
367.163727 426186.15625 
372.152863 202767.921875 
383.147766 184557.921875 
420.075256 68971.609375 
436.750061 11362.119141 
524.809814 205699.78125 
549.890808 14264.719727 
590.139893 646599.75 
617.991577 33756.753906 
775.240784 684165.75 
775.969666 86405.015625 
END IONS

BEGIN IONS
RTINSECONDS=420.072998
CHARGE=1+
MSLEVEL=2
SMILES=CC1(C)C2CC(=O)[C@@]3([C@@H]([C@]2(CCC1)C)CC[C@@H]1[C@@]2(C)CC[C@H](C(C)(O)C)[C@@H]2CC[C@@]31C)C
INCHI=InChI=1S/C30H50O2/c1-25(2)14-9-15-28(6)22-11-10-21-27(5)16-12-19(26(3,4)32)20(27)13-17-29(21,7)30(22,8)24(31)18-23(25)28/h19-23,32H,9-18H2,1-8H3/t19-,20-,21+,22+,23?,27-,28+,29+,30-/m0/s1
INCHIKEY=ZEVZEKQZSJYHOF-GMXIBUEMSA-N
CLASS=Terpenoids : Triterpenes
ADDUCT=[M+H]+
INSTRUMENT=Thermo Q-Exactive Focus
PRECURSOR_MZ=443.3889
COMPOUND_NAME=22-hydroxy-7-hopanone
ION_MODE=positive
FORMULA=C30H50O2
59.05019 107940.828125 
69.070892 92481.945312 
81.070801 207734.765625 
95.086311 304846.34375 
109.101929 281494.34375 
123.117325 510433.375 
135.117432 262064.296875 
149.132904 201651.546875 
163.148529 242738.25 
177.164246 254986.21875 
181.159134 176288.296875 
189.164093 110403.40625 
203.180252 106232.492188 
269.226898 196713.71875 
271.243042 59861.925781 
287.237274 106927.515625 
367.336731 173375.921875 
372.72522 21427.746094 
385.347198 36836.074219 
392.685638 6294.070801 
407.367767 333078.1875 
425.378571 625693.8125 
END IONS

BEGIN IONS
RTINSECONDS=107.306999
CHARGE=1+
MSLEVEL=2
SMILES=Oc1cc2c(c3c1C(=O)OC3)c1c(O)cc(C)c(C(=O)O)c1o2
INCHI=InChI=1S/C16H10O7/c1-5-2-7(17)13-12-6-4-22-16(21)11(6)8(18)3-9(12)23-14(13)10(5)15(19)20/h2-3,17-18H,4H2,1H3,(H,19,20)
INCHIKEY=QZYZPZAPRHESDA-UHFFFAOYSA-N
CLASS=Dibenzofuranes
ADDUCT=[M+H]+
INSTRUMENT=Thermo Q-Exactive Focus
PRECURSOR_MZ=315.0505
COMPOUND_NAME=Porphyrilic acid
ION_MODE=positive
FORMULA=C16H10O7
51.096344 13352.604492 
57.49313 56115.148438 
61.53598 14204.604492 
75.434647 69583.867188 
78.88308 53182.554688 
107.142433 65800.367188 
116.323174 59812.425781 
121.157082 18850.75 
135.238174 67218.03125 
157.84584 14171.74707 
195.04451 85440.625 
227.033875 83067.453125 
240.041946 69673.46875 
241.049286 97586.4375 
251.034424 197908.03125 
269.044312 1339422.75 
297.004547 137740.203125 
297.039185 4563392.5 
337.191101 2705.652344 
END IONS

BEGIN IONS
RTINSECONDS=140.964996
CHARGE=1+
MSLEVEL=2
SMILES=Cc1cc(=O)c2c(c(C)c(O)cc2O)o1
INCHI=InChI=1S/C11H10O4/c1-5-3-8(13)10-9(14)4-7(12)6(2)11(10)15-5/h3-4,12,14H,1-2H3
INCHIKEY=XSSGQRFNGHRFBC-UHFFFAOYSA-N
CLASS=Chromanes and Chromones
ADDUCT=[M+H]+
INSTRUMENT=Thermo Q-Exactive Focus
PRECURSOR_MZ=207.0657
COMPOUND_NAME=Isoeugenitol
ION_MODE=positive
FORMULA=C11H10O4
54.164097 1761732.5 
67.018723 2657008.0 
67.055099 1849211.125 
68.998009 3063021.5 
83.013496 4286579.5 
85.029076 4889557.0 
105.070915 2809259.5 
139.038849 2209954.75 
139.075302 2518440.5 
141.054855 453356.3125 
161.059753 2774778.0 
167.034012 4584779.5 
END IONS

BEGIN IONS
RTINSECONDS=230.785004
CHARGE=1+
MSLEVEL=2
SMILES=O=C1OC2=C(c3ccccc3)C(=O)OC2=C1c1ccccc1
INCHI=InChI=1S/C18H10O4/c19-17-13(11-7-3-1-4-8-11)15-16(22-17)14(18(20)21-15)12-9-5-2-6-10-12/h1-10H
INCHIKEY=KQTXUHHOWJUFOZ-UHFFFAOYSA-N
CLASS=Pulvinic Acid Derivatives
ADDUCT=[M+NH4]+
INSTRUMENT=Thermo Q-Exactive Focus
PRECURSOR_MZ=308.0923
COMPOUND_NAME=Pulvinic acid dilactone
ION_MODE=positive
FORMULA=C18H10O4
51.040249 6437.428223 
56.045132 5356.798828 
64.031158 6639.304688 
69.32103 9351.654297 
89.039352 13431.681641 
117.033813 9981.625977 
125.647461 5171.84375 
139.38533 5225.804688 
139.886505 7913.034668 
145.028442 34573.914062 
178.077637 16315.679688 
179.085724 49768.519531 
207.080612 447373.625 
217.06514 30229.175781 
235.075516 211061.21875 
245.059525 11289.651367 
263.070496 412751.71875 
291.065338 134488.765625 
END IONS

BEGIN IONS
RTINSECONDS=162.776993
CHARGE=1+
MSLEVEL=2
SMILES=O=C1C(=C(O)/C(=C(/c2ccccc2)\C(=O)OC)/O1)c1ccccc1
INCHI=InChI=1S/C19H14O5/c1-23-18(21)15(13-10-6-3-7-11-13)17-16(20)14(19(22)24-17)12-8-4-2-5-9-12/h2-11,20H,1H3/b17-15+
INCHIKEY=OMZRMXULWNMRAE-BMRADRMJSA-N
CLASS=Pulvinic Acid Derivatives
ADDUCT=[M+H+CH3OH]+
INSTRUMENT=Thermo Q-Exactive Focus
PRECURSOR_MZ=355.1182
COMPOUND_NAME=Vulpinic acid
ION_MODE=positive
FORMULA=C19H14O5
62.558865 6024.331543 
89.039177 11025.214844 
105.070572 11178.887695 
117.033913 14444.921875 
121.065018 12012.057617 
145.02829 127813.554688 
149.059845 17914.626953 
177.054398 30234.371094 
205.049347 164552.6875 
207.080872 152217.90625 
235.075211 74471.015625 
263.070068 167267.375 
279.101776 34559.171875 
291.065094 49380.308594 
323.091278 65996.195312 
334.961395 6832.958984 
379.518097 4900.211426 
END IONS

BEGIN IONS
RTINSECONDS=134.397003
CHARGE=1+
MSLEVEL=2
SMILES=Cc1c(c(C(=O)C)c(c2c1OC1=CC(=C(C(=O)C21C)C(=O)C)O)O)O
INCHI=InChI=1S/C18H16O7/c1-6-14(22)12(8(3)20)15(23)13-16(6)25-10-5-9(21)11(7(2)19)17(24)18(10,13)4/h5,21-23H,1-4H3
INCHIKEY=GRIDHCOCFJSWSY-UHFFFAOYSA-N
CLASS=Dibenzofuranes
ADDUCT=[M+H]+
INSTRUMENT=Thermo Q-Exactive Focus
PRECURSOR_MZ=345.0974
COMPOUND_NAME=Isousnic acid
ION_MODE=positive
FORMULA=C18H16O7
77.688599 4663.348145 
91.964386 7851.184082 
94.759819 5015.597656 
109.644508 4800.59082 
121.650795 5054.877441 
141.425323 5246.493652 
156.550125 4859.816406 
191.071747 7724.225098 
215.07077 10993.137695 
219.066788 14584.830078 
233.081131 66465.375 
261.076752 29997.525391 
285.077179 5782.876953 
299.092499 7944.572266 
303.087463 13681.600586 
309.076508 6559.958496 
327.086517 20593.160156 
END IONS

BEGIN IONS
RTINSECONDS=284.890015
CHARGE=1+
MSLEVEL=2
SMILES=CC(C[C@H](NC(=O)/C(=C\1/C(=C(c2ccccc2)C(=O)O1)O)/c1ccccc1)C(=O)O)C
INCHI=InChI=1S/C24H23NO6/c1-14(2)13-17(23(28)29)25-22(27)19(16-11-7-4-8-12-16)21-20(26)18(24(30)31-21)15-9-5-3-6-10-15/h3-12,14,17,26H,13H2,1-2H3,(H,25,27)(H,28,29)/b21-19-/t17-/m0/s1
INCHIKEY=ZQLBONJLBKDOLE-UFVMTTLYSA-N
CLASS=Pulvinic Acid Derivatives
ADDUCT=[M+NH4]+
INSTRUMENT=Thermo Q-Exactive Focus
PRECURSOR_MZ=439.1869
COMPOUND_NAME=Norepanorin
ION_MODE=positive
FORMULA=C24H23NO6
57.582226 72798.617188 
86.097046 6867488.5 
91.970795 79614.03125 
103.944405 79321.351562 
105.033798 84419.976562 
132.101944 4409508.5 
145.02858 141988.46875 
178.078293 70663.835938 
179.085617 349378.34375 
207.080322 3363329.5 
217.06543 280124.03125 
235.075058 2751198.5 
235.098755 103861.359375 
245.059647 128467.53125 
263.070007 5498523.0 
291.064636 798559.9375 
305.493652 7000.510254 
344.159851 31703.154297 
404.145966 63906.421875 
422.159241 2226432.75 
END IONS

BEGIN IONS
RTINSECONDS=144.134995
CHARGE=1+
MSLEVEL=2
SMILES=[C@@H]1(CC(=O)N2[C@H](C(=O)N[C@H](CC(=O)N3[C@@H](C(=O)N1)CCC3)c1ccccc1)CCC2)c1ccccc1
INCHI=InChI=1S/C28H32N4O4/c33-25-17-21(19-9-3-1-4-10-19)29-27(35)23-13-7-16-32(23)26(34)18-22(20-11-5-2-6-12-20)30-28(36)24-14-8-15-31(24)25/h1-6,9-12,21-24H,7-8,13-18H2,(H,29,35)(H,30,36)/t21-,22-,23-,24+/m1/s1
INCHIKEY=PDLPVRYEPINIBU-YCAMKHIRSA-N
CLASS=N-Containing Compounds
ADDUCT=[M+Na]+
INSTRUMENT=Thermo Q-Exactive Focus
PRECURSOR_MZ=511.2321
COMPOUND_NAME=Roccanin
ION_MODE=positive
FORMULA=C28H32N4O4
89.422295 67717.429688 
91.970215 107852.3125 
249.099274 135486.328125 
267.109589 696917.375 
284.136902 96278.421875 
355.1409 263322.0 
363.176636 69742.585938 
END IONS

BEGIN IONS
RTINSECONDS=291.442993
CHARGE=1+
MSLEVEL=2
SMILES=CCCCCc1cc(cc(c1C(=O)O)OC)OC(=O)c1c(cc(cc1CC(=O)CCCCC)OC)O
INCHI=InChI=1S/C28H36O8/c1-5-7-9-11-18-14-22(17-24(35-4)26(18)27(31)32)36-28(33)25-19(13-20(29)12-10-8-6-2)15-21(34-3)16-23(25)30/h14-17,30H,5-13H2,1-4H3,(H,31,32)
INCHIKEY=UANVCGQMNRTKGM-UHFFFAOYSA-N
CLASS=Depsides (Didepsides)
ADDUCT=[M+H]+
INSTRUMENT=Thermo Q-Exactive Focus
PRECURSOR_MZ=501.2488
COMPOUND_NAME=Confluentic acid
ION_MODE=positive
FORMULA=C28H36O8
55.055222 461855.53125 
69.070854 616364.3125 
71.086319 620455.3125 
107.04966 1213523.5 
124.052177 2663231.75 
137.059952 4460218.5 
163.075439 4201995.0 
175.075577 4173883.5 
195.138809 4319955.0 
221.117508 18322238.0 
235.133118 6719068.5 
239.127899 10612372.0 
263.12793 51701452.0 
END IONS

BEGIN IONS
RTINSECONDS=186.737
CHARGE=1+
MSLEVEL=2
SMILES=CC(=O)c1c(OC)cc(OC)cc1O
INCHI=InChI=1S/C10H12O4/c1-6(11)10-8(12)4-7(13-2)5-9(10)14-3/h4-5,12H,1-3H3
INCHIKEY=FBUBVLUPUDBFME-UHFFFAOYSA-N
CLASS=Cleavage Products of Depsides and Depsidones
ADDUCT=[M+H]+
INSTRUMENT=Thermo Q-Exactive Focus
PRECURSOR_MZ=197.0814
COMPOUND_NAME="2-Hydroxy-4,6-dimethoxyacetophenone"
ION_MODE=positive
FORMULA=C10H12O4
81.034142 4294610.5 
91.054817 6857793.5 
123.080734 7768401.5 
133.064941 7697190.5 
151.075394 45877960.0 
155.070282 16063089.0 
179.070328 94271320.0 
END IONS

BEGIN IONS
RTINSECONDS=261.753998
CHARGE=1+
MSLEVEL=2
SMILES=Cc1cc(c(c(c1C(=O)O)O)C)OC(=O)c1c(c(c(cc1C)OC)C)OC
INCHI=InChI=1S/C20H22O7/c1-9-8-14(11(3)17(21)15(9)19(22)23)27-20(24)16-10(2)7-13(25-5)12(4)18(16)26-6/h7-8,21H,1-6H3,(H,22,23)
INCHIKEY=MIJKZXWOOXIEEU-UHFFFAOYSA-N
CLASS=Depsides (Didepsides)
ADDUCT=[2M+Na]+
INSTRUMENT=Thermo Q-Exactive Focus
PRECURSOR_MZ=771.2629
COMPOUND_NAME=Diffractaic acid
ION_MODE=positive
FORMULA=C20H22O7
61.171467 86708.460938 
68.085999 89159.132812 
88.198563 104167.796875 
91.964218 88787.523438 
105.651184 96668.585938 
111.248375 90165.875 
129.450684 50810.203125 
157.002304 29050.351562 
173.483917 55804.609375 
187.036728 551584.8125 
193.085922 3712502.0 
220.097092 43286.566406 
222.077042 42873.980469 
233.07869 31997.275391 
242.827225 41915.761719 
281.340057 9236.694336 
379.065704 50485.871094 
379.114899 3012595.75 
379.158783 5347.580566 
397.125519 12448060.0 
408.972412 31114.347656 
415.136108 134117.296875 
438.153473 6940.351562 
485.602081 4445.623047 
493.646301 8687.536133 
521.382751 21940.273438 
623.743225 23318.34375 
680.319458 47329.097656 
741.510803 4169.866211 
743.433838 50760.867188 
746.25647 135339.59375 
END IONS

BEGIN IONS
RTINSECONDS=277.377991
CHARGE=1+
MSLEVEL=2
SMILES=Cc1c2c(Oc3c(OC2=O)c(c(c(c3C)Cl)OC)C)c(C=O)c(O)c1Cl
INCHI=InChI=1S/C18H14Cl2O6/c1-6-10-17(9(5-21)13(22)11(6)19)25-15-7(2)12(20)14(24-4)8(3)16(15)26-18(10)23/h5,22H,1-4H3
INCHIKEY=SNNDIPJEAQAKTJ-UHFFFAOYSA-N
CLASS=Depsidones
ADDUCT=[M+H+CH3OH]+
INSTRUMENT=Thermo Q-Exactive Focus
PRECURSOR_MZ=429.0508
COMPOUND_NAME=Argopsin
ION_MODE=positive
FORMULA=C18H14Cl2O6
58.01931 6811.868652 
79.054863 8994.292969 
79.226151 7121.100586 
91.054939 16301.368164 
91.969849 11128.634766 
127.031715 10144.691406 
135.044708 14099.240234 
155.026215 39861.378906 
157.041748 34012.996094 
185.036621 201679.171875 
186.045364 23250.486328 
212.995377 15039.686523 
228.991241 12222.850586 
237.031754 24178.824219 
277.062958 15423.609375 
290.999237 22410.326172 
305.058044 19722.984375 
333.050781 33904.207031 
351.018555 68274.984375 
379.013824 139077.359375 
397.024323 103193.539062 
411.038757 63615.265625 
END IONS

BEGIN IONS
RTINSECONDS=107.625
CHARGE=1+
MSLEVEL=2
SMILES=Oc1cc2c(c3c1C(=O)OC3)c1c(O)cc(C)c(C(=O)O)c1o2
INCHI=InChI=1S/C16H10O7/c1-5-2-7(17)13-12-6-4-22-16(21)11(6)8(18)3-9(12)23-14(13)10(5)15(19)20/h2-3,17-18H,4H2,1H3,(H,19,20)
INCHIKEY=QZYZPZAPRHESDA-UHFFFAOYSA-N
CLASS=Dibenzofuranes
ADDUCT=[2M+NH4]+
INSTRUMENT=Thermo Q-Exactive Focus
PRECURSOR_MZ=646.1197
COMPOUND_NAME=Porphyrilic acid
ION_MODE=positive
FORMULA=C16H10O7
58.176975 7850.776367 
60.824902 7305.029297 
66.535889 8225.908203 
71.750992 8050.741699 
76.979919 7573.339844 
91.967728 16179.643555 
139.055115 7373.211914 
147.314621 3639.608643 
150.954544 4288.086426 
187.168533 7793.666992 
194.976776 3429.943604 
222.003998 7618.95166 
269.044098 90085.085938 
270.859985 7839.306641 
297.004761 17582.962891 
297.039185 617043.875 
310.20575 7534.829102 
315.049652 2237652.25 
382.340302 9587.094727 
386.490356 8837.723633 
410.62558 8087.207031 
417.184814 9845.375 
447.347321 4733.514648 
END IONS

BEGIN IONS
RTINSECONDS=294.492004
CHARGE=1+
MSLEVEL=2
SMILES=O=C1Oc2c(c3C[C@@](O)(CCCCC)OC(=O)c3c(O)c2)Oc2c1c(cc(c2)OC)CC(=O)CCCCC
INCHI=InChI=1S/C29H34O9/c1-4-6-8-10-18(30)12-17-13-19(35-3)14-22-24(17)27(32)37-23-15-21(31)25-20(26(23)36-22)16-29(34,38-28(25)33)11-9-7-5-2/h13-15,31,34H,4-12,16H2,1-3H3/t29-/m1/s1
INCHIKEY=DQYWDDCXRXABIH-GDLZYMKVSA-N
CLASS=Depsidones
ADDUCT=[M+Na]+
INSTRUMENT=Thermo Q-Exactive Focus
PRECURSOR_MZ=549.2101
COMPOUND_NAME=Alpha-collatolic acid
ION_MODE=positive
FORMULA=C29H34O9
50.680046 34327.117188 
50.840588 47366.910156 
57.030472 46277.539062 
91.964867 169882.109375 
255.099319 53182.464844 
270.086395 1067423.375 
284.102203 915368.4375 
407.148163 75291.382812 
433.126587 227681.5625 
461.232208 124552.914062 
463.210358 117906.828125 
505.22052 1680417.0 
531.200317 527054.6875 
END IONS

BEGIN IONS
RTINSECONDS=333.52301
CHARGE=1+
MSLEVEL=2
SMILES=CCCCCCCCCCCCC[C@@H]1OC(=O)C(=C)[C@@H]1C(=O)O
INCHI=InChI=1S/C19H32O4/c1-3-4-5-6-7-8-9-10-11-12-13-14-16-17(18(20)21)15(2)19(22)23-16/h16-17H,2-14H2,1H3,(H,20,21)/t16-,17-/m0/s1
INCHIKEY=WZYZDHVPSZCEEP-IRXDYDNUSA-N
CLASS=Paraconic acids
ADDUCT=[M+NH4]+
INSTRUMENT=Thermo Q-Exactive Focus
PRECURSOR_MZ=342.2644
COMPOUND_NAME=allo-Protolichesterinic acid
ION_MODE=positive
FORMULA=C19H32O4
67.055122 101592.359375 
81.070503 167231.625 
83.086205 136953.703125 
93.070496 110522.5 
95.086082 178162.359375 
121.101311 143018.9375 
135.11702 176503.28125 
149.060349 75832.09375 
163.075714 92977.898438 
233.226364 181020.015625 
243.210526 188447.890625 
261.221863 172530.140625 
289.216125 196476.59375 
307.226654 301208.03125 
325.237396 171856.53125 
END IONS

BEGIN IONS
RTINSECONDS=202.451996
CHARGE=1+
MSLEVEL=2
SMILES=Cc1c(C(=O)OC)c(OC)cc2c1c1c(cc(c(C(=O)O)c1o2)C)OC
INCHI=InChI=1S/C19H18O7/c1-8-6-10(23-3)16-14-9(2)15(19(22)25-5)11(24-4)7-12(14)26-17(16)13(8)18(20)21/h6-7H,1-5H3,(H,20,21)
INCHIKEY=WBIQYHZEYQDKCL-UHFFFAOYSA-N
CLASS=Dibenzofuranes
ADDUCT=[M+H]+
INSTRUMENT=Thermo Q-Exactive Focus
PRECURSOR_MZ=359.1131
COMPOUND_NAME=Schizopeltic acid
ION_MODE=positive
FORMULA=C19H18O7
91.965401 1252800.75 
183.081085 154269.3125 
183.414566 24929.441406 
210.066971 2005259.625 
212.083572 1146117.625 
266.057861 3767021.25 
283.060944 4008426.25 
298.083893 6203441.5 
312.063202 26177506.0 
313.107941 4255598.5 
327.086639 135714944.0 
341.102448 73255832.0 
END IONS

BEGIN IONS
RTINSECONDS=210.714996
CHARGE=1+
MSLEVEL=2
SMILES=CC1C(OC2(C(C3C(C(=O)C2(C(=O)O3)C)C)C)C(C1OC(=O)C)C)C
INCHI=InChI=1S/C19H28O6/c1-8-12(5)25-19(10(3)14(8)23-13(6)20)11(4)15-9(2)16(21)18(19,7)17(22)24-15/h8-12,14-15H,1-7H3
INCHIKEY=CMTSHPFXBUQFIX-UHFFFAOYSA-N
CLASS=Aliphatic and Cycloaliphatic Compounds
ADDUCT=[M+Na]+
INSTRUMENT=Thermo Q-Exactive Focus
PRECURSOR_MZ=375.1784
COMPOUND_NAME=Acetylportentol
ION_MODE=positive
FORMULA=C19H28O6
50.836212 34944.773438 
72.730408 33506.023438 
83.013496 82075.234375 
85.647156 39325.507812 
91.968742 43887.296875 
123.080765 71350.023438 
135.116623 67525.554688 
141.054672 63313.78125 
153.127472 95585.03125 
163.036621 134754.953125 
201.163681 17876.472656 
235.128998 12858.950195 
271.167999 45911.519531 
275.16156 14975.211914 
278.466095 45400.773438 
293.17511 40237.789062 
315.156464 745439.0 
333.167084 25234.046875 
END IONS

BEGIN IONS
RTINSECONDS=400.60199
CHARGE=1+
MSLEVEL=2
SMILES=CC1(C)[C@@H](OC(=O)C)C[C@@H](OC(=O)C)[C@]2(C)[C@H]3CC[C@@H]4[C@@]5(C)CC[C@H](C(C)(O)C)[C@@H]5CC[C@@]4(C)[C@]3(C)CCC12
INCHI=InChI=1S/C34H56O5/c1-20(35)38-27-19-28(39-21(2)36)34(10)24(29(27,3)4)15-18-33(9)26(34)12-11-25-31(7)16-13-22(30(5,6)37)23(31)14-17-32(25,33)8/h22-28,37H,11-19H2,1-10H3/t22-,23-,24?,25+,26-,27-,28+,31-,32+,33+,34-/m0/s1
INCHIKEY=HIGXRAWIRQTPEC-GAGXLZTKSA-N
CLASS=Terpenoids : Triterpenes
ADDUCT=[M+NH4]+
INSTRUMENT=Thermo Q-Exactive Focus
PRECURSOR_MZ=562.4471
COMPOUND_NAME="1beta,3beta-diacetoxy-22-hopanol"
ION_MODE=positive
FORMULA=C34H56O5
55.055134 4292592.5 
81.070786 21037422.0 
95.08625 36505636.0 
107.086151 23827572.0 
109.101822 26585642.0 
121.101685 24570420.0 
135.117218 23079724.0 
149.13298 25904858.0 
191.17984 15304530.0 
201.164139 12243499.0 
203.179871 17548300.0 
217.195419 23552892.0 
257.22699 4560127.0 
271.243622 2631460.25 
283.243195 2901958.75 
367.33667 13063892.0 
407.367889 80722000.0 
425.37915 12475618.0 
467.389343 14853604.0 
527.409119 17551094.0 
544.436829 9205940.0 
END IONS

BEGIN IONS
RTINSECONDS=378.460999
CHARGE=1+
MSLEVEL=2
SMILES=CC1(C)C(CC[C@@]2(C)C3CCC4C2(C)CCC5[C@H](O)C(CCC54C)(C)C)C3(C)CCC1=O
INCHI=InChI=1S/C30H48O/c1-19(2)20-11-15-27(5)21(20)12-17-29(7)23(27)9-10-24-28(6)16-14-25(31)26(3,4)22(28)13-18-30(24,29)8/h21-24H,9-18H2,1-8H3/t21-,22?,23+,24+,27-,28-,29+,30+/m0/s1
INCHIKEY=ZQDCMFHXUJCDNU-SYQMSMRNSA-N
CLASS=Terpenoids : Triterpenes
ADDUCT=[M+H+CH3CN]+
INSTRUMENT=Thermo Q-Exactive Focus
PRECURSOR_MZ=484.4155
COMPOUND_NAME=21-Hopen-3-on
ION_MODE=positive
FORMULA=C30H50O2
95.08606 42550.03125 
107.086075 23895.984375 
109.101646 88455.296875 
119.086227 23032.552734 
121.101486 31756.943359 
135.117126 21320.542969 
189.164093 27895.814453 
191.181396 24660.75 
203.179718 29273.492188 
207.174377 13832.250977 
217.195541 18123.632812 
262.624329 6470.65625 
272.795837 6516.25 
297.258423 10938.055664 
315.268799 13752.726562 
329.28244 6462.291016 
359.446594 6208.209961 
384.689941 5715.699219 
422.719116 5731.775391 
425.376373 59597.800781 
427.014771 5879.182129 
443.389099 56728.53125 
461.586945 7682.210449 
499.576111 7247.045898 
END IONS

BEGIN IONS
RTINSECONDS=276.149994
CHARGE=1+
MSLEVEL=2
SMILES=CC(=O)CCCCCCCCCCCCC[C@H]1OC(=O)C(=C1C(=O)O)C
INCHI=InChI=1S/C21H34O5/c1-16(22)14-12-10-8-6-4-3-5-7-9-11-13-15-18-19(20(23)24)17(2)21(25)26-18/h18H,3-15H2,1-2H3,(H,23,24)/t18-/m1/s1
INCHIKEY=KYSXDEQQOVVLIN-GOSISDBHSA-N
CLASS=Paraconic acids
ADDUCT=[M+NH4]+
INSTRUMENT=Thermo Q-Exactive Focus
PRECURSOR_MZ=384.275
COMPOUND_NAME=Isomuronic acid
ION_MODE=positive
FORMULA=C21H34O5
67.055481 11948348.0 
81.070854 29839214.0 
83.08651 12754190.0 
93.070709 12728611.0 
95.086815 36745972.0 
109.102432 24422996.0 
121.065331 21175970.0 
135.118103 12171101.0 
271.227997 17048622.0 
275.239227 5714552.5 
303.232697 22280930.0 
321.244049 9344966.0 
331.227936 13442395.0 
349.238281 33892820.0 
367.249207 169012608.0 
END IONS

BEGIN IONS
RTINSECONDS=256.52301
CHARGE=1+
MSLEVEL=2
SMILES=O=C1c2c(C)c(Cl)c(O)c(Cl)c2Oc2c(O1)c(c(c(c2C)Cl)OC)Cl
INCHI=InChI=1S/C16H10Cl4O5/c1-4-6-13(9(19)11(21)7(4)17)24-12-5(2)8(18)14(23-3)10(20)15(12)25-16(6)22/h21H,1-3H3
INCHIKEY=AXZCNBVMHHTPKA-UHFFFAOYSA-N
CLASS=Depsidones
ADDUCT=[M+H+CH3OH]+
INSTRUMENT=Thermo Q-Exactive Focus
PRECURSOR_MZ=454.9623
COMPOUND_NAME=Diploicin
ION_MODE=positive
FORMULA=C16H10Cl4O5
67.018875 7808.132812 
70.353088 7382.717285 
87.534393 7490.126953 
95.049957 9049.699219 
99.000206 14525.544922 
113.015976 16923.402344 
142.018051 48177.707031 
169.005524 130666.992188 
170.013 75966.320312 
176.987 271423.96875 
204.98201 312767.6875 
205.989868 174453.109375 
217.953644 45522.195312 
235.964096 40042.519531 
266.997498 37989.714844 
294.993469 25858.335938 
296.001221 37389.648438 
323.99585 17619.402344 
330.969025 65316.128906 
346.964691 16650.570312 
358.964508 80599.320312 
386.958069 45623.808594 
387.965759 13834.564453 
394.939453 16870.425781 
422.935822 252321.46875 
END IONS

BEGIN IONS
RTINSECONDS=201.600998
CHARGE=1+
MSLEVEL=2
SMILES=O=C1O/C(=C(/C(=O)N[C@H](C(=O)O)Cc2ccccc2)\c2ccccc2)/C(=C1c1ccccc1)O
INCHI=InChI=1S/C27H21NO6/c29-23-21(18-12-6-2-7-13-18)27(33)34-24(23)22(19-14-8-3-9-15-19)25(30)28-20(26(31)32)16-17-10-4-1-5-11-17/h1-15,20,29H,16H2,(H,28,30)(H,31,32)/b24-22+/t20-/m0/s1
INCHIKEY=XTLHEUFWRQKNNG-YVURAWIMSA-N
CLASS=Pulvinic Acid Derivatives
ADDUCT=[2M+Na]+
INSTRUMENT=Thermo Q-Exactive Focus
PRECURSOR_MZ=933.2635
COMPOUND_NAME=Norrhizocarpic acid
ION_MODE=positive
FORMULA=C27H21NO6
67.068657 9227.361328 
78.354927 11276.619141 
81.002266 10357.926758 
101.298668 8951.242188 
103.536255 9908.467773 
179.785797 9727.182617 
183.138412 9958.708984 
188.069443 26545.058594 
201.355804 10282.561523 
231.958939 10859.425781 
234.354141 9623.056641 
235.03656 9860.785156 
264.887451 9672.076172 
287.068817 88430.03125 
331.058258 19937.392578 
404.545929 11633.90918 
478.128204 411909.90625 
END IONS

BEGIN IONS
RTINSECONDS=190.110992
CHARGE=1+
MSLEVEL=2
SMILES=O=C1c2c(C)cc(OC)c(C)c2Oc2c(O1)cc(c(c2C)C(=O)O)O
INCHI=InChI=1S/C18H16O7/c1-7-5-11(23-4)8(2)16-13(7)18(22)24-12-6-10(19)14(17(20)21)9(3)15(12)25-16/h5-6,19H,1-4H3,(H,20,21)
INCHIKEY=IXEVSIMCIWOSQO-UHFFFAOYSA-N
CLASS=Depsidones
ADDUCT=[M+H]+
INSTRUMENT=Thermo Q-Exactive Focus
PRECURSOR_MZ=345.0974
COMPOUND_NAME=Notatic acid
ION_MODE=positive
FORMULA=C18H16O7
54.168709 14886.626953 
83.013542 215301.765625 
159.080994 58155.09375 
173.096649 1946565.875 
201.091293 2605540.5 
203.107178 1507638.5 
229.086472 3854397.5 
231.101822 27482340.0 
257.081146 4270958.0 
259.09668 12198264.0 
271.060242 4197797.5 
285.075958 121273208.0 
327.086426 15520124.0 
327.121826 731177.25 
END IONS

BEGIN IONS
RTINSECONDS=322.230988
CHARGE=1+
MSLEVEL=2
SMILES=CC(C)C[C@@H](C(=O)OC)NC(=O)/C(=C\1/C(=C(C(=O)O1)c1ccccc1)O)/c1ccccc1
INCHI=InChI=1S/C25H25NO6/c1-15(2)14-18(24(29)31-3)26-23(28)20(17-12-8-5-9-13-17)22-21(27)19(25(30)32-22)16-10-6-4-7-11-16/h4-13,15,18,27H,14H2,1-3H3,(H,26,28)/b22-20-/t18-/m0/s1
INCHIKEY=IBSRGCBHIASQMQ-BKBKCADHSA-N
CLASS=Pulvinic Acid Derivatives
ADDUCT=[2M+NH4]+
INSTRUMENT=Thermo Q-Exactive Focus
PRECURSOR_MZ=888.3707
COMPOUND_NAME=Epanorin
ION_MODE=positive
FORMULA=C25H25NO6
69.070641 1032748.0 
86.09684 103163096.0 
145.028061 1215347.375 
146.117142 66518752.0 
178.077408 1383617.375 
179.085083 3203218.25 
207.080002 29741462.0 
217.064117 2190033.25 
235.0746 27669892.0 
245.059158 2187389.5 
263.069397 49113396.0 
291.063995 6901048.0 
356.725769 736455.125 
404.148041 45312.976562 
436.174164 81076872.0 
END IONS

BEGIN IONS
RTINSECONDS=343.618011
CHARGE=1+
MSLEVEL=2
SMILES=CC(C)(C)CCCCCCCCCC1C(C(=O)O)C(C(=O)O1)C
INCHI=InChI=1S/C19H34O4/c1-14-16(17(20)21)15(23-18(14)22)12-10-8-6-5-7-9-11-13-19(2,3)4/h14-16H,5-13H2,1-4H3,(H,20,21)
INCHIKEY=NRFWTRPHJATQOB-UHFFFAOYSA-N
CLASS=Paraconic acids
ADDUCT=[M+H+CH3CN]+
INSTRUMENT=Thermo Q-Exactive Focus
PRECURSOR_MZ=368.2801
COMPOUND_NAME=Neodihydroprotolichesterinic acid
ION_MODE=positive
FORMULA=C19H34O4
67.054886 72950.03125 
69.070465 78446.820312 
81.070229 143779.515625 
83.085899 71650.492188 
95.085808 145902.0625 
109.101387 86532.84375 
133.100723 57559.613281 
147.116394 41573.996094 
161.132019 27088.654297 
207.210098 60576.949219 
217.194336 37997.429688 
245.225601 98344.820312 
263.235901 158311.015625 
273.220215 11408.083008 
281.246552 66022.773438 
291.230713 85207.507812 
309.241211 104091.132812 
327.251801 37904.402344 
337.762115 3279.040771 
END IONS

BEGIN IONS
RTINSECONDS=105.032997
CHARGE=1+
MSLEVEL=2
SMILES=Cc1cc(=O)c2c(cc3c(C(=CC(=O)C3=O)OC)c2OC)o1
INCHI=InChI=1S/C16H12O6/c1-7-4-9(17)14-12(22-7)5-8-13(16(14)21-3)11(20-2)6-10(18)15(8)19/h4-6H,1-3H3
INCHIKEY=GESAVORGYOGKOW-UHFFFAOYSA-N
CLASS=Quinones
ADDUCT=[2M+Na]+
INSTRUMENT=Thermo Q-Exactive Focus
PRECURSOR_MZ=623.1165
COMPOUND_NAME=Canarione dimethylether
ION_MODE=positive
FORMULA=C16H12O6
91.963501 248704.03125 
323.051361 24118692.0 
341.061798 2500642.75 
END IONS

BEGIN IONS
RTINSECONDS=172.210999
CHARGE=1+
MSLEVEL=2
SMILES=Cc1cc(=O)c2c(c(c(cc2o1)OC)COC(=O)/C=C(\C)/CC(=O)O)O
INCHI=InChI=1S/C18H18O8/c1-9(4-15(20)21)5-16(22)25-8-11-13(24-3)7-14-17(18(11)23)12(19)6-10(2)26-14/h5-7,23H,4,8H2,1-3H3,(H,20,21)/b9-5+
INCHIKEY=JSLBEJMNMZJONS-WEVVVXLNSA-N
CLASS=Chromanes and Chromones
ADDUCT=[M+Na]+
INSTRUMENT=Thermo Q-Exactive Focus
PRECURSOR_MZ=385.0899
COMPOUND_NAME=Lepraric acid
ION_MODE=positive
FORMULA=C18H18O8
51.78363 18196.900391 
57.634892 20473.066406 
63.03973 22535.947266 
92.314316 23889.941406 
98.211632 25234.136719 
122.895767 23765.992188 
123.515472 20351.236328 
160.110382 26514.908203 
163.181122 26372.953125 
189.05542 73929.523438 
195.898056 28087.736328 
219.064865 282777.5625 
241.046783 2753375.75 
256.023132 5771.500977 
268.478394 23704.28125 
282.886322 6204.918945 
313.785004 5275.549316 
317.448212 27877.720703 
332.965637 5814.243164 
345.61319 5357.472656 
END IONS

BEGIN IONS
RTINSECONDS=264.345001
CHARGE=1+
MSLEVEL=2
SMILES=CC12C(=O)C(=C(C=C1Oc1c2c(O)c(C)c(O)c1C(=O)C)O)C(=O)C
INCHI=InChI=1S/C18H16O7/c1-6-14(22)12(8(3)20)16-13(15(6)23)18(4)10(25-16)5-9(21)11(7(2)19)17(18)24/h5,21-23H,1-4H3
INCHIKEY=WEYVVCKOOFYHRW-UHFFFAOYSA-N
CLASS=Dibenzofuranes
ADDUCT=[M+H+CH3OH]+
INSTRUMENT=Thermo Q-Exactive Focus
PRECURSOR_MZ=377.1236
COMPOUND_NAME=Usnic acid
ION_MODE=positive
FORMULA=C18H16O7
56.419456 18619.464844 
85.028969 273325.1875 
127.039116 47751.4375 
181.050079 271221.6875 
182.05809 111554.679688 
195.065735 171217.5 
196.073654 267743.15625 
219.065781 213789.515625 
233.081009 1136328.625 
243.065704 182652.828125 
251.091278 311243.25 
261.076141 574681.0625 
303.086639 494109.84375 
317.102661 279830.0 
327.086273 330196.9375 
344.090576 261875.671875 
345.097168 1922071.625 
359.11319 230429.96875 
END IONS

BEGIN IONS
RTINSECONDS=272.540985
CHARGE=1+
MSLEVEL=2
SMILES=Cc1c2c(Oc3c(OC2=O)c(c(c(c3C)Cl)OC)C)c(C=O)c(O)c1Cl
INCHI=InChI=1S/C18H14Cl2O6/c1-6-10-17(9(5-21)13(22)11(6)19)25-15-7(2)12(20)14(24-4)8(3)16(15)26-18(10)23/h5,22H,1-4H3
INCHIKEY=SNNDIPJEAQAKTJ-UHFFFAOYSA-N
CLASS=Depsidones
ADDUCT=[M+H]+
INSTRUMENT=Thermo Q-Exactive Focus
PRECURSOR_MZ=397.0246
COMPOUND_NAME=Argopsin
ION_MODE=positive
FORMULA=C18H14Cl2O6
54.826969 74003.078125 
70.89814 88614.328125 
91.055099 127067.421875 
98.306641 100548.398438 
121.065063 101925.234375 
122.073051 230074.90625 
123.080391 147075.015625 
157.041763 1407470.375 
185.036804 244227.5 
212.99527 813904.9375 
277.062286 600912.375 
291.041809 503480.34375 
305.057587 885432.6875 
325.974731 693253.3125 
333.052551 683804.8125 
340.997742 921366.75 
361.048126 374546.3125 
END IONS

BEGIN IONS
RTINSECONDS=134.291
CHARGE=1+
MSLEVEL=2
SMILES=O=C1c2c(C)cc(OC)c(C=O)c2Oc2c(O1)c(c(c1c2C(O)OC1=O)O)C
INCHI=InChI=1S/C19H14O9/c1-6-4-9(25-3)8(5-20)15-10(6)17(22)27-14-7(2)13(21)11-12(16(14)26-15)19(24)28-18(11)23/h4-5,19,21,24H,1-3H3
INCHIKEY=SKCUFZLDTAYNBZ-UHFFFAOYSA-N
CLASS=Depsidones
ADDUCT=[M+H+CH3OH]+
INSTRUMENT=Thermo Q-Exactive Focus
PRECURSOR_MZ=419.0978
COMPOUND_NAME=Stictic acid
ION_MODE=positive
FORMULA=C19H14O9
50.858215 28914.341797 
53.619968 28748.556641 
73.592903 30482.652344 
74.826279 34053.792969 
81.545631 28280.099609 
83.013626 35487.570312 
153.327774 11085.566406 
156.69957 5877.437012 
177.825455 33813.378906 
193.050079 107362.984375 
203.070908 35074.152344 
231.065506 383849.5 
270.052856 79554.351562 
295.060791 98020.25 
297.076294 342711.1875 
313.07074 155503.90625 
315.086304 1250861.75 
341.065887 2274957.0 
343.081512 392692.53125 
355.081879 532408.625 
373.091675 175090.71875 
391.102417 85097.8125 
440.093323 5942.83252 
END IONS

BEGIN IONS
RTINSECONDS=184.845001
CHARGE=1+
MSLEVEL=2
SMILES=CC(C[C@H](NC(=O)/C(=C\1/C(=C(c2ccccc2)C(=O)O1)O)/c1ccccc1)C(=O)O)C
INCHI=InChI=1S/C24H23NO6/c1-14(2)13-17(23(28)29)25-22(27)19(16-11-7-4-8-12-16)21-20(26)18(24(30)31-21)15-9-5-3-6-10-15/h3-12,14,17,26H,13H2,1-2H3,(H,25,27)(H,28,29)/b21-19-/t17-/m0/s1
INCHIKEY=ZQLBONJLBKDOLE-UFVMTTLYSA-N
CLASS=Pulvinic Acid Derivatives
ADDUCT=[M+H]+
INSTRUMENT=Thermo Q-Exactive Focus
PRECURSOR_MZ=422.1604
COMPOUND_NAME=Norepanorin
ION_MODE=positive
FORMULA=C24H23NO6
57.236427 101326.757812 
86.09716 2598373.0 
91.970177 398477.6875 
105.034004 53510.921875 
117.034218 48847.460938 
132.102219 1421035.25 
145.028625 212277.4375 
178.07814 137759.53125 
179.085846 737656.8125 
207.080582 6758693.5 
217.065262 331081.75 
235.075455 3981766.0 
245.060104 194071.796875 
263.070374 6967348.5 
265.086975 74462.25 
291.065186 1782918.125 
376.154572 464149.96875 
404.150665 67163.640625 
END IONS

BEGIN IONS
RTINSECONDS=279.237
CHARGE=1+
MSLEVEL=2
SMILES=O=C(OC)/C(=C\1/OC(=O)C(=C1O)c1ccccc1)/c1c(OC)cccc1
INCHI=InChI=1S/C20H16O6/c1-24-14-11-7-6-10-13(14)16(19(22)25-2)18-17(21)15(20(23)26-18)12-8-4-3-5-9-12/h3-11,21H,1-2H3/b18-16+
INCHIKEY=IWYVMUDIEOXASM-FBMGVBCBSA-N
CLASS=Pulvinic Acid Derivatives
ADDUCT=[M+H]+
INSTRUMENT=Thermo Q-Exactive Focus
PRECURSOR_MZ=353.1025
COMPOUND_NAME=Leprapinic acid
ION_MODE=positive
FORMULA=C20H16O6
54.886143 57504.144531 
89.039055 2080687.5 
91.054688 12180175.0 
117.03344 1704883.0 
119.04908 50215548.0 
145.028152 7126333.5 
147.043808 52475648.0 
175.038589 24330140.0 
194.072525 3302381.0 
209.095764 1255492.875 
237.090393 14227202.0 
237.111938 1323560.375 
247.07486 2392682.75 
265.085602 11733130.0 
278.056793 3359867.75 
293.080078 33503514.0 
321.074982 35291780.0 
END IONS

BEGIN IONS
RTINSECONDS=130.947998
CHARGE=1+
MSLEVEL=2
SMILES=CC(=O)c1c(c2c(o1)cc1c(c2O)C(=O)C(=O)C(=C1O)OC)O
INCHI=InChI=1S/C15H10O8/c1-4(16)14-12(20)8-6(23-14)3-5-7(10(8)18)11(19)13(21)15(22-2)9(5)17/h3,17-18,20H,1-2H3
INCHIKEY=XKWWCTISHMFHJB-UHFFFAOYSA-N
CLASS=Quinones
ADDUCT=[M+H]+
INSTRUMENT=Thermo Q-Exactive Focus
PRECURSOR_MZ=319.0454
COMPOUND_NAME=Rhodocladonic acid
ION_MODE=positive
FORMULA=C15H10O8
72.152008 5106.521484 
75.380684 5152.361328 
88.006691 5348.416016 
100.414345 5935.299805 
102.972603 5229.807617 
105.935692 4832.762695 
164.392654 5258.99707 
192.041702 15159.053711 
219.028595 12587.719727 
235.059799 42783.972656 
245.044174 15846.032227 
273.039307 30728.537109 
276.026154 122079.546875 
291.049622 41449.683594 
301.03421 31585.910156 
END IONS

BEGIN IONS
RTINSECONDS=133.916
CHARGE=1+
MSLEVEL=2
SMILES=COc1cc(c2c(c1)C(=O)c1cc(cc(c1C2=O)O)CO)O
INCHI=InChI=1S/C16H12O6/c1-22-8-4-10-14(12(19)5-8)16(21)13-9(15(10)20)2-7(6-17)3-11(13)18/h2-5,17-19H,6H2,1H3
INCHIKEY=WJXSYUJKJSOJOG-UHFFFAOYSA-N
CLASS=Quinones
ADDUCT=[M+H]+
INSTRUMENT=Thermo Q-Exactive Focus
PRECURSOR_MZ=301.0712
COMPOUND_NAME=Fallacinol (Teloschistin)
ION_MODE=positive
FORMULA=C16H12O6
50.22916 6685.367676 
68.918648 12518.517578 
69.232803 11812.766602 
73.255821 13596.470703 
76.350586 13141.066406 
119.030174 2224.40625 
141.547363 16108.15918 
179.035782 15643.939453 
181.94043 13345.428711 
199.077011 16565.248047 
212.04715 18972.242188 
227.070679 91570.601562 
240.232849 43571.46875 
255.065369 507466.125 
271.060211 262640.375 
283.060425 285028.9375 
END IONS

BEGIN IONS
RTINSECONDS=275.377991
CHARGE=1+
MSLEVEL=2
SMILES=O=C1Oc2c(c(C)c(Cl)c(OC)c2)Oc2c(Cl)c(O)c(Cl)c(C)c12
INCHI=InChI=1S/C16H11Cl3O5/c1-5-9-15(12(19)13(20)11(5)18)24-14-6(2)10(17)7(22-3)4-8(14)23-16(9)21/h4,20H,1-3H3
INCHIKEY=XEDMLQPKKYHCKK-UHFFFAOYSA-N
CLASS=Depsidones
ADDUCT=[M+H]+
INSTRUMENT=Thermo Q-Exactive Focus
PRECURSOR_MZ=388.975
COMPOUND_NAME=Dechlorodiploicin
ION_MODE=positive
FORMULA=C16H11Cl3O5
54.758095 6340.38623 
68.997971 12386.508789 
79.737602 6246.164551 
91.970665 6112.296875 
95.04966 7931.030273 
113.015839 11778.075195 
142.018341 14916.207031 
169.005447 99253.523438 
176.98703 95758.09375 
185.000046 23289.671875 
198.067657 20252.509766 
204.98233 18031.427734 
233.036774 43794.925781 
261.031372 38028.714844 
262.039246 46669.746094 
297.008179 84786.578125 
318.96933 27422.015625 
325.003265 66980.460938 
352.997772 44813.492188 
413.41449 5925.192383 
END IONS

BEGIN IONS
RTINSECONDS=314.584015
CHARGE=1+
MSLEVEL=2
SMILES=OC(=O)c1c(OC)cc(cc1CCCCC)OC(=O)c1c(CCCCC)cc(OC)cc1OC
INCHI=InChI=1S/C27H36O7/c1-6-8-10-12-18-15-21(17-22(32-4)24(18)26(28)29)34-27(30)25-19(13-11-9-7-2)14-20(31-3)16-23(25)33-5/h14-17H,6-13H2,1-5H3,(H,28,29)
INCHIKEY=FNJKTDQIJKLZGZ-UHFFFAOYSA-N
CLASS=Depsides (Didepsides)
ADDUCT=[2M+Na]+
INSTRUMENT=Thermo Q-Exactive Focus
PRECURSOR_MZ=967.482
COMPOUND_NAME=Planaic acid
ION_MODE=positive
FORMULA=C27H36O7
68.541229 87762.007812 
69.902374 53555.914062 
72.767227 49862.238281 
82.221481 95052.25 
89.781578 113030.789062 
111.961494 56631.621094 
151.074829 110351.703125 
162.088394 61159.730469 
177.090973 144150.640625 
217.122604 188255.71875 
235.132416 6421300.5 
236.135834 139671.421875 
237.431458 114936.40625 
243.098785 1439865.25 
275.125275 19225.5625 
294.452881 9268.1875 
295.624176 9451.884766 
303.877777 10787.416992 
306.715454 60426.621094 
350.775452 104913.5625 
376.126251 19353.652344 
432.105377 21305.367188 
495.234528 14101435.0 
495.302002 20873.408203 
513.245361 3438285.0 
533.748962 61270.492188 
536.254822 21643.638672 
543.721619 60850.484375 
557.091858 12080.071289 
692.078247 11042.818359 
715.443359 123234.0 
924.500061 16380.951172 
940.422241 48453.8125 
941.562134 23495.787109 
END IONS

BEGIN IONS
RTINSECONDS=213.007004
CHARGE=1+
MSLEVEL=2
SMILES=O=C1c2c(C)cc(OC)c(C)c2Oc2c(O1)cc(c(c2C)C(=O)O)O
INCHI=InChI=1S/C18H16O7/c1-7-5-11(23-4)8(2)16-13(7)18(22)24-12-6-10(19)14(17(20)21)9(3)15(12)25-16/h5-6,19H,1-4H3,(H,20,21)
INCHIKEY=IXEVSIMCIWOSQO-UHFFFAOYSA-N
CLASS=Depsidones
ADDUCT=[M+NH4]+
INSTRUMENT=Thermo Q-Exactive Focus
PRECURSOR_MZ=362.124
COMPOUND_NAME=Notatic acid
ION_MODE=positive
FORMULA=C18H16O7
51.991833 23296.029297 
84.008057 21945.125 
91.967163 27037.681641 
92.812065 22350.773438 
95.193481 25635.197266 
105.070351 25811.113281 
158.073242 24049.646484 
163.075348 37970.347656 
173.096786 60265.757812 
175.111679 22541.630859 
201.091232 84751.953125 
203.107239 33055.171875 
229.086594 90570.476562 
231.101746 718139.75 
257.081848 129569.46875 
259.096741 509744.09375 
285.075958 4693786.0 
303.087067 79717.648438 
327.086548 1458605.5 
345.097229 2980329.0 
END IONS

BEGIN IONS
RTINSECONDS=257.68399
CHARGE=1+
MSLEVEL=2
SMILES=Oc1cc(OC(=O)c2c(O)cc(O)cc2CC(=O)CCCCC)cc(CCCCC)c1C(=O)O
INCHI=InChI=1S/C26H32O8/c1-3-5-7-9-16-13-20(15-22(30)23(16)25(31)32)34-26(33)24-17(12-19(28)14-21(24)29)11-18(27)10-8-6-4-2/h12-15,28-30H,3-11H2,1-2H3,(H,31,32)
INCHIKEY=VZPLPGICHZXOCQ-UHFFFAOYSA-N
CLASS=Depsides (Didepsides)
ADDUCT=[2M+NH4]+
INSTRUMENT=Thermo Q-Exactive Focus
PRECURSOR_MZ=962.4538
COMPOUND_NAME=Olivetoric acid
ION_MODE=positive
FORMULA=C26H32O8
68.99794 134449.59375 
69.070656 186133.515625 
95.085876 150151.046875 
123.044197 713092.0625 
149.059616 966415.0625 
161.059219 956528.3125 
203.106369 1176398.25 
207.101303 1890934.0 
221.116928 1438669.75 
225.111847 4708059.5 
231.101257 869200.875 
249.111725 19364932.0 
302.860168 27794.392578 
303.114441 29059.632812 
307.60968 80476.03125 
309.079468 8641.744141 
310.69397 30528.404297 
411.176697 42497.003906 
412.181854 61007.015625 
447.345001 83476.78125 
472.201385 45585.152344 
473.214874 94895.101562 
494.899841 30781.423828 
513.122559 28412.306641 
536.885071 33965.136719 
588.885376 90915.351562 
601.859802 78550.226562 
623.198425 87345.164062 
636.827271 12063.419922 
771.505249 28027.945312 
910.628906 109149.40625 
943.686279 9765.524414 
END IONS

BEGIN IONS
RTINSECONDS=260.269012
CHARGE=1+
MSLEVEL=2
SMILES=O=C1c2c(CC(=O)CCCCC)cc(OC)c(O)c2Oc2c(O1)cc(c(c2CCCCC)C(=O)O)O
INCHI=InChI=1S/C27H32O9/c1-4-6-8-10-16(28)12-15-13-19(34-3)23(30)25-21(15)27(33)35-20-14-18(29)22(26(31)32)17(24(20)36-25)11-9-7-5-2/h13-14,29-30H,4-12H2,1-3H3,(H,31,32)
INCHIKEY=YFNNJORBJZUGCV-UHFFFAOYSA-N
CLASS=Depsidones
ADDUCT=[M+NH4]+
INSTRUMENT=Thermo Q-Exactive Focus
PRECURSOR_MZ=518.239
COMPOUND_NAME=Lividic acid
ION_MODE=positive
FORMULA=C27H32O9
59.745201 65517.523438 
62.392414 68676.445312 
71.086136 385081.25 
84.438744 67491.554688 
91.969147 130919.0 
99.080788 172353.5625 
145.529373 61545.832031 
160.160034 76277.257812 
163.039032 55634.269531 
177.091095 128527.59375 
193.049591 114947.8125 
205.085648 67642.78125 
218.172852 86193.976562 
233.080383 389125.75 
271.096405 151849.875 
277.107147 157581.765625 
287.054413 162219.296875 
289.070496 182105.125 
331.153534 297375.125 
342.109161 525885.625 
343.11731 223414.09375 
387.142883 455385.6875 
387.217194 174855.625 
413.122375 841086.9375 
415.211121 438669.75 
441.190063 4046787.75 
457.221619 474503.21875 
483.20105 732669.375 
501.138489 81443.960938 
501.211273 2066402.125 
538.587891 35898.558594 
END IONS

BEGIN IONS
RTINSECONDS=385.222992
CHARGE=1+
MSLEVEL=2
SMILES=CC1(C2C(CCC1OC(=O)C)(C)C1C(CC2)([C@]2(C(C(C1)O)C(CC2)[C@]1(C)O[C@@H](C(C)(OC(=O)C)C)CC1)C)C)C
INCHI=InChI=1S/C34H56O6/c1-20(35)38-26-13-15-31(7)24(29(26,3)4)12-17-32(8)25(31)19-23(37)28-22(11-16-33(28,32)9)34(10)18-14-27(40-34)30(5,6)39-21(2)36/h22-28,37H,11-19H2,1-10H3/t22?,23?,24?,25?,26?,27-,28?,31?,32?,33-,34-/m1/s1
INCHIKEY=TWRWTOXPYGQKPW-ZWXXETMRSA-N
CLASS=Terpenoids : Triterpenes
ADDUCT=[2M+NH4]+
INSTRUMENT=Thermo Q-Exactive Focus
PRECURSOR_MZ=1138.8499
COMPOUND_NAME=Diacetylpyxinol
ION_MODE=positive
FORMULA=C34H56O6
95.08625 1226044.0 
107.086021 1394245.625 
109.101753 1632725.75 
125.096428 1912725.875 
127.11216 2067553.75 
135.117172 1319070.125 
147.117126 2312228.25 
189.164108 3767150.5 
191.179871 2685409.5 
201.164642 1200356.375 
215.17984 1463108.125 
233.19046 1568504.625 
255.210953 487637.84375 
283.242706 396477.4375 
287.238312 269947.125 
337.289215 469512.5 
380.307404 97393.398438 
381.316223 103684.007812 
397.310822 132541.453125 
405.352081 769599.5625 
423.362732 6871395.5 
465.374054 702771.3125 
472.670227 45012.507812 
477.289398 42889.175781 
483.311188 42970.777344 
483.384216 3913698.75 
501.394745 4800291.0 
543.402649 318694.59375 
561.415955 1577163.25 
629.935974 46785.386719 
651.13324 22901.402344 
652.316467 19920.617188 
824.830872 51724.554688 
902.527161 22130.003906 
904.218323 15098.306641 
920.490662 20280.152344 
952.080933 43229.507812 
958.052612 49636.132812 
1034.326172 14908.535156 
1071.378662 21242.738281 
1082.838623 23066.248047 
1085.25061 17295.503906 
1097.019043 23108.255859 
1158.721558 16260.019531 
END IONS

BEGIN IONS
RTINSECONDS=151.751007
CHARGE=1+
MSLEVEL=2
SMILES=O=c1cc(C)oc2c1c(OC)cc(OC)c2C
INCHI=InChI=1S/C13H14O4/c1-7-5-9(14)12-11(16-4)6-10(15-3)8(2)13(12)17-7/h5-6H,1-4H3
INCHIKEY=MJHNYZONVLZSNB-UHFFFAOYSA-N
CLASS=Chromanes and Chromones
ADDUCT=[2M+Na]+
INSTRUMENT=Thermo Q-Exactive Focus
PRECURSOR_MZ=491.1682
COMPOUND_NAME="2,8-Dimethyl-5,7-dimethoxychromone"
ION_MODE=positive
FORMULA=C13H14O4
78.012733 18588.792969 
242.055023 2803145.75 
257.078339 126499776.0 
END IONS

BEGIN IONS
RTINSECONDS=242.255997
CHARGE=1+
MSLEVEL=2
SMILES=CCCCCC(=O)Cc1cc(cc(c1C(=O)Oc1cc(c(c(c1)CC(=O)CCCCC)C(=O)O)OC)O)O
INCHI=InChI=1S/C29H36O9/c1-4-6-8-10-20(30)12-18-14-22(32)16-24(33)26(18)29(36)38-23-15-19(13-21(31)11-9-7-5-2)27(28(34)35)25(17-23)37-3/h14-17,32-33H,4-13H2,1-3H3,(H,34,35)
INCHIKEY=DGXLEDCXMIJNPJ-UHFFFAOYSA-N
CLASS=Depsides (Didepsides)
ADDUCT=[M+H]+
INSTRUMENT=Thermo Q-Exactive Focus
PRECURSOR_MZ=529.2438
COMPOUND_NAME=Arthoniaic acid
ION_MODE=positive
FORMULA=C29H36O9
55.055336 494113.84375 
62.133286 6580.402832 
69.070717 167448.765625 
71.08654 777174.25 
137.060059 2868539.75 
161.060394 1751486.5 
163.075684 5224107.5 
165.055206 1898013.25 
175.075729 4554042.0 
179.034485 1795530.625 
217.122574 4643714.5 
235.133255 8691587.0 
249.112564 3733109.75 
263.128082 54690488.0 
281.138763 2182659.75 
END IONS

BEGIN IONS
RTINSECONDS=172.356995
CHARGE=1+
MSLEVEL=2
SMILES=O=c1c2c(O)cc(C)c3c2c(C(=C(O)C3=O)OC)co1
INCHI=InChI=1S/C14H10O6/c1-5-3-7(15)10-9-6(4-20-14(10)18)13(19-2)12(17)11(16)8(5)9/h3-4,15,17H,1-2H3
INCHIKEY=GJSCVPZGPZIBMU-UHFFFAOYSA-N
CLASS=Naphthopyranes
ADDUCT=[M+H]+
INSTRUMENT=Thermo Q-Exactive Focus
PRECURSOR_MZ=275.0556
COMPOUND_NAME=Simonyellin
ION_MODE=positive
FORMULA=C14H10O6
55.665222 8766.675781 
66.846161 10119.444336 
67.151169 8778.290039 
81.528046 10491.69043 
81.969017 9576.620117 
91.96463 68477.507812 
111.931267 9831.949219 
158.720612 42607.46875 
171.496368 38144.0625 
184.385757 38373.097656 
192.378967 49065.71875 
196.886093 43987.453125 
204.041229 76753.679688 
232.036301 470496.53125 
END IONS

BEGIN IONS
RTINSECONDS=179.962006
CHARGE=1+
MSLEVEL=2
SMILES=O=C(O)c1c(C)cc(OC)c(C)c1O
INCHI=InChI=1S/C10H12O4/c1-5-4-7(14-3)6(2)9(11)8(5)10(12)13/h4,11H,1-3H3,(H,12,13)
INCHIKEY=BMRVNZZVDSVOQG-UHFFFAOYSA-N
CLASS=Cleavage Products of Depsides and Depsidones
ADDUCT=[M+H]+
INSTRUMENT=Thermo Q-Exactive Focus
PRECURSOR_MZ=197.0814
COMPOUND_NAME=Rhizonic acid
ION_MODE=positive
FORMULA=C10H12O4
67.053734 435672.375 
79.054802 452359.3125 
91.054863 969309.0625 
91.969757 539832.5625 
108.05748 876784.5 
123.080757 3651642.0 
151.075943 583981.6875 
164.047073 57543.234375 
179.070435 129511800.0 
END IONS

BEGIN IONS
RTINSECONDS=220.955002
CHARGE=1+
MSLEVEL=2
SMILES=Oc1c(C(=O)Oc2c(OC)cc(c(C(=O)O)c2O)CCC)c(CCC)cc(OC)c1
INCHI=InChI=1S/C22H26O8/c1-5-7-12-9-14(28-3)11-15(23)17(12)22(27)30-20-16(29-4)10-13(8-6-2)18(19(20)24)21(25)26/h9-11,23-24H,5-8H2,1-4H3,(H,25,26)
INCHIKEY=CPHXGYQLOSNELY-UHFFFAOYSA-N
CLASS=Depsides (Didepsides)
ADDUCT=[2M+Na]+
INSTRUMENT=Thermo Q-Exactive Focus
PRECURSOR_MZ=859.3153
COMPOUND_NAME=Sekikaic acid
ION_MODE=positive
FORMULA=C22H26O8
65.504623 3367.157227 
66.170853 7989.216797 
72.926117 3089.210938 
93.247116 3493.488525 
99.314835 3474.110352 
107.453812 9347.741211 
150.709824 3950.482666 
156.512909 10004.046875 
199.034058 9957.983398 
215.068085 1541085.25 
231.063065 985195.9375 
233.078903 29179.988281 
249.073563 467493.125 
312.936066 10245.509766 
407.147308 19104.445312 
441.152313 208909.03125 
487.874542 11313.092773 
799.926697 10993.792969 
END IONS

BEGIN IONS
RTINSECONDS=149.871002
CHARGE=1+
MSLEVEL=2
SMILES=c1ccc(cc1)C1=C(C(=C2c3ccccc3OC2=O)OC1=O)O
INCHI=InChI=1S/C18H10O5/c19-15-13(10-6-2-1-3-7-10)17(20)23-16(15)14-11-8-4-5-9-12(11)22-18(14)21/h1-9,19H
INCHIKEY=CGRCGRBHNKRILW-UHFFFAOYSA-N
CLASS=Pulvinic Acid Derivatives
ADDUCT=[M+H+CH3OH]+
INSTRUMENT=Thermo Q-Exactive Focus
PRECURSOR_MZ=339.0869
COMPOUND_NAME=Calycin
ION_MODE=positive
FORMULA=C18H10O5
85.153999 130759.59375 
91.054733 28110.802734 
91.969872 161867.078125 
105.034035 18690.671875 
145.028641 464348.59375 
161.023163 237739.015625 
173.02356 2088298.125 
189.018814 754594.875 
203.033707 12761943.0 
205.064835 2934193.5 
233.059692 4931757.5 
261.054565 32948602.0 
263.070587 1684987.125 
265.086731 1188722.5 
289.049408 3840396.0 
321.075684 11142399.0 
321.112396 595623.9375 
END IONS

BEGIN IONS
RTINSECONDS=338.937988
CHARGE=1+
MSLEVEL=2
SMILES=CC1(C)C2CC[C@]3([C@@]4(CCC5=C(CC[C@@]5([C@H]4CC[C@@H]3[C@@]2(C)C(=O)C[C@@H]1OC(=O)C)C)C(C)C)C)C
INCHI=InChI=1S/C32H50O3/c1-19(2)21-12-15-29(6)22(21)13-16-30(7)24(29)10-11-25-31(30,8)17-14-23-28(4,5)27(35-20(3)33)18-26(34)32(23,25)9/h19,23-25,27H,10-18H2,1-9H3/t23?,24-,25+,27+,29+,30-,31-,32+/m1/s1
INCHIKEY=GJFCNFHLMZNBCG-QTQGBMOZSA-N
CLASS=Terpenoids : Triterpenes
ADDUCT=[M+NH4]+
INSTRUMENT=Thermo Q-Exactive Focus
PRECURSOR_MZ=500.4104
COMPOUND_NAME=3beta-acetoxy-17(21)-hopen-1-one
ION_MODE=positive
FORMULA=C32H50O3
69.070992 50717.847656 
81.070709 59341.203125 
95.086273 116835.773438 
107.086151 79975.539062 
109.1017 101558.0 
121.101585 116476.578125 
135.117416 112765.679688 
149.132904 93125.90625 
189.163971 30498.404297 
191.17984 144431.4375 
205.195831 48260.21875 
215.179611 54025.035156 
233.190628 33707.355469 
271.242065 11015.658203 
294.631104 2771.540283 
326.401978 2989.184814 
348.633942 2639.575684 
395.367401 105069.679688 
395.412964 5778.285645 
405.352142 23563.269531 
423.362518 488106.375 
430.304993 6338.668457 
444.275604 7107.608398 
455.351929 9545.222656 
483.380585 5036.623047 
519.327759 2700.435791 
526.937256 2747.486084 
END IONS

BEGIN IONS
RTINSECONDS=243.014999
CHARGE=1+
MSLEVEL=2
SMILES=CCCCCC(=O)Cc1cc(cc(c1C(=O)Oc1cc(c(c(c1)CC(=O)CCCCC)C(=O)O)OC)O)O
INCHI=InChI=1S/C29H36O9/c1-4-6-8-10-20(30)12-18-14-22(32)16-24(33)26(18)29(36)38-23-15-19(13-21(31)11-9-7-5-2)27(28(34)35)25(17-23)37-3/h14-17,32-33H,4-13H2,1-3H3,(H,34,35)
INCHIKEY=DGXLEDCXMIJNPJ-UHFFFAOYSA-N
CLASS=Depsides (Didepsides)
ADDUCT=[2M+Na]+
INSTRUMENT=Thermo Q-Exactive Focus
PRECURSOR_MZ=1079.4615
COMPOUND_NAME=Arthoniaic acid
ION_MODE=positive
FORMULA=C29H36O9
78.736153 28254.324219 
91.963547 95061.554688 
100.258049 41650.359375 
108.146942 30458.744141 
115.690628 48454.035156 
129.563614 48351.664062 
162.139709 50919.863281 
191.403671 39768.957031 
196.380997 30873.146484 
202.668076 54975.628906 
212.717865 56021.316406 
263.126984 113624.023438 
264.13147 152621.859375 
271.094849 383368.5 
285.110046 1206842.25 
289.10495 211683.84375 
303.120667 16732498.0 
359.11377 11400.263672 
382.900696 28236.916016 
402.393646 53967.273438 
493.721893 49133.421875 
499.481995 28187.582031 
500.784119 61835.464844 
539.414551 32156.720703 
551.225952 3604242.75 
562.81842 27188.642578 
623.386719 12274.705078 
693.480103 54065.132812 
738.683044 30580.314453 
739.994812 29148.326172 
778.155457 33959.605469 
854.063171 37691.414062 
931.494263 61788.5625 
936.571167 12828.55957 
951.721008 34704.1875 
966.980225 34560.058594 
1012.088318 29682.123047 
1118.438477 31267.900391 
END IONS

BEGIN IONS
RTINSECONDS=154.914993
CHARGE=1+
MSLEVEL=2
SMILES=O=c1cc(C)oc2c1c(OC)cc(OC)c2C
INCHI=InChI=1S/C13H14O4/c1-7-5-9(14)12-11(16-4)6-10(15-3)8(2)13(12)17-7/h5-6H,1-4H3
INCHIKEY=MJHNYZONVLZSNB-UHFFFAOYSA-N
CLASS=Chromanes and Chromones
ADDUCT=[M+H]+
INSTRUMENT=Thermo Q-Exactive Focus
PRECURSOR_MZ=235.097
COMPOUND_NAME="2,8-Dimethyl-5,7-dimethoxychromone"
ION_MODE=positive
FORMULA=C13H14O4
189.054489 47675888.0 
191.070129 35991328.0 
205.049576 76734608.0 
END IONS

BEGIN IONS
RTINSECONDS=172.134995
CHARGE=1+
MSLEVEL=2
SMILES=O=C1c2c(C)cc(O)c(C=O)c2Oc2c(O1)c(c(cc2C(=O)O)OC)C
INCHI=InChI=1S/C18H14O8/c1-7-4-11(20)10(6-19)15-13(7)18(23)26-14-8(2)12(24-3)5-9(17(21)22)16(14)25-15/h4-6,20H,1-3H3,(H,21,22)
INCHIKEY=FUCWJKJZOHOLEO-UHFFFAOYSA-N
CLASS=Depsidones
ADDUCT=[M+H]+
INSTRUMENT=Thermo Q-Exactive Focus
PRECURSOR_MZ=359.0767
COMPOUND_NAME=Psoromic acid
ION_MODE=positive
FORMULA=C18H14O8
56.125484 35076.378906 
60.617573 232883.171875 
83.01355 403051.53125 
83.049828 158128.765625 
85.029175 92274.054688 
109.065277 78709.148438 
137.059982 119699.0 
179.03392 794789.375 
193.049774 201112.203125 
217.08609 1516737.625 
243.065475 2010961.375 
259.060272 1837291.625 
273.075653 3752880.75 
285.075836 4420014.0 
313.070709 7682604.5 
315.086273 13819553.0 
341.065643 9561565.0 
END IONS

BEGIN IONS
RTINSECONDS=222.143997
CHARGE=1+
MSLEVEL=2
SMILES=O=C(Oc1c(O)cc(CCCCC)c(C(=O)O)c1O)c1c(CCC)cc(OC)cc1OC
INCHI=InChI=1S/C24H30O8/c1-5-7-8-10-15-12-17(25)22(21(26)20(15)23(27)28)32-24(29)19-14(9-6-2)11-16(30-3)13-18(19)31-4/h11-13,25-26H,5-10H2,1-4H3,(H,27,28)
INCHIKEY=AAKHGLJWUOZNTQ-UHFFFAOYSA-N
CLASS=Depsides (Didepsides)
ADDUCT=[2M+Na]+
INSTRUMENT=Thermo Q-Exactive Focus
PRECURSOR_MZ=915.3779
COMPOUND_NAME=Merochlorophaeic acid
ION_MODE=positive
FORMULA=C24H30O8
63.849579 141769.4375 
83.333557 140872.890625 
91.972832 118513.960938 
136.590225 148541.25 
174.067581 192527.25 
176.083298 253364.828125 
179.106491 464687.46875 
189.090866 700214.9375 
192.078415 484333.40625 
207.101715 37423308.0 
235.133987 187178.203125 
245.078873 677229.125 
247.093964 511054.90625 
304.500854 10180.614258 
321.795959 35291.046875 
349.171082 46722.089844 
350.185974 4695.563477 
369.125549 4879.976074 
380.262634 10043.556641 
451.172913 11002875.0 
463.1987 36140.867188 
469.183685 8719159.0 
497.382965 9992.227539 
500.396729 50619.070312 
521.274536 23978.367188 
557.736084 11498.31543 
565.891907 6953.550781 
598.762329 38412.375 
668.05249 13086.008789 
677.888977 6649.174316 
686.005493 175296.90625 
722.182495 4824.499023 
773.523987 4452.616699 
831.763672 27987.746094 
862.936768 203155.6875 
891.090515 25233.886719 
END IONS

BEGIN IONS
RTINSECONDS=125.037003
CHARGE=1+
MSLEVEL=2
SMILES=c1ccc(cc1)C1=C(C(=C2c3ccccc3OC2=O)OC1=O)O
INCHI=InChI=1S/C18H10O5/c19-15-13(10-6-2-1-3-7-10)17(20)23-16(15)14-11-8-4-5-9-12(11)22-18(14)21/h1-9,19H
INCHIKEY=CGRCGRBHNKRILW-UHFFFAOYSA-N
CLASS=Pulvinic Acid Derivatives
ADDUCT=[M+H]+
INSTRUMENT=Thermo Q-Exactive Focus
PRECURSOR_MZ=307.0606
COMPOUND_NAME=Calycin
ION_MODE=positive
FORMULA=C18H10O5
89.039261 9107.076172 
91.054939 19376.837891 
91.9646 8576.166016 
105.033852 9554.25 
133.028549 19272.560547 
145.028442 69263.328125 
161.0233 195608.65625 
189.018356 59806.9375 
205.064819 95068.828125 
207.080368 32077.271484 
233.059662 202781.046875 
261.054474 646478.0 
263.07019 301300.5625 
279.065033 26795.425781 
289.049133 69114.40625 
END IONS

BEGIN IONS
RTINSECONDS=269.678986
CHARGE=1+
MSLEVEL=2
SMILES=O=C1Oc2c(c(CC(=O)CCCCC)c(C(=O)O)c(O)c2)Oc2c1c(cc(c2)O)CC(=O)CCCCC
INCHI=InChI=1S/C28H32O9/c1-3-5-7-9-17(29)11-16-12-19(31)14-22-24(16)28(35)37-23-15-21(32)25(27(33)34)20(26(23)36-22)13-18(30)10-8-6-4-2/h12,14-15,31-32H,3-11,13H2,1-2H3,(H,33,34)
INCHIKEY=ZDIOCINAHISORH-UHFFFAOYSA-N
CLASS=Depsidones
ADDUCT=[2M+Na]+
INSTRUMENT=Thermo Q-Exactive Focus
PRECURSOR_MZ=1047.399
COMPOUND_NAME=Alpha-Alectoronic acid
ION_MODE=positive
FORMULA=C28H32O9
79.059784 16419.759766 
89.756821 15710.567383 
91.970039 18905.421875 
101.976753 16389.357422 
103.208496 15606.015625 
111.6362 16288.818359 
162.787186 17731.355469 
173.595993 14748.0 
209.257492 16084.938477 
211.022232 16420.861328 
224.147522 15744.280273 
270.0867 19434.121094 
282.220886 18476.039062 
285.489624 14463.931641 
310.996246 14072.612305 
381.287048 16562.029297 
392.125061 18403.892578 
393.13089 113002.648438 
419.109985 281276.53125 
419.162354 28565.302734 
447.215271 69611.21875 
449.193604 60424.390625 
455.195465 28818.777344 
473.193756 27757.824219 
491.204529 1961479.625 
515.221069 22440.544922 
517.182556 189082.03125 
535.194397 2828498.25 
595.888916 11648.103516 
618.706726 13769.436523 
651.149536 17659.517578 
720.023743 18090.193359 
862.579956 12884.560547 
865.842163 19357.927734 
929.157043 13148.579102 
960.485291 14873.947266 
END IONS

BEGIN IONS
RTINSECONDS=317.330994
CHARGE=1+
MSLEVEL=2
SMILES=CCCCCCCCCCCCCCC(C(=O)O)C(CC(=O)OC)(C(=O)O)O
INCHI=InChI=1S/C21H38O7/c1-3-4-5-6-7-8-9-10-11-12-13-14-15-17(19(23)24)21(27,20(25)26)16-18(22)28-2/h17,27H,3-16H2,1-2H3,(H,23,24)(H,25,26)
INCHIKEY=HMJJWFFZRCLIDN-UHFFFAOYSA-N
CLASS=Acids
ADDUCT=[2M+Na]+
INSTRUMENT=Thermo Q-Exactive Focus
PRECURSOR_MZ=827.5133
COMPOUND_NAME=Caperatic acid
ION_MODE=positive
FORMULA=C21H38O7
63.586681 38823.578125 
72.442909 43671.035156 
74.804787 42310.246094 
80.751961 14009.580078 
91.626877 37337.738281 
91.963554 15556.106445 
169.010696 111568.039062 
169.79718 12823.905273 
173.333893 45797.238281 
191.892548 3557.291016 
241.488159 13602.822266 
242.213837 44309.328125 
249.522827 12181.431641 
261.722656 14190.271484 
282.748291 14926.342773 
287.934052 42504.140625 
303.077423 12367.681641 
314.413055 10726.771484 
335.095245 13934.716797 
335.255585 166777.265625 
373.852875 16763.595703 
379.245087 83169.351562 
407.241028 78915.59375 
425.25061 3660743.0 
427.692627 12514.588867 
519.711365 13133.408203 
521.698364 3781.933594 
556.07074 11774.573242 
573.013062 3865.278076 
591.167847 3769.322998 
593.480957 17970.773438 
697.009949 44180.785156 
720.264954 5039.523926 
729.094971 18375.083984 
END IONS

BEGIN IONS
RTINSECONDS=260.279999
CHARGE=1+
MSLEVEL=2
SMILES=O=C1c2c(CC(=O)CCCCC)cc(O)cc2Oc2c(O1)cc(c(c2CCCCC)C(=O)O)O
INCHI=InChI=1S/C26H30O8/c1-3-5-7-9-16(27)11-15-12-17(28)13-20-22(15)26(32)34-21-14-19(29)23(25(30)31)18(24(21)33-20)10-8-6-4-2/h12-14,28-29H,3-11H2,1-2H3,(H,30,31)
INCHIKEY=KVTYWHGIZSCFLG-UHFFFAOYSA-N
CLASS=Depsidones
ADDUCT=[2M+NH4]+
INSTRUMENT=Thermo Q-Exactive Focus
PRECURSOR_MZ=958.4225
COMPOUND_NAME=Physodic acid
ION_MODE=positive
FORMULA=C26H30O8
71.086594 878785.625 
91.964355 198643.625 
95.086609 378658.90625 
99.081123 589338.0 
107.086159 228303.953125 
163.039444 389462.0 
172.317581 178602.828125 
177.091599 618173.0625 
203.070999 371650.03125 
205.086533 450855.21875 
249.112442 181123.84375 
259.060455 852013.0 
285.039612 391731.6875 
301.144043 1686924.5 
312.099854 704289.6875 
313.107239 1067438.125 
357.134705 2738682.0 
357.204559 1043818.8125 
383.113281 2534667.25 
385.201813 3937490.0 
409.200653 414036.9375 
411.181213 26275406.0 
427.212677 2823963.5 
453.191895 2875170.0 
471.202606 21042204.0 
491.690063 62984.226562 
499.16568 37402.765625 
506.584564 11578.202148 
532.499023 37767.296875 
540.834412 12415.722656 
570.930969 195727.9375 
654.455261 9539.962891 
719.825928 9713.414062 
894.712585 11054.805664 
896.834106 69768.78125 
914.597534 80047.539062 
END IONS

BEGIN IONS
RTINSECONDS=254.134003
CHARGE=1+
MSLEVEL=2
SMILES=O=C1c2c(CCCCC)cc(OC)c(OC)c2Oc2c(O1)cc(c(c2CCCCC)C(=O)O)O
INCHI=InChI=1S/C26H32O8/c1-5-7-9-11-15-13-18(31-3)23(32-4)24-20(15)26(30)33-19-14-17(27)21(25(28)29)16(22(19)34-24)12-10-8-6-2/h13-14,27H,5-12H2,1-4H3,(H,28,29)
INCHIKEY=GHBZVNHEVHMKOB-UHFFFAOYSA-N
CLASS=Depsidones
ADDUCT=[M+H]+
INSTRUMENT=Thermo Q-Exactive Focus
PRECURSOR_MZ=473.2175
COMPOUND_NAME=3-Methoxycolensoic acid
ION_MODE=positive
FORMULA=C26H32O8
52.943932 2459.947266 
79.793495 2371.391113 
80.611099 2897.540527 
91.970367 4503.459961 
95.086327 3706.898193 
106.552345 2534.598389 
140.299438 2924.184814 
235.063446 2822.563232 
247.09758 8146.608398 
247.345718 2927.690674 
299.055756 4872.973633 
301.073059 3659.76001 
303.159637 8956.285156 
359.148499 5758.474121 
359.222473 5059.329102 
369.169952 10055.868164 
385.129364 9730.976562 
387.217316 14422.702148 
413.196686 208754.3125 
429.226898 10961.357422 
455.208679 20987.333984 
END IONS

BEGIN IONS
RTINSECONDS=292.562988
CHARGE=1+
MSLEVEL=2
SMILES=O=C1c2c(CCCCC)cc(OC)c(OC)c2Oc2c(O1)cc(c(c2CCCCC)C(=O)O)O
INCHI=InChI=1S/C26H32O8/c1-5-7-9-11-15-13-18(31-3)23(32-4)24-20(15)26(30)33-19-14-17(27)21(25(28)29)16(22(19)34-24)12-10-8-6-2/h13-14,27H,5-12H2,1-4H3,(H,28,29)
INCHIKEY=GHBZVNHEVHMKOB-UHFFFAOYSA-N
CLASS=Depsidones
ADDUCT=[M+H+CH3OH]+
INSTRUMENT=Thermo Q-Exactive Focus
PRECURSOR_MZ=505.2438
COMPOUND_NAME=3-Methoxycolensoic acid
ION_MODE=positive
FORMULA=C26H32O8
58.926281 16646.173828 
63.543186 15560.53418 
70.587715 17326.244141 
70.818901 16108.414062 
73.518021 16401.908203 
85.31459 17791.642578 
129.070572 46516.15625 
161.096039 91549.859375 
181.049957 33704.570312 
189.09166 69188.476562 
193.049805 26339.585938 
207.065659 48215.507812 
221.117508 714490.9375 
247.097733 41434.628906 
249.112427 112716.148438 
253.143692 187931.140625 
281.138794 77923.859375 
303.159729 47726.878906 
314.18219 20662.433594 
359.149261 51010.105469 
359.2229 24759.990234 
369.172028 21548.529297 
385.128967 53173.78125 
387.217102 47148.226562 
413.196106 952100.3125 
429.228027 51585.699219 
455.207458 152275.203125 
467.986969 7488.145996 
473.217194 192398.875 
487.234711 7360.053223 
520.433899 5199.404297 
527.012329 5580.311035 
END IONS

BEGIN IONS
RTINSECONDS=273.362
CHARGE=1+
MSLEVEL=2
SMILES=O=c1c2c(cc(OC)c(Cl)c2OC)oc2c1c(cc(c2Cl)OC)C
INCHI=InChI=1S/C17H14Cl2O5/c1-7-5-9(21-2)14(19)17-11(7)15(20)12-8(24-17)6-10(22-3)13(18)16(12)23-4/h5-6H,1-4H3
INCHIKEY=QCVBBEYCXWJERE-UHFFFAOYSA-N
CLASS=Xanthones and bis-Xanthones
ADDUCT=[M+H]+
INSTRUMENT=Thermo Q-Exactive Focus
PRECURSOR_MZ=369.0297
COMPOUND_NAME="2,5-Dichlor-1,3,6-tri-O-methylnorlichexanthone"
ION_MODE=positive
FORMULA=C17H14Cl2O5
50.577854 188041.4375 
51.739109 19860.669922 
54.064056 1717792.25 
60.03014 123305.632812 
290.033936 18597770.0 
291.041016 7927281.5 
323.994324 8141009.5 
325.002747 26207684.0 
END IONS

BEGIN IONS
RTINSECONDS=288.464996
CHARGE=1+
MSLEVEL=2
SMILES=O=C1c2c(C(=O)CCCC)cc(OC)cc2Oc2c(O1)cc(c(c2CCCCC)C(=O)O)O
INCHI=InChI=1S/C25H28O8/c1-4-6-8-9-15-21(24(28)29)18(27)13-20-23(15)32-19-12-14(31-3)11-16(17(26)10-7-5-2)22(19)25(30)33-20/h11-13,27H,4-10H2,1-3H3,(H,28,29)
INCHIKEY=JHEWMLHQNRHTQX-UHFFFAOYSA-N
CLASS=Depsidones
ADDUCT=[M+H]+
INSTRUMENT=Thermo Q-Exactive Focus
PRECURSOR_MZ=457.1862
COMPOUND_NAME=Lobaric acid
ION_MODE=positive
FORMULA=C25H28O8
50.560036 1954904.0 
57.070839 8766228.0 
67.055099 599643.4375 
81.058739 63199.257812 
85.065765 2360985.5 
91.963142 820323.4375 
201.091125 4996857.0 
227.070602 3297994.0 
255.065598 6078275.5 
269.118591 4322009.0 
287.127747 5724011.0 
293.118835 3027260.75 
343.190338 4377981.5 
369.097443 13534673.0 
371.186188 8996495.0 
379.154449 11992778.0 
397.16507 67600032.0 
421.164948 76910416.0 
439.175964 30962816.0 
END IONS

BEGIN IONS
RTINSECONDS=391.919006
CHARGE=1+
MSLEVEL=2
SMILES=CC1(C)[C@@H](OC(=O)C)C[C@H](OC(=O)C)[C@]2(C)[C@H]3CC[C@@H]4[C@@]5(C)CC[C@H](C(C)(O)C)[C@@H]5CC[C@@]4(C)[C@]3(C)CCC12
INCHI=InChI=1S/C34H56O5/c1-20(35)38-27-19-28(39-21(2)36)34(10)24(29(27,3)4)15-18-33(9)26(34)12-11-25-31(7)16-13-22(30(5,6)37)23(31)14-17-32(25,33)8/h22-28,37H,11-19H2,1-10H3/t22-,23-,24?,25+,26-,27-,28-,31-,32+,33+,34-/m0/s1
INCHIKEY=HIGXRAWIRQTPEC-ZQLPSASCSA-N
CLASS=Terpenoids : Triterpenes
ADDUCT=[M+NH4]+
INSTRUMENT=Thermo Q-Exactive Focus
PRECURSOR_MZ=562.4471
COMPOUND_NAME="1alpa,3beta-diacetoxy-22-hopanol"
ION_MODE=positive
FORMULA=C34H56O5
81.070801 15101298.0 
95.086296 29973086.0 
107.086227 17136846.0 
109.10186 22189672.0 
121.101776 21731610.0 
135.117233 18065480.0 
149.132996 22573502.0 
189.164261 10112803.0 
191.180069 10174434.0 
203.180099 11843489.0 
217.195526 14106599.0 
283.243958 1392768.625 
367.33728 5868520.0 
407.368225 46831108.0 
425.378632 4896698.0 
467.389954 11275366.0 
527.411865 9144849.0 
544.437561 5121830.5 
END IONS

BEGIN IONS
RTINSECONDS=313.38501
CHARGE=1+
MSLEVEL=2
SMILES=O=C1C(=C(O)/C(=C(/c2ccccc2)\C(=O)N[C@@H](Cc2ccccc2)C(=O)OC)/O1)c1ccccc1
INCHI=InChI=1S/C28H23NO6/c1-34-27(32)21(17-18-11-5-2-6-12-18)29-26(31)23(20-15-9-4-10-16-20)25-24(30)22(28(33)35-25)19-13-7-3-8-14-19/h2-16,21,30H,17H2,1H3,(H,29,31)/b25-23+/t21-/m0/s1
INCHIKEY=DKDGWAKCXBFTMM-KZKMBZSSSA-N
CLASS=Pulvinic Acid Derivatives
ADDUCT=[2M+NH4]+
INSTRUMENT=Thermo Q-Exactive Focus
PRECURSOR_MZ=956.3394
COMPOUND_NAME=Rhizocarpic acid
ION_MODE=positive
FORMULA=C28H23NO6
78.104607 8754.009766 
93.070618 44827.730469 
103.054855 458378.0625 
120.08107 30313256.0 
121.065125 1321748.625 
131.049332 525027.5 
163.075256 1015572.3125 
179.085785 620494.1875 
180.101944 18864792.0 
207.080429 6646532.0 
217.065079 486065.6875 
235.075287 5985787.0 
245.060013 251751.78125 
263.070221 8977495.0 
291.064606 1660207.125 
470.160065 17048212.0 
END IONS

BEGIN IONS
RTINSECONDS=309.397003
CHARGE=1+
MSLEVEL=2
SMILES=O=C(O)C(CCCCCCCCCCCC)C(C)C(=O)O
INCHI=InChI=1S/C17H32O4/c1-3-4-5-6-7-8-9-10-11-12-13-15(17(20)21)14(2)16(18)19/h14-15H,3-13H2,1-2H3,(H,18,19)(H,20,21)
INCHIKEY=CADNMISJDLVPCK-UHFFFAOYSA-N
CLASS=Acids
ADDUCT=[M+H]+
INSTRUMENT=Thermo Q-Exactive Focus
PRECURSOR_MZ=301.2379
COMPOUND_NAME=Roccellic acid
ION_MODE=positive
FORMULA=C17H32O4
55.054371 254482.03125 
57.069977 336983.53125 
69.06971 862247.9375 
83.085014 678222.3125 
97.100319 500240.375 
111.079193 289495.84375 
135.115021 229182.265625 
149.130478 175999.484375 
163.145767 154296.71875 
214.457901 40365.222656 
219.207764 442405.15625 
237.21785 530310.125 
252.245331 34177.394531 
255.228241 52050.246094 
283.191498 22560.451172 
283.222717 644910.625 
END IONS

BEGIN IONS
RTINSECONDS=251.201996
CHARGE=1+
MSLEVEL=2
SMILES=O=C1c2c(C(=O)CCCC)cc(OC)cc2Oc2c(O1)cc(c(c2CCCCC)C(=O)O)O
INCHI=InChI=1S/C25H28O8/c1-4-6-8-9-15-21(24(28)29)18(27)13-20-23(15)32-19-12-14(31-3)11-16(17(26)10-7-5-2)22(19)25(30)33-20/h11-13,27H,4-10H2,1-3H3,(H,28,29)
INCHIKEY=JHEWMLHQNRHTQX-UHFFFAOYSA-N
CLASS=Depsidones
ADDUCT=[M+H+CH3OH]+
INSTRUMENT=Thermo Q-Exactive Focus
PRECURSOR_MZ=489.2125
COMPOUND_NAME=Lobaric acid
ION_MODE=positive
FORMULA=C25H28O8
57.070786 1180109.625 
68.684471 116939.898438 
71.598351 100405.398438 
76.861 250741.875 
78.54464 107059.875 
85.065422 898963.0 
123.043961 131377.59375 
135.066208 93281.3125 
137.023666 819582.8125 
154.734268 97538.492188 
187.084641 106040.523438 
190.63443 101644.023438 
193.086899 100708.632812 
228.113892 107884.5 
235.096542 172552.25 
262.985931 105462.554688 
269.117493 337377.8125 
273.110138 252721.84375 
287.128357 920023.25 
343.190765 712358.5 
356.125641 1071158.0 
357.13324 1764356.125 
371.184784 2790595.0 
397.164276 11208099.0 
413.195923 4277920.5 
439.174713 1209534.375 
457.185547 6717387.5 
END IONS

BEGIN IONS
RTINSECONDS=321.634003
CHARGE=1+
MSLEVEL=2
SMILES=CC[C@@H](C)C[C@@H](C)[C@@H]([C@H](C)C(=O)O[C@@H]([C@H](C)C[C@H](C)CC)[C@H](C)C(=O)O)O
INCHI=InChI=1S/C22H42O5/c1-9-13(3)11-15(5)19(23)17(7)22(26)27-20(18(8)21(24)25)16(6)12-14(4)10-2/h13-20,23H,9-12H2,1-8H3,(H,24,25)/t13-,14-,15-,16-,17+,18+,19+,20+/m1/s1
INCHIKEY=ZQEUMOKDJCSNHB-IHRHECOVSA-N
CLASS=Acids
ADDUCT=[M+NH4]+
INSTRUMENT=Thermo Q-Exactive Focus
PRECURSOR_MZ=404.3376
COMPOUND_NAME=Bourgeanic acid
ION_MODE=positive
FORMULA=C22H42O5
55.054996 2497343.5 
57.070702 2969635.25 
69.07074 10066067.0 
83.086105 13594664.0 
95.085922 7966514.5 
109.10141 5205507.0 
111.08062 14428013.0 
149.132309 6649598.0 
167.142715 22124354.0 
185.15329 32541626.0 
203.164307 1608829.375 
369.296234 172829.71875 
END IONS

BEGIN IONS
RTINSECONDS=335.778015
CHARGE=1+
MSLEVEL=2
SMILES=CCCCCCCCCCCCCC[C@H](C(=O)OC)[C@@H](C(=O)O)CC(=O)O
INCHI=InChI=1S/C21H38O6/c1-3-4-5-6-7-8-9-10-11-12-13-14-15-17(21(26)27-2)18(20(24)25)16-19(22)23/h17-18H,3-16H2,1-2H3,(H,22,23)(H,24,25)/t17-,18-/m0/s1
INCHIKEY=LGCPAGYPUFWEBQ-ROUUACIJSA-N
CLASS=Acids
ADDUCT=[2M+NH4]+
INSTRUMENT=Thermo Q-Exactive Focus
PRECURSOR_MZ=790.5681
COMPOUND_NAME=Rangiformic acid
ION_MODE=positive
FORMULA=C21H38O6
57.070713 169640.640625 
69.07061 311997.53125 
81.070557 229147.765625 
83.086166 310807.3125 
95.085983 303648.71875 
97.101669 284773.84375 
119.085617 242502.03125 
133.101181 389159.09375 
147.116684 166919.390625 
161.132416 160850.015625 
165.090912 198674.203125 
179.106384 180474.984375 
219.210739 105507.390625 
231.210815 108977.242188 
245.226089 428758.25 
255.20993 111657.742188 
263.236938 139347.421875 
291.231171 341641.53125 
301.215759 249769.859375 
309.242126 174442.0 
319.226318 304346.28125 
337.236755 183095.640625 
355.247467 647713.0625 
369.263153 5228309.5 
387.273743 385477.46875 
400.641174 38067.015625 
404.300293 73873.359375 
451.813629 10008.666016 
482.53299 19642.195312 
526.765259 22434.416016 
548.051697 9828.023438 
637.658081 51437.039062 
END IONS

BEGIN IONS
RTINSECONDS=297.415985
CHARGE=1+
MSLEVEL=2
SMILES=CCCCCCCCCCCC1[C@H](C(=O)O)C(C)C(=O)O1
INCHI=InChI=1S/C17H30O4/c1-3-4-5-6-7-8-9-10-11-12-14-15(16(18)19)13(2)17(20)21-14/h13-15H,3-12H2,1-2H3,(H,18,19)/t13?,14?,15-/m1/s1
INCHIKEY=PKXAQFKGSXYQJX-YMAMQOFZSA-N
CLASS=Paraconic acids
ADDUCT=[M+H]+
INSTRUMENT=Thermo Q-Exactive Focus
PRECURSOR_MZ=299.2222
COMPOUND_NAME=Nephrosteranic acid
ION_MODE=positive
FORMULA=C17H30O4
67.055115 254843.15625 
69.070763 278347.96875 
81.070648 482643.875 
83.086174 249669.390625 
95.086105 456231.5625 
109.101692 254437.59375 
133.101257 179108.5625 
147.116821 144217.375 
179.179596 160258.90625 
189.163971 149819.796875 
217.195358 388366.28125 
235.205795 328842.6875 
245.190872 11892.267578 
263.200592 190395.859375 
281.211029 139442.328125 
END IONS

BEGIN IONS
RTINSECONDS=182.311005
CHARGE=1+
MSLEVEL=2
SMILES=O=C1OC2=C(c3ccccc3)C(=O)OC2=C1c1ccccc1
INCHI=InChI=1S/C18H10O4/c19-17-13(11-7-3-1-4-8-11)15-16(22-17)14(18(20)21-15)12-9-5-2-6-10-12/h1-10H
INCHIKEY=KQTXUHHOWJUFOZ-UHFFFAOYSA-N
CLASS=Pulvinic Acid Derivatives
ADDUCT=[M+H]+
INSTRUMENT=Thermo Q-Exactive Focus
PRECURSOR_MZ=291.0657
COMPOUND_NAME=Pulvinic acid dilactone
ION_MODE=positive
FORMULA=C18H10O4
51.846581 13974.936523 
54.64946 12369.913086 
63.614105 23712.166016 
89.039299 79588.351562 
105.034103 40125.636719 
117.03389 44415.882812 
145.028427 103215.96875 
155.223526 32985.332031 
178.077637 189122.90625 
179.085678 291199.1875 
207.080582 2340146.0 
217.065384 98245.921875 
235.075439 660280.4375 
245.060486 46079.214844 
263.070343 993587.4375 
END IONS

BEGIN IONS
RTINSECONDS=240.233994
CHARGE=1+
MSLEVEL=2
SMILES=Oc1c(C(=O)Oc2cc(O)c(C(=O)O)c(CC(=O)CCC)c2)c(CC(=O)CCC)cc(OC)c1
INCHI=InChI=1S/C25H28O9/c1-4-6-16(26)8-14-11-19(13-20(28)22(14)24(30)31)34-25(32)23-15(9-17(27)7-5-2)10-18(33-3)12-21(23)29/h10-13,28-29H,4-9H2,1-3H3,(H,30,31)
INCHIKEY=QZZMDINWSWWNKM-UHFFFAOYSA-N
CLASS=Depsides (Didepsides)
ADDUCT=[M+H]+
INSTRUMENT=Thermo Q-Exactive Focus
PRECURSOR_MZ=473.1812
COMPOUND_NAME=Glomellic acid
ION_MODE=positive
FORMULA=C25H28O9
53.639595 119721.453125 
55.074211 126879.40625 
60.257553 131587.75 
61.059155 148282.46875 
80.732513 143084.09375 
107.04924 195951.859375 
137.059784 685210.625 
163.076569 1396558.625 
179.033951 1542275.875 
189.09108 3287144.0 
207.101425 7400858.0 
217.085861 1521323.0 
221.081009 3355114.25 
235.096558 26529394.0 
248.885895 168437.390625 
274.345795 6853.607422 
275.406403 36149.433594 
288.235382 6489.856934 
350.156372 45495.234375 
383.034943 12096.923828 
384.232483 12202.108398 
410.329712 208201.28125 
415.189331 43162.914062 
437.658783 40408.347656 
END IONS

BEGIN IONS
RTINSECONDS=322.432007
CHARGE=1+
MSLEVEL=2
SMILES=CC(C)C[C@@H](C(=O)OC)NC(=O)/C(=C\1/C(=C(C(=O)O1)c1ccccc1)O)/c1ccccc1
INCHI=InChI=1S/C25H25NO6/c1-15(2)14-18(24(29)31-3)26-23(28)20(17-12-8-5-9-13-17)22-21(27)19(25(30)32-22)16-10-6-4-7-11-16/h4-13,15,18,27H,14H2,1-3H3,(H,26,28)/b22-20-/t18-/m0/s1
INCHIKEY=IBSRGCBHIASQMQ-BKBKCADHSA-N
CLASS=Pulvinic Acid Derivatives
ADDUCT=[M+NH4]+
INSTRUMENT=Thermo Q-Exactive Focus
PRECURSOR_MZ=453.2026
COMPOUND_NAME=Epanorin
ION_MODE=positive
FORMULA=C25H25NO6
50.669056 90653.617188 
86.096863 11490888.0 
91.969765 108187.398438 
105.033638 147975.734375 
113.425133 119646.359375 
145.028152 155760.125 
146.117172 7530818.5 
178.077942 120049.976562 
179.085007 519285.40625 
207.07991 5215634.0 
217.065002 257717.234375 
235.074615 2961560.0 
235.098648 128965.382812 
245.059525 187015.171875 
263.069458 5634955.5 
271.718201 75101.382812 
291.064148 935499.125 
295.219269 63208.875 
361.343597 71816.5 
391.092224 126332.632812 
404.147064 187611.53125 
411.520844 9111.717773 
436.119781 117845.445312 
436.174164 3424115.5 
END IONS

BEGIN IONS
RTINSECONDS=254.692001
CHARGE=1+
MSLEVEL=2
SMILES=CC(C)C[C@H](NC(=O)c1ccccc1)C(=O)OC[C@@H](NC(=O)c1ccccc1)Cc1ccccc1
INCHI=InChI=1S/C29H32N2O4/c1-21(2)18-26(31-28(33)24-16-10-5-11-17-24)29(34)35-20-25(19-22-12-6-3-7-13-22)30-27(32)23-14-8-4-9-15-23/h3-17,21,25-26H,18-20H2,1-2H3,(H,30,32)(H,31,33)/t25-,26-/m0/s1
INCHIKEY=JOOSAYNHLJGJCN-UIOOFZCWSA-N
CLASS=N-Containing Compounds
ADDUCT=[2M+Na]+
INSTRUMENT=Thermo Q-Exactive Focus
PRECURSOR_MZ=967.4622
COMPOUND_NAME=Hypothallin
ION_MODE=positive
FORMULA=C29H32N2O4
79.054955 461241.46875 
87.049591 279633.375 
105.034027 3022526.0 
108.078896 328165.96875 
117.07029 3536449.5 
122.060455 1665327.125 
145.026215 322137.09375 
238.122971 7854292.5 
258.110504 30496998.0 
260.105133 5701381.5 
260.130127 228423.796875 
495.226288 36281888.0 
495.293274 182498.234375 
END IONS

BEGIN IONS
RTINSECONDS=274.826996
CHARGE=1+
MSLEVEL=2
SMILES=Oc1cc(OC(=O)c2c(O)cc(OC)cc2CCC(=O)CC)cc(CCCCC)c1C(=O)O
INCHI=InChI=1S/C25H30O8/c1-4-6-7-8-15-12-19(14-20(27)22(15)24(29)30)33-25(31)23-16(9-10-17(26)5-2)11-18(32-3)13-21(23)28/h11-14,27-28H,4-10H2,1-3H3,(H,29,30)
INCHIKEY=UCYIOAVHQGSYLP-UHFFFAOYSA-N
CLASS=Depsides (Didepsides)
ADDUCT=[2M+Na]+
INSTRUMENT=Thermo Q-Exactive Focus
PRECURSOR_MZ=939.3779
COMPOUND_NAME=Miriquidic acid
ION_MODE=positive
FORMULA=C25H30O8
67.986183 74606.203125 
68.985817 82709.359375 
96.676025 87278.898438 
97.982841 89105.234375 
124.286377 76526.304688 
127.551041 95920.710938 
143.288239 89154.757812 
154.692032 57560.847656 
165.149323 68330.59375 
191.107224 78833.5 
213.088623 2406507.0 
229.083725 599985.875 
231.100189 179074.734375 
247.094559 526488.375 
257.078705 9169931.0 
275.089294 2477196.0 
275.11969 124349.664062 
306.3797 55186.066406 
320.476196 52772.003906 
320.552429 51306.417969 
347.211548 51884.167969 
376.625275 96451.304688 
404.137543 44510.457031 
463.172485 193289.28125 
472.097778 48339.765625 
481.18396 5997662.5 
513.138794 21232.353516 
525.510742 108960.140625 
583.156921 45370.101562 
583.26001 52808.183594 
659.55127 52747.730469 
740.462463 23463.273438 
742.110596 51382.480469 
811.24884 26312.007812 
897.207947 102862.742188 
961.039001 64605.175781 
963.801758 83138.757812 
END IONS

BEGIN IONS
RTINSECONDS=415.55899
CHARGE=1+
MSLEVEL=2
SMILES=CC1(C)C2[C@@](CCC1)(C)[C@H]1CC[C@@H]3[C@@]4(C)CC[C@H](C(C)(O)C)[C@@H]4CC[C@@]3(C)[C@]1(C)CC2=O
INCHI=InChI=1S/C30H50O2/c1-25(2)14-9-15-28(6)23-11-10-22-27(5)16-12-19(26(3,4)32)20(27)13-17-29(22,7)30(23,8)18-21(31)24(25)28/h19-20,22-24,32H,9-18H2,1-8H3/t19-,20-,22+,23+,24?,27-,28+,29+,30+/m0/s1
INCHIKEY=MAVUFYZBQWGXHD-GZTHSXTLSA-N
CLASS=Terpenoids : Triterpenes
ADDUCT=[2M+H]+
INSTRUMENT=Thermo Q-Exactive Focus
PRECURSOR_MZ=885.77
COMPOUND_NAME=22-hydroxy-6-hopanone
ION_MODE=positive
FORMULA=C30H50O2
123.117172 20368.556641 
149.13269 23601.851562 
161.132751 31363.910156 
163.148178 23134.099609 
177.163956 24647.167969 
191.179428 31929.191406 
203.179825 45723.878906 
217.195129 42867.496094 
221.190369 24882.150391 
235.206116 8784.495117 
309.217896 8028.169434 
316.707092 8358.329102 
323.278503 3773.364746 
335.221283 7261.895996 
357.286438 7268.115723 
385.346039 4064.572266 
407.368286 8651.706055 
425.378174 344094.375 
426.382751 11995.746094 
443.388733 493894.90625 
444.393921 11004.451172 
459.579071 8285.854492 
527.528748 9940.09082 
545.207581 8886.00293 
551.787048 3788.226562 
696.283997 4004.536133 
725.653198 4282.166992 
728.345886 3728.611084 
755.243347 10039.630859 
765.068665 3862.969971 
849.759277 4673.77002 
949.895447 4395.902344 
1029.382568 9318.578125 
1126.097168 3750.942383 
1140.683716 10282.375977 
1149.730347 4560.649902 
1214.823608 4133.179199 
1289.454468 4277.065918 
1335.265381 10880.514648 
1434.089844 4090.056152 
1450.199341 10291.979492 
1533.21936 10962.382812 
1699.843018 12321.291992 
1703.241821 4530.475586 
END IONS

BEGIN IONS
RTINSECONDS=202.070007
CHARGE=1+
MSLEVEL=2
SMILES=O=C1O/C(=C(/C(=O)N[C@H](C(=O)O)Cc2ccccc2)\c2ccccc2)/C(=C1c1ccccc1)O
INCHI=InChI=1S/C27H21NO6/c29-23-21(18-12-6-2-7-13-18)27(33)34-24(23)22(19-14-8-3-9-15-19)25(30)28-20(26(31)32)16-17-10-4-1-5-11-17/h1-15,20,29H,16H2,(H,28,30)(H,31,32)/b24-22+/t20-/m0/s1
INCHIKEY=XTLHEUFWRQKNNG-YVURAWIMSA-N
CLASS=Pulvinic Acid Derivatives
ADDUCT=[2M+NH4]+
INSTRUMENT=Thermo Q-Exactive Focus
PRECURSOR_MZ=928.3081
COMPOUND_NAME=Norrhizocarpic acid
ION_MODE=positive
FORMULA=C27H21NO6
69.786835 9663.824219 
77.809578 9909.092773 
96.403381 10402.753906 
120.081772 159236.65625 
131.050751 9688.706055 
166.087509 77148.890625 
172.088882 8965.989258 
207.081497 94507.921875 
235.076614 106932.28125 
263.071747 240909.03125 
291.066559 56175.070312 
410.141907 45804.96875 
456.147339 178876.609375 
657.043579 12271.008789 
776.842285 11330.624023 
END IONS

BEGIN IONS
RTINSECONDS=289.311005
CHARGE=1+
MSLEVEL=2
SMILES=CCCCCCCCCC[C@H]1C[C@H]([C@@H](C(=O)O1)C)C(=O)O
INCHI=InChI=1S/C17H30O4/c1-3-4-5-6-7-8-9-10-11-14-12-15(16(18)19)13(2)17(20)21-14/h13-15H,3-12H2,1-2H3,(H,18,19)/t13-,14-,15+/m0/s1
INCHIKEY=SRMPRRDLILJEAW-SOUVJXGZSA-N
CLASS=Acids
ADDUCT=[M+H]+
INSTRUMENT=Thermo Q-Exactive Focus
PRECURSOR_MZ=299.2222
COMPOUND_NAME=Acaranoic acid
ION_MODE=positive
FORMULA=C17H30O4
67.055222 1354114.5 
69.070862 1742303.625 
81.07074 2322553.25 
83.086372 1531985.5 
95.086212 2658854.25 
133.101379 1378550.125 
189.16394 1519198.125 
217.195557 1968316.75 
235.206055 1742764.875 
245.190338 395107.46875 
263.200867 2282686.75 
281.211273 1706049.375 
323.346283 179362.421875 
END IONS

BEGIN IONS
RTINSECONDS=279.191986
CHARGE=1+
MSLEVEL=2
SMILES=O=C1c2c(CCCCC)cc(OC)c(O)c2Oc2c(O1)cc(c(c2CCCCC)C(=O)O)O
INCHI=InChI=1S/C25H30O8/c1-4-6-8-10-14-12-17(31-3)21(27)23-19(14)25(30)32-18-13-16(26)20(24(28)29)15(22(18)33-23)11-9-7-5-2/h12-13,26-27H,4-11H2,1-3H3,(H,28,29)
INCHIKEY=VZPSCITXDMDLDC-UHFFFAOYSA-N
CLASS=Depsidones
ADDUCT=[2M+Na]+
INSTRUMENT=Thermo Q-Exactive Focus
PRECURSOR_MZ=939.3779
COMPOUND_NAME=3-Hydroxycolensoic acid
ION_MODE=positive
FORMULA=C25H30O8
66.893402 16890.460938 
69.878578 19958.208984 
76.228729 16716.472656 
80.550842 22771.169922 
91.962677 24026.576172 
97.099251 23490.509766 
139.098389 11688.415039 
163.412628 26674.074219 
181.809586 17932.015625 
218.632904 23522.166016 
218.905563 23550.685547 
220.093292 23427.335938 
237.779312 10335.951172 
295.10849 9712.130859 
295.831909 16029.043945 
330.407043 9066.079102 
330.912231 14632.518555 
347.092102 12312.350586 
366.110992 16501.400391 
395.191193 10548.004883 
402.549225 22844.873047 
405.507202 11691.066406 
437.192993 629773.125 
454.349426 28515.099609 
463.170563 58431.152344 
481.182648 2043433.375 
499.192108 92044.960938 
522.207703 13240.390625 
524.363586 13099.59668 
569.595581 12163.058594 
590.34967 16179.326172 
591.027954 12953.567383 
644.774841 29802.478516 
698.161377 27774.882812 
705.528625 12184.763672 
709.460083 16989.322266 
724.886414 28259.107422 
750.690796 28794.808594 
773.719238 14489.925781 
784.710815 13134.337891 
850.343628 27337.712891 
876.644104 18565.800781 
966.053955 12511.522461 
END IONS

BEGIN IONS
RTINSECONDS=290.343994
CHARGE=1+
MSLEVEL=2
SMILES=CC12C(=O)C(=C(C=C1Oc1c2c(O)c(C)c(O)c1C(=O)C)O)C(=O)C
INCHI=InChI=1S/C18H16O7/c1-6-14(22)12(8(3)20)16-13(15(6)23)18(4)10(25-16)5-9(21)11(7(2)19)17(18)24/h5,21-23H,1-4H3
INCHIKEY=WEYVVCKOOFYHRW-UHFFFAOYSA-N
CLASS=Dibenzofuranes
ADDUCT=[M+H]+
INSTRUMENT=Thermo Q-Exactive Focus
PRECURSOR_MZ=345.0974
COMPOUND_NAME=Usnic acid
ION_MODE=positive
FORMULA=C18H16O7
59.075356 27031.066406 
191.069672 268409.96875 
201.054657 199869.109375 
215.069885 908283.25 
219.06543 515812.75 
233.080826 3229130.0 
243.065552 448058.90625 
261.075745 2058394.75 
285.075409 617810.25 
303.08609 1623875.625 
309.075195 873925.75 
327.08609 4550571.0 
END IONS

BEGIN IONS
RTINSECONDS=377.317993
CHARGE=1+
MSLEVEL=2
SMILES=CC1(C)C(CC[C@@]2(C)C3CCC4C2(C)CCC5[C@H](O)C(CCC54C)(C)C)C3(C)CCC1=O
INCHI=InChI=1S/C30H48O/c1-19(2)20-11-15-27(5)21(20)12-17-29(7)23(27)9-10-24-28(6)16-14-25(31)26(3,4)22(28)13-18-30(24,29)8/h21-24H,9-18H2,1-8H3/t21-,22?,23+,24+,27-,28-,29+,30+/m0/s1
INCHIKEY=ZQDCMFHXUJCDNU-SYQMSMRNSA-N
CLASS=Terpenoids : Triterpenes
ADDUCT=[M+H]+
INSTRUMENT=Thermo Q-Exactive Focus
PRECURSOR_MZ=443.3889
COMPOUND_NAME=21-Hopen-3-on
ION_MODE=positive
FORMULA=C30H50O2
69.070747 204326.8125 
95.086174 755850.5 
107.086029 402628.5625 
109.101715 1077789.625 
121.101555 460345.84375 
133.101349 427767.75 
135.117355 319408.09375 
189.163849 391474.0625 
191.179794 352138.1875 
203.179642 528327.75 
217.195374 260505.515625 
282.010529 27922.583984 
297.258118 80809.109375 
315.268677 211278.421875 
329.284668 102382.992188 
341.286194 54957.632812 
343.298859 85096.28125 
356.76123 29564.314453 
407.366852 68454.734375 
425.377808 916812.125 
467.235535 28260.644531 
END IONS

BEGIN IONS
RTINSECONDS=294.674011
CHARGE=1+
MSLEVEL=2
SMILES=O=C1Oc2c(c3C[C@@](O)(CCCCC)OC(=O)c3c(O)c2)Oc2c1c(cc(c2)OC)CC(=O)CCCCC
INCHI=InChI=1S/C29H34O9/c1-4-6-8-10-18(30)12-17-13-19(35-3)14-22-24(17)27(32)37-23-15-21(31)25-20(26(23)36-22)16-29(34,38-28(25)33)11-9-7-5-2/h13-15,31,34H,4-12,16H2,1-3H3/t29-/m1/s1
INCHIKEY=DQYWDDCXRXABIH-GDLZYMKVSA-N
CLASS=Depsidones
ADDUCT=[2M+H]+
INSTRUMENT=Thermo Q-Exactive Focus
PRECURSOR_MZ=1053.4484
COMPOUND_NAME=Alpha-collatolic acid
ION_MODE=positive
FORMULA=C29H34O9
81.070793 15591.932617 
87.843864 12754.745117 
99.081177 235672.984375 
123.044487 51003.527344 
137.023682 21933.373047 
150.031464 28738.9375 
164.047211 51378.992188 
177.055786 30600.285156 
205.073608 114510.1875 
206.062576 61623.394531 
229.085983 35695.121094 
261.136536 44239.140625 
285.075653 67358.625 
287.09259 38538.539062 
311.055664 63698.527344 
313.070953 175435.96875 
315.160095 51808.210938 
368.127594 48852.066406 
369.133698 236303.453125 
383.149078 165829.578125 
385.164825 128040.390625 
393.13385 140090.296875 
411.144409 645242.875 
429.155151 162701.203125 
439.141113 50044.984375 
441.227783 62184.238281 
467.207275 815326.0 
491.206909 155408.828125 
508.234589 62092.507812 
509.21817 876296.0625 
526.243286 52814.605469 
527.228699 759131.6875 
534.690796 15242.767578 
585.711853 11311.587891 
598.67572 14477.132812 
629.875244 11302.399414 
687.0849 11760.050781 
703.796387 12727.894531 
895.095764 12318.77832 
END IONS

BEGIN IONS
RTINSECONDS=316.513
CHARGE=1+
MSLEVEL=2
SMILES=O=C1c2c(CCCCC)cc(OC)c(OC)c2Oc2c(O1)cc(c(c2CCCCC)C(=O)O)O
INCHI=InChI=1S/C26H32O8/c1-5-7-9-11-15-13-18(31-3)23(32-4)24-20(15)26(30)33-19-14-17(27)21(25(28)29)16(22(19)34-24)12-10-8-6-2/h13-14,27H,5-12H2,1-4H3,(H,28,29)
INCHIKEY=GHBZVNHEVHMKOB-UHFFFAOYSA-N
CLASS=Depsidones
ADDUCT=[2M+Na]+
INSTRUMENT=Thermo Q-Exactive Focus
PRECURSOR_MZ=967.4092
COMPOUND_NAME=3-Methoxycolensoic acid
ION_MODE=positive
FORMULA=C26H32O8
73.301994 21404.080078 
77.148178 18179.867188 
91.963142 76814.726562 
103.425743 21592.082031 
112.680664 20474.400391 
143.877045 21456.566406 
152.293472 18226.345703 
163.164047 20933.845703 
178.095398 16909.158203 
193.814178 17316.976562 
220.652481 20279.558594 
230.219833 16134.410156 
237.153397 22473.324219 
268.532562 23481.869141 
370.840149 28440.365234 
390.674286 20693.765625 
400.792175 14550.408203 
414.202026 21343.529297 
416.206299 17594.449219 
451.209106 897511.4375 
477.187103 62167.28125 
482.049988 22209.865234 
495.198822 2114616.25 
513.209412 91521.507812 
536.225098 30266.699219 
561.749268 23363.732422 
636.352112 16704.923828 
672.771912 22683.679688 
681.560913 22838.779297 
697.749084 20103.003906 
720.409851 24625.916016 
721.93158 26277.609375 
736.044067 18812.292969 
746.59668 17607.09375 
751.840637 19823.949219 
869.521729 18382.671875 
871.867004 17983.988281 
916.30011 20037.103516 
919.908508 17999.287109 
941.531616 20220.939453 
949.38623 25829.273438 
END IONS

BEGIN IONS
RTINSECONDS=155.362
CHARGE=1+
MSLEVEL=2
SMILES=O=C(C)O[C@@H]1[C@@H](O)[C@H](O)[C@@H](COC(=O)C)O[C@H]1Oc1cc2oc(C)cc(=O)c2c(O)c1C
INCHI=InChI=1S/C21H24O11/c1-8-5-12(24)16-14(29-8)6-13(9(2)17(16)25)31-21-20(30-11(4)23)19(27)18(26)15(32-21)7-28-10(3)22/h5-6,15,18-21,25-27H,7H2,1-4H3/t15-,18-,19+,20-,21-/m1/s1
INCHIKEY=AFCAWRFTSGVRQA-CMWLGVBASA-N
CLASS=Chromanes and Chromones
ADDUCT=[2M+Na]+
INSTRUMENT=Thermo Q-Exactive Focus
PRECURSOR_MZ=927.2535
COMPOUND_NAME=Roccellin
ION_MODE=positive
FORMULA=C21H24O11
70.68084 21335.869141 
78.884377 21415.271484 
83.449966 20886.851562 
96.673553 25379.642578 
99.725197 62169.273438 
127.038193 62525.328125 
146.700424 67004.875 
167.212601 25255.654297 
191.447876 70361.898438 
209.042236 29031.976562 
228.040192 26555.589844 
229.04715 1100952.25 
229.069458 30600.601562 
267.620178 11788.583008 
269.062988 1577821.375 
279.47467 11884.329102 
284.932434 10537.698242 
335.470947 72842.960938 
341.501953 68833.65625 
348.188019 74985.5625 
350.071136 29308.568359 
357.042511 24183.087891 
446.825897 12123.258789 
475.121155 11706306.0 
489.233521 27310.525391 
523.614624 10758.606445 
596.48407 77947.148438 
651.334839 28978.146484 
676.467773 80824.757812 
718.252502 61599.878906 
728.696167 30580.117188 
END IONS

BEGIN IONS
RTINSECONDS=242.427994
CHARGE=1+
MSLEVEL=2
SMILES=CC(C)C[C@H](NC(=O)c1ccccc1)C(=O)OC[C@@H](NC(=O)c1ccccc1)Cc1ccccc1
INCHI=InChI=1S/C29H32N2O4/c1-21(2)18-26(31-28(33)24-16-10-5-11-17-24)29(34)35-20-25(19-22-12-6-3-7-13-22)30-27(32)23-14-8-4-9-15-23/h3-17,21,25-26H,18-20H2,1-2H3,(H,30,32)(H,31,33)/t25-,26-/m0/s1
INCHIKEY=JOOSAYNHLJGJCN-UIOOFZCWSA-N
CLASS=N-Containing Compounds
ADDUCT=[M+NH4]+
INSTRUMENT=Thermo Q-Exactive Focus
PRECURSOR_MZ=490.2706
COMPOUND_NAME=Hypothallin
ION_MODE=positive
FORMULA=C29H32N2O4
79.055023 79448.601562 
91.055115 189738.875 
105.034096 2218723.5 
117.070412 1046150.875 
122.060692 335722.78125 
134.096756 209200.75 
176.107147 35166.375 
190.122955 421462.875 
204.102875 15093.3125 
218.118073 185615.265625 
238.122971 2572401.75 
239.106583 36796.699219 
256.133514 1098105.875 
272.084991 12016.361328 
290.094788 9951.081055 
342.320251 2825.04834 
374.458069 7559.70752 
426.011505 5615.108398 
447.344391 6973.240234 
458.281555 8468.084961 
473.243652 48904.386719 
END IONS

BEGIN IONS
RTINSECONDS=293.970001
CHARGE=1+
MSLEVEL=2
SMILES=CCCCCc1cc(cc(c1C(=O)O)OC)OC(=O)c1c(cc(cc1CC(=O)CCCCC)OC)O
INCHI=InChI=1S/C28H36O8/c1-5-7-9-11-18-14-22(17-24(35-4)26(18)27(31)32)36-28(33)25-19(13-20(29)12-10-8-6-2)15-21(34-3)16-23(25)30/h14-17,30H,5-13H2,1-4H3,(H,31,32)
INCHIKEY=UANVCGQMNRTKGM-UHFFFAOYSA-N
CLASS=Depsides (Didepsides)
ADDUCT=[M+K]+
INSTRUMENT=Thermo Q-Exactive Focus
PRECURSOR_MZ=539.2047
COMPOUND_NAME=Confluentic acid
ION_MODE=positive
FORMULA=C28H36O8
53.52129 8762.275391 
56.255333 8386.287109 
57.474648 8177.57373 
72.702896 9758.981445 
74.340897 8878.648438 
113.097931 7126.280762 
127.940575 6823.791016 
138.274841 8584.083008 
140.299149 8400.929688 
204.208176 6847.341309 
212.849197 6935.257324 
214.837769 10201.435547 
226.204803 10377.833008 
231.245972 7848.007812 
259.073761 33018.847656 
277.08371 55766.488281 
301.083923 278483.625 
301.117157 13208.958984 
319.09259 13274.885742 
323.967621 8681.273438 
337.095673 14362.181641 
362.19397 3209.188477 
374.784698 7693.512207 
445.099854 8931.441406 
485.30365 8823.144531 
518.754395 7958.685547 
END IONS

BEGIN IONS
RTINSECONDS=136.529007
CHARGE=1+
MSLEVEL=2
SMILES=Cc1c(c(c2c(c1)C(=O)c1cc(cc(c1C2=O)O)O)O)C(=O)O
INCHI=InChI=1S/C16H10O7/c1-5-2-7-12(14(20)10(5)16(22)23)15(21)11-8(13(7)19)3-6(17)4-9(11)18/h2-4,17-18,20H,1H3,(H,22,23)
INCHIKEY=UZOHDKGTYVTYDZ-UHFFFAOYSA-N
CLASS=Quinones
ADDUCT=[M+H]+
INSTRUMENT=Thermo Q-Exactive Focus
PRECURSOR_MZ=315.0505
COMPOUND_NAME=Endocrocin
ION_MODE=positive
FORMULA=C16H10O7
56.470207 128403.0 
72.120384 130517.5625 
82.959236 134654.078125 
102.014374 152418.140625 
102.915932 129537.359375 
135.19223 124492.96875 
151.817337 124048.695312 
159.044266 59237.890625 
178.243591 38473.523438 
213.054611 1466309.625 
227.033997 531785.625 
241.049698 239008.640625 
245.044083 605863.5 
269.044586 759545.9375 
286.442535 148331.171875 
297.039032 30112882.0 
END IONS

BEGIN IONS
RTINSECONDS=291.778992
CHARGE=1+
MSLEVEL=2
SMILES=CCCCCc1cc(cc(c1C(=O)O)OC)OC(=O)c1c(cc(cc1CC(=O)CCCCC)OC)O
INCHI=InChI=1S/C28H36O8/c1-5-7-9-11-18-14-22(17-24(35-4)26(18)27(31)32)36-28(33)25-19(13-20(29)12-10-8-6-2)15-21(34-3)16-23(25)30/h14-17,30H,5-13H2,1-4H3,(H,31,32)
INCHIKEY=UANVCGQMNRTKGM-UHFFFAOYSA-N
CLASS=Depsides (Didepsides)
ADDUCT=[M+NH4]+
INSTRUMENT=Thermo Q-Exactive Focus
PRECURSOR_MZ=518.2754
COMPOUND_NAME=Confluentic acid
ION_MODE=positive
FORMULA=C28H36O8
53.436569 78976.679688 
55.055336 283340.34375 
69.070671 80326.671875 
124.052383 551944.3125 
137.05986 1827879.5 
163.075653 1995494.5 
175.075546 1831665.875 
195.138184 1803215.375 
221.117432 9905500.0 
235.132812 2735838.5 
239.127899 5323592.5 
263.127899 28978258.0 
END IONS

BEGIN IONS
RTINSECONDS=264.627991
CHARGE=1+
MSLEVEL=2
SMILES=O=C1C(=C(O)/C(=C(/c2ccccc2)\C(=O)OC)/O1)c1ccccc1
INCHI=InChI=1S/C19H14O5/c1-23-18(21)15(13-10-6-3-7-11-13)17-16(20)14(19(22)24-17)12-8-4-2-5-9-12/h2-11,20H,1H3/b17-15+
INCHIKEY=OMZRMXULWNMRAE-BMRADRMJSA-N
CLASS=Pulvinic Acid Derivatives
ADDUCT=[M+NH4]+
INSTRUMENT=Thermo Q-Exactive Focus
PRECURSOR_MZ=340.1185
COMPOUND_NAME=Vulpinic acid
ION_MODE=positive
FORMULA=C19H14O5
89.039299 62912.175781 
91.964554 173855.328125 
117.033836 17684.951172 
145.028625 407068.28125 
178.077667 151332.609375 
179.085388 538771.4375 
207.080231 7074724.0 
217.065414 417572.25 
235.075119 4633562.0 
245.059235 241014.390625 
263.069977 10543857.0 
291.06485 2841111.0 
323.091003 4588398.0 
END IONS

BEGIN IONS
RTINSECONDS=261.144989
CHARGE=1+
MSLEVEL=2
SMILES=O=C1c2c(CC(=O)CCCCC)cc(OC)c(O)c2Oc2c(O1)cc(c(c2CCCCC)C(=O)O)O
INCHI=InChI=1S/C27H32O9/c1-4-6-8-10-16(28)12-15-13-19(34-3)23(30)25-21(15)27(33)35-20-14-18(29)22(26(31)32)17(24(20)36-25)11-9-7-5-2/h13-14,29-30H,4-12H2,1-3H3,(H,31,32)
INCHIKEY=YFNNJORBJZUGCV-UHFFFAOYSA-N
CLASS=Depsidones
ADDUCT=[M+H]+
INSTRUMENT=Thermo Q-Exactive Focus
PRECURSOR_MZ=501.2125
COMPOUND_NAME=Lividic acid
ION_MODE=positive
FORMULA=C27H32O9
59.436268 237275.390625 
71.086281 13064176.0 
72.089653 559455.375 
95.086189 172960.578125 
99.080894 3289961.25 
177.09079 3621232.5 
178.094421 682456.6875 
193.049469 2290774.75 
233.080994 13418159.0 
234.084305 1914866.875 
271.097015 5063433.0 
277.106842 5601153.5 
286.119324 5443264.5 
287.055969 4811929.0 
331.154266 6912264.5 
342.108948 16119588.0 
343.116608 4387332.0 
387.143799 12629023.0 
413.122742 24019458.0 
415.211365 10117281.0 
441.190247 115532400.0 
442.193695 41090896.0 
457.221954 11067398.0 
483.199707 21563276.0 
END IONS

BEGIN IONS
RTINSECONDS=14.7586
CHARGE=1+
MSLEVEL=2
SMILES=OC[C@@H](O)[C@@H](O)[C@H](O)[C@H](O)CO
INCHI=InChI=1S/C6H14O6/c7-1-3(9)5(11)6(12)4(10)2-8/h3-12H,1-2H2/t3-,4-,5-,6-/m1/s1
INCHIKEY=FBPFZTCFMRRESA-KVTDHHQDSA-N
CLASS="Polyols, Monosaccharides, Carbohydrates"
ADDUCT=[M+NH4]+
INSTRUMENT=Thermo Q-Exactive Focus
PRECURSOR_MZ=200.1134
COMPOUND_NAME=D-Mannitol
ION_MODE=positive
FORMULA=C6H14O6
61.02932 705597.25 
69.034317 7741773.0 
83.050087 1483515.5 
85.02903 1374256.75 
99.044518 1433938.625 
111.044403 1593176.75 
129.054626 2536325.25 
147.065262 2304824.0 
165.07579 1485731.125 
176.390732 80420.0 
183.086182 1171960.0 
END IONS

BEGIN IONS
RTINSECONDS=317.057007
CHARGE=1+
MSLEVEL=2
SMILES=O=C1c2c(CCCCC)cc(OC)c(OC)c2Oc2c(O1)cc(c(c2CCCCC)C(=O)O)O
INCHI=InChI=1S/C26H32O8/c1-5-7-9-11-15-13-18(31-3)23(32-4)24-20(15)26(30)33-19-14-17(27)21(25(28)29)16(22(19)34-24)12-10-8-6-2/h13-14,27H,5-12H2,1-4H3,(H,28,29)
INCHIKEY=GHBZVNHEVHMKOB-UHFFFAOYSA-N
CLASS=Depsidones
ADDUCT=[M+NH4]+
INSTRUMENT=Thermo Q-Exactive Focus
PRECURSOR_MZ=490.2441
COMPOUND_NAME=3-Methoxycolensoic acid
ION_MODE=positive
FORMULA=C26H32O8
52.330013 73975.117188 
53.950436 73089.890625 
63.795536 74846.773438 
91.970154 235179.03125 
100.806793 75110.351562 
104.517181 86244.6875 
109.973671 75932.320312 
153.632034 74608.359375 
165.473083 71285.140625 
178.762512 66862.195312 
179.06749 37543.90625 
192.113861 46423.753906 
194.92746 73357.8125 
235.132751 2098402.75 
247.097565 192592.703125 
251.128906 51655.234375 
303.159851 205447.46875 
359.148651 131602.9375 
359.221619 169442.9375 
369.1698 169686.78125 
385.12854 502332.03125 
385.201385 175167.859375 
387.215546 431201.5625 
413.195526 4565660.0 
455.205902 1258902.625 
469.226807 84448.53125 
473.150543 166356.40625 
473.216919 3482026.25 
510.684204 81249.578125 
END IONS

BEGIN IONS
RTINSECONDS=255.104004
CHARGE=1+
MSLEVEL=2
SMILES=O=C1Oc2c(c(C)c(Cl)c(OC)c2)Oc2c(Cl)c(O)c(Cl)c(C)c12
INCHI=InChI=1S/C16H11Cl3O5/c1-5-9-15(12(19)13(20)11(5)18)24-14-6(2)10(17)7(22-3)4-8(14)23-16(9)21/h4,20H,1-3H3
INCHIKEY=XEDMLQPKKYHCKK-UHFFFAOYSA-N
CLASS=Depsidones
ADDUCT=[M+H+CH3OH]+
INSTRUMENT=Thermo Q-Exactive Focus
PRECURSOR_MZ=421.0012
COMPOUND_NAME=Dechlorodiploicin
ION_MODE=positive
FORMULA=C16H11Cl3O5
56.043568 36358.675781 
68.317169 43947.773438 
75.828186 45591.320312 
91.963417 82401.3125 
113.015327 67251.703125 
142.018356 79627.296875 
169.005524 703489.3125 
170.013275 131568.3125 
176.986801 726140.8125 
185.00032 172321.6875 
204.98204 367766.15625 
233.036514 185481.046875 
261.031097 147708.109375 
262.038849 247240.1875 
294.993164 133576.46875 
297.007721 460663.84375 
325.002747 448879.875 
352.997559 294970.59375 
388.974152 2225036.75 
395.942596 14598.06543 
END IONS

BEGIN IONS
RTINSECONDS=222.436996
CHARGE=1+
MSLEVEL=2
SMILES=Cc1cc(=O)c2c(c(C)c(O[C@H]3[C@H](OC(=O)C)[C@@H](OC(=O)C)[C@H](OC(=O)C)[C@@H](COC(=O)C)O3)cc2O)o1
INCHI=InChI=1S/C25H28O13/c1-10-7-16(30)20-17(31)8-18(11(2)21(20)33-10)37-25-24(36-15(6)29)23(35-14(5)28)22(34-13(4)27)19(38-25)9-32-12(3)26/h7-8,19,22-25,31H,9H2,1-6H3/t19-,22-,23+,24-,25-/m1/s1
INCHIKEY=NWASWCGVBSEDJX-HYOIWIKGSA-N
CLASS=Chromanes and Chromones
ADDUCT=[2M+Na]+
INSTRUMENT=Thermo Q-Exactive Focus
PRECURSOR_MZ=1095.2958
COMPOUND_NAME=Acetylloboridin
ION_MODE=positive
FORMULA=C25H28O13
81.034241 160930.578125 
97.029121 86452.976562 
109.028938 714553.5625 
127.039436 208693.546875 
140.409012 69946.421875 
169.049881 370698.1875 
191.031982 200304.421875 
207.065903 281492.25 
229.047226 1212771.625 
251.052963 813272.5625 
269.081757 225599.3125 
293.064178 317533.15625 
297.075806 412363.0 
315.086456 365497.25 
337.069611 140418.703125 
353.084137 609480.3125 
375.107574 83043.070312 
379.079224 197950.203125 
397.09024 193331.640625 
439.099884 352865.59375 
442.222961 80894.929688 
478.79245 12052.799805 
493.082916 38459.464844 
499.121399 1366235.875 
532.291199 11097.578125 
545.350281 77948.554688 
559.142761 25755102.0 
629.042419 76515.125 
729.037781 63187.324219 
736.50415 81590.171875 
790.928162 31471.101562 
912.339722 94868.359375 
921.055664 13048.788086 
930.607971 70082.046875 
983.364075 71866.921875 
985.028809 14742.481445 
END IONS

BEGIN IONS
RTINSECONDS=155.160004
CHARGE=1+
MSLEVEL=2
SMILES=O=C(C)O[C@@H]1[C@@H](O)[C@H](O)[C@@H](COC(=O)C)O[C@H]1Oc1cc2oc(C)cc(=O)c2c(O)c1C
INCHI=InChI=1S/C21H24O11/c1-8-5-12(24)16-14(29-8)6-13(9(2)17(16)25)31-21-20(30-11(4)23)19(27)18(26)15(32-21)7-28-10(3)22/h5-6,15,18-21,25-27H,7H2,1-4H3/t15-,18-,19+,20-,21-/m1/s1
INCHIKEY=AFCAWRFTSGVRQA-CMWLGVBASA-N
CLASS=Chromanes and Chromones
ADDUCT=[M+Na]+
INSTRUMENT=Thermo Q-Exactive Focus
PRECURSOR_MZ=475.1216
COMPOUND_NAME=Roccellin
ION_MODE=positive
FORMULA=C21H24O11
51.258343 59321.257812 
73.925438 58937.6875 
77.391281 68037.757812 
84.607506 67183.109375 
91.969559 131640.1875 
113.868477 60833.167969 
136.78035 58540.492188 
153.354324 70285.335938 
181.213409 69088.96875 
188.336319 32643.601562 
221.238876 88730.007812 
226.770096 30572.957031 
229.047379 314360.59375 
269.063293 441468.4375 
290.33493 36902.234375 
299.662872 19504.480469 
339.537109 9964.227539 
343.359161 18000.371094 
413.74408 9933.733398 
413.811676 8695.795898 
437.937805 9710.898438 
END IONS

BEGIN IONS
RTINSECONDS=207.356995
CHARGE=1+
MSLEVEL=2
SMILES=O=C1c2c(C)c(Cl)c(O)c(Cl)c2Oc2c(O1)cc(c(c2C)C(=O)OC)OC
INCHI=InChI=1S/C18H14Cl2O7/c1-6-11-16(13(20)14(21)12(6)19)27-15-7(2)10(17(22)25-4)8(24-3)5-9(15)26-18(11)23/h5,21H,1-4H3
INCHIKEY=RPHAAJGBADUATP-UHFFFAOYSA-N
CLASS=Depsidones
ADDUCT=[M+H]+
INSTRUMENT=Thermo Q-Exactive Focus
PRECURSOR_MZ=413.0195
COMPOUND_NAME=Gangaleoidin
ION_MODE=positive
FORMULA=C18H14Cl2O7
173.015579 176393.921875 
202.017822 192375.421875 
264.982208 98245.875 
292.976715 634153.25 
293.984619 1553726.25 
320.972046 1802178.75 
321.980438 890155.125 
348.9664 6469615.5 
352.997986 467674.78125 
380.992615 17178068.0 
END IONS

BEGIN IONS
RTINSECONDS=247.389008
CHARGE=1+
MSLEVEL=2
SMILES=O=C1c2c(CC(=O)CCCCC)cc(O)cc2Oc2c(O1)cc(c(c2CCCCC)C(=O)O)O
INCHI=InChI=1S/C26H30O8/c1-3-5-7-9-16(27)11-15-12-17(28)13-20-22(15)26(32)34-21-14-19(29)23(25(30)31)18(24(21)33-20)10-8-6-4-2/h12-14,28-29H,3-11H2,1-2H3,(H,30,31)
INCHIKEY=KVTYWHGIZSCFLG-UHFFFAOYSA-N
CLASS=Depsidones
ADDUCT=[M+H+CH3OH]+
INSTRUMENT=Thermo Q-Exactive Focus
PRECURSOR_MZ=503.2281
COMPOUND_NAME=Physodic acid
ION_MODE=positive
FORMULA=C26H30O8
60.729561 27265.642578 
70.846092 25834.832031 
71.086563 153745.125 
76.538048 27191.568359 
99.081383 59451.265625 
121.540474 30768.316406 
163.039536 17679.841797 
177.091156 39962.628906 
203.071091 50654.324219 
205.087387 40584.375 
259.060913 72702.132812 
271.06076 33468.035156 
301.116394 34349.128906 
301.143921 152312.578125 
312.099457 70284.695312 
313.107971 120258.78125 
329.138702 41101.609375 
357.13501 158453.96875 
357.207642 99669.25 
383.113678 174104.25 
385.200989 200309.6875 
411.181 1846367.75 
427.212463 259213.515625 
435.186707 42105.671875 
453.1922 341869.375 
471.202484 566169.3125 
471.267242 11261.882812 
486.180359 8665.814453 
END IONS

BEGIN IONS
RTINSECONDS=262.217987
CHARGE=1+
MSLEVEL=2
SMILES=Cc1cc(c(c(c1C(=O)O)O)C)OC(=O)c1c(c(c(cc1C)OC)C)OC
INCHI=InChI=1S/C20H22O7/c1-9-8-14(11(3)17(21)15(9)19(22)23)27-20(24)16-10(2)7-13(25-5)12(4)18(16)26-6/h7-8,21H,1-6H3,(H,22,23)
INCHIKEY=MIJKZXWOOXIEEU-UHFFFAOYSA-N
CLASS=Depsides (Didepsides)
ADDUCT=[2M+NH4]+
INSTRUMENT=Thermo Q-Exactive Focus
PRECURSOR_MZ=766.3075
COMPOUND_NAME=Diffractaic acid
ION_MODE=positive
FORMULA=C20H22O7
58.119389 13171.725586 
67.094193 13122.569336 
71.466782 14031.228516 
105.070244 13718.679688 
107.049454 13823.820312 
120.477074 11162.021484 
137.059662 30120.408203 
150.067703 35160.097656 
178.062332 47840.648438 
193.085953 6000864.5 
194.089615 60842.996094 
195.091339 9492.492188 
207.180664 10834.611328 
250.350449 8894.882812 
298.317474 9533.807617 
307.793335 8916.817383 
329.697052 8461.643555 
345.810333 12427.227539 
351.140137 9072.954102 
375.143677 387727.0 
410.680115 9516.688477 
476.319031 10240.805664 
478.096375 15631.879883 
672.391418 8598.038086 
END IONS

BEGIN IONS
RTINSECONDS=293.747009
CHARGE=1+
MSLEVEL=2
SMILES=Cc1c2c(Oc3c(OC2=O)c(c(c(c3C)Cl)OC)C)c(Cl)c(O)c1Cl
INCHI=InChI=1S/C17H13Cl3O5/c1-5-8-16(11(20)12(21)9(5)18)24-14-6(2)10(19)13(23-4)7(3)15(14)25-17(8)22/h21H,1-4H3
INCHIKEY=MTWNEIGWRWQLFS-UHFFFAOYSA-N
CLASS=Depsidones
ADDUCT=[M+H]+
INSTRUMENT=Thermo Q-Exactive Focus
PRECURSOR_MZ=402.9907
COMPOUND_NAME=Caloploicin
ION_MODE=positive
FORMULA=C17H13Cl3O5
51.503036 5896.308105 
60.455498 4748.429688 
68.193977 6042.08252 
69.253426 5412.218262 
122.072762 16987.125 
123.868111 5727.233887 
126.741257 5757.324707 
135.620697 6308.593262 
143.745224 7356.407227 
157.041855 106043.609375 
185.036469 5588.526367 
218.961212 13992.680664 
219.831696 6032.487305 
246.727585 5780.177734 
280.005066 11728.77832 
295.999603 18139.609375 
306.992645 18762.089844 
331.940704 44710.726562 
339.018494 41013.746094 
342.969147 18939.960938 
346.964203 70930.101562 
374.995056 34482.996094 
END IONS

BEGIN IONS
RTINSECONDS=267.608002
CHARGE=1+
MSLEVEL=2
SMILES=O=C(Oc1c(O)cc(CCCCC)c(C(=O)O)c1O)c1c(CCC)cc(OC)cc1OC
INCHI=InChI=1S/C24H30O8/c1-5-7-8-10-15-12-17(25)22(21(26)20(15)23(27)28)32-24(29)19-14(9-6-2)11-16(30-3)13-18(19)31-4/h11-13,25-26H,5-10H2,1-4H3,(H,27,28)
INCHIKEY=AAKHGLJWUOZNTQ-UHFFFAOYSA-N
CLASS=Depsides (Didepsides)
ADDUCT=[2M+NH4]+
INSTRUMENT=Thermo Q-Exactive Focus
PRECURSOR_MZ=910.4225
COMPOUND_NAME=Merochlorophaeic acid
ION_MODE=positive
FORMULA=C24H30O8
63.781013 97998.773438 
66.657074 89751.539062 
68.866562 102989.929688 
77.390221 89218.484375 
87.013596 118155.476562 
107.590591 96114.492188 
174.067474 272197.9375 
176.083344 294741.65625 
179.106537 488157.96875 
189.090973 805565.3125 
192.077957 726447.5 
207.1017 57295712.0 
235.13353 144004.21875 
247.185104 10107.104492 
284.44046 15832.806641 
328.563019 17043.255859 
427.725525 12400.419922 
429.440521 30731.646484 
437.888 135268.640625 
447.203369 12549.334961 
476.151093 15283.348633 
573.434998 35522.9375 
597.490479 11920.504883 
621.003418 9941.213867 
717.587585 37020.832031 
730.757812 163104.671875 
834.277161 10410.764648 
873.84436 35246.09375 
887.34436 32484.664062 
END IONS

BEGIN IONS
RTINSECONDS=228.136993
CHARGE=1+
MSLEVEL=2
SMILES=O=C(OC)/C(=C\1/OC(=O)C(=C1OC)c1ccccc1)/c1c(OC)cccc1
INCHI=InChI=1S/C21H18O6/c1-24-15-12-8-7-11-14(15)17(20(22)26-3)19-18(25-2)16(21(23)27-19)13-9-5-4-6-10-13/h4-12H,1-3H3/b19-17+
INCHIKEY=WGZKMINRLLRJPF-HTXNQAPBSA-N
CLASS=Pulvinic Acid Derivatives
ADDUCT=[M+NH4]+
INSTRUMENT=Thermo Q-Exactive Focus
PRECURSOR_MZ=384.1447
COMPOUND_NAME=Leprapinic acid methyl ether
ION_MODE=positive
FORMULA=C21H18O6
51.931885 185706.953125 
91.966331 5743923.0 
103.054459 3327772.25 
105.033852 3600106.75 
115.054306 6807127.5 
145.028427 7085447.5 
161.059464 30230664.0 
189.054184 48249260.0 
191.084839 820435.9375 
208.088272 1285396.875 
219.080933 2143886.5 
251.106003 100273240.0 
279.100739 58754088.0 
292.071869 2000980.25 
307.061584 1254721.75 
307.095581 32739154.0 
307.127777 976500.1875 
335.090424 72058592.0 
367.116913 14982527.0 
END IONS

BEGIN IONS
RTINSECONDS=258.490997
CHARGE=1+
MSLEVEL=2
SMILES=C[C@H](O)CCCCCCCCCCCCC[C@@H]1C(C(=O)O)C(=C)C(=O)O1
INCHI=InChI=1S/C21H36O5/c1-16(22)14-12-10-8-6-4-3-5-7-9-11-13-15-18-19(20(23)24)17(2)21(25)26-18/h16,18-19,22H,2-15H2,1H3,(H,23,24)/t16-,18+,19?/m0/s1
INCHIKEY=UYUDMGMNHAKPEV-CXEJCQMISA-N
CLASS=Paraconic acids
ADDUCT=[M+H]+
INSTRUMENT=Thermo Q-Exactive Focus
PRECURSOR_MZ=369.2641
COMPOUND_NAME=Murolic acid
ION_MODE=positive
FORMULA=C21H36O5
67.055168 3438748.75 
69.070717 5479116.5 
81.070656 8285841.0 
83.08625 3769333.75 
95.08609 8368695.5 
109.101578 6659698.0 
123.117065 3762584.25 
137.132767 2663202.0 
151.148529 2410696.0 
165.164108 1810491.875 
217.122833 1252308.875 
221.226288 5299202.5 
249.14888 1121297.75 
259.242859 1211138.75 
287.236298 894134.125 
305.248169 914739.8125 
315.232574 1572103.125 
333.242615 1387584.625 
351.253143 984909.75 
END IONS

BEGIN IONS
RTINSECONDS=221.143005
CHARGE=1+
MSLEVEL=2
SMILES=O=C(OC)/C(=C\1/OC(=O)C(=C1OC)c1ccccc1)/c1c(OC)cccc1
INCHI=InChI=1S/C21H18O6/c1-24-15-12-8-7-11-14(15)17(20(22)26-3)19-18(25-2)16(21(23)27-19)13-9-5-4-6-10-13/h4-12H,1-3H3/b19-17+
INCHIKEY=WGZKMINRLLRJPF-HTXNQAPBSA-N
CLASS=Pulvinic Acid Derivatives
ADDUCT=[M+H]+
INSTRUMENT=Thermo Q-Exactive Focus
PRECURSOR_MZ=367.1182
COMPOUND_NAME=Leprapinic acid methyl ether
ION_MODE=positive
FORMULA=C21H18O6
91.054749 6014269.5 
105.033745 7867997.5 
105.070175 6136399.0 
115.054276 25912956.0 
133.064758 8336263.0 
145.028381 10175815.0 
161.059402 66100332.0 
189.054123 83074864.0 
208.088364 4031953.25 
219.079086 3356438.75 
236.083725 3482430.0 
251.105988 243994256.0 
275.069031 3600725.5 
279.1008 109001504.0 
307.095764 77331224.0 
335.090485 85786720.0 
END IONS

BEGIN IONS
RTINSECONDS=279.617004
CHARGE=1+
MSLEVEL=2
SMILES=O=C1c2c(CCCCC)cc(OC)c(O)c2Oc2c(O1)cc(c(c2CCCCC)C(=O)O)O
INCHI=InChI=1S/C25H30O8/c1-4-6-8-10-14-12-17(31-3)21(27)23-19(14)25(30)32-18-13-16(26)20(24(28)29)15(22(18)33-23)11-9-7-5-2/h12-13,26-27H,4-11H2,1-3H3,(H,28,29)
INCHIKEY=VZPSCITXDMDLDC-UHFFFAOYSA-N
CLASS=Depsidones
ADDUCT=[M+NH4]+
INSTRUMENT=Thermo Q-Exactive Focus
PRECURSOR_MZ=476.2284
COMPOUND_NAME=3-Hydroxycolensoic acid
ION_MODE=positive
FORMULA=C25H30O8
55.239464 56628.617188 
57.484901 55644.199219 
68.050377 66044.867188 
71.647125 64288.089844 
82.635231 59591.15625 
125.34845 31744.898438 
135.080399 70068.40625 
151.039017 73961.703125 
164.36232 66833.570312 
170.672318 61921.042969 
207.103287 77827.414062 
221.11705 1361264.25 
233.080948 70167.554688 
235.096039 31396.716797 
287.05484 88677.320312 
289.143524 102583.546875 
329.101776 101672.867188 
345.133606 100329.921875 
345.205902 76462.90625 
371.112396 716779.8125 
371.184418 119646.8125 
373.200928 163916.265625 
399.179688 2838347.25 
441.190796 611233.0 
459.200653 2799530.25 
END IONS

BEGIN IONS
RTINSECONDS=264.998993
CHARGE=1+
MSLEVEL=2
SMILES=CC(=O)CCCCCCCCCCCCCC1C(C(=C)C(=O)O1)C(=O)O
INCHI=InChI=1S/C21H34O5/c1-16(22)14-12-10-8-6-4-3-5-7-9-11-13-15-18-19(20(23)24)17(2)21(25)26-18/h18-19H,2-15H2,1H3,(H,23,24)
INCHIKEY=SKQHRBRVCRUFSX-UHFFFAOYSA-N
CLASS=Paraconic acids
ADDUCT=[M+H]+
INSTRUMENT=Thermo Q-Exactive Focus
PRECURSOR_MZ=367.2484
COMPOUND_NAME=Pertusaric acid
ION_MODE=positive
FORMULA=C21H34O5
67.055222 27659498.0 
81.070732 48490936.0 
93.070442 34356816.0 
95.086395 55895296.0 
107.086098 29835134.0 
109.101753 33235098.0 
121.065292 89237008.0 
149.06015 20445642.0 
163.075836 13488624.0 
255.232681 9968283.0 
271.228027 4489994.0 
275.237579 4558055.0 
285.22171 8977068.0 
303.232117 37361804.0 
313.218109 10467131.0 
331.227417 22707734.0 
349.238129 30803274.0 
END IONS

BEGIN IONS
RTINSECONDS=132.673996
CHARGE=1+
MSLEVEL=2
SMILES=O=C1c2c(c3c(cc(O)c(O)c3)o2)C(=O)c2c1c1c(o2)cc(c(c1)O)O
INCHI=InChI=1S/C18H8O8/c19-7-1-5-11(3-9(7)21)25-17-13(5)15(23)18-14(16(17)24)6-2-8(20)10(22)4-12(6)26-18/h1-4,19-22H
INCHIKEY=PDICCECAPKBDBB-UHFFFAOYSA-N
CLASS=Quinones
ADDUCT=[M+H]+
INSTRUMENT=Thermo Q-Exactive Focus
PRECURSOR_MZ=353.0297
COMPOUND_NAME=Thelephoric acid
ION_MODE=positive
FORMULA=C18H8O8
67.569229 2252.729248 
177.01799 4320.634277 
213.054626 6391.138184 
223.038895 4752.495117 
241.04921 11207.978516 
251.033493 13354.356445 
269.044037 32992.023438 
279.02832 26400.605469 
297.039185 59395.648438 
307.023254 23592.560547 
325.033905 223584.15625 
335.018463 13522.150391 
END IONS

BEGIN IONS
RTINSECONDS=255.190994
CHARGE=1+
MSLEVEL=2
SMILES=CC(C)C[C@H](NC(=O)c1ccccc1)C(=O)OC[C@@H](NC(=O)c1ccccc1)Cc1ccccc1
INCHI=InChI=1S/C29H32N2O4/c1-21(2)18-26(31-28(33)24-16-10-5-11-17-24)29(34)35-20-25(19-22-12-6-3-7-13-22)30-27(32)23-14-8-4-9-15-23/h3-17,21,25-26H,18-20H2,1-2H3,(H,30,32)(H,31,33)/t25-,26-/m0/s1
INCHIKEY=JOOSAYNHLJGJCN-UIOOFZCWSA-N
CLASS=N-Containing Compounds
ADDUCT=[M+H]+
INSTRUMENT=Thermo Q-Exactive Focus
PRECURSOR_MZ=473.244
COMPOUND_NAME=Hypothallin
ION_MODE=positive
FORMULA=C29H32N2O4
105.034111 350968672.0 
106.037659 60111856.0 
117.070389 157012928.0 
118.073906 37039912.0 
122.060493 45341232.0 
134.096756 28480670.0 
190.12323 56093320.0 
191.126236 13207545.0 
218.118088 18767284.0 
238.123016 320100224.0 
239.12619 114468488.0 
256.133575 123588736.0 
257.136841 46862288.0 
END IONS

BEGIN IONS
RTINSECONDS=270.483002
CHARGE=1+
MSLEVEL=2
SMILES=O=C1Oc2c(c(CC(=O)CCCCC)c(C(=O)O)c(O)c2)Oc2c1c(cc(c2)O)CC(=O)CCCCC
INCHI=InChI=1S/C28H32O9/c1-3-5-7-9-17(29)11-16-12-19(31)14-22-24(16)28(35)37-23-15-21(32)25(27(33)34)20(26(23)36-22)13-18(30)10-8-6-4-2/h12,14-15,31-32H,3-11,13H2,1-2H3,(H,33,34)
INCHIKEY=ZDIOCINAHISORH-UHFFFAOYSA-N
CLASS=Depsidones
ADDUCT=[M+NH4]+
INSTRUMENT=Thermo Q-Exactive Focus
PRECURSOR_MZ=530.239
COMPOUND_NAME=Alpha-Alectoronic acid
ION_MODE=positive
FORMULA=C28H32O9
71.086456 29914978.0 
73.159866 483342.25 
73.650528 931003.4375 
81.070824 247294.46875 
91.969231 1877667.0 
99.081078 18872362.0 
163.038574 990905.875 
245.081787 1218860.875 
271.060486 1979930.875 
281.0448 1976015.75 
287.128296 1766932.375 
297.040466 3749600.75 
299.055298 8624016.0 
301.145447 1650493.375 
354.110168 3078391.0 
355.117981 11122613.0 
369.134094 4447281.0 
371.149811 6675029.5 
379.119659 5417674.5 
397.128723 35574496.0 
415.139191 4427245.0 
425.124329 2732562.5 
427.212372 3808562.0 
453.191162 52891576.0 
477.191681 12920227.0 
495.201874 52190452.0 
513.21228 17308726.0 
END IONS

BEGIN IONS
RTINSECONDS=251.843002
CHARGE=1+
MSLEVEL=2
SMILES=O=C1c2c(CC(=O)CCCCC)cc(O)cc2Oc2c(O1)cc(c(c2CCCCC)C(=O)O)O
INCHI=InChI=1S/C26H30O8/c1-3-5-7-9-16(27)11-15-12-17(28)13-20-22(15)26(32)34-21-14-19(29)23(25(30)31)18(24(21)33-20)10-8-6-4-2/h12-14,28-29H,3-11H2,1-2H3,(H,30,31)
INCHIKEY=KVTYWHGIZSCFLG-UHFFFAOYSA-N
CLASS=Depsidones
ADDUCT=[M+Na]+
INSTRUMENT=Thermo Q-Exactive Focus
PRECURSOR_MZ=493.1838
COMPOUND_NAME=Physodic acid
ION_MODE=positive
FORMULA=C26H30O8
54.225559 21450.652344 
91.965134 69275.390625 
449.194672 1100364.375 
475.175018 115889.15625 
END IONS

BEGIN IONS
RTINSECONDS=268.714996
CHARGE=1+
MSLEVEL=2
SMILES=O=C(Oc1c(O)cc(CCCCC)c(C(=O)O)c1O)c1c(CCC)cc(OC)cc1OC
INCHI=InChI=1S/C24H30O8/c1-5-7-8-10-15-12-17(25)22(21(26)20(15)23(27)28)32-24(29)19-14(9-6-2)11-16(30-3)13-18(19)31-4/h11-13,25-26H,5-10H2,1-4H3,(H,27,28)
INCHIKEY=AAKHGLJWUOZNTQ-UHFFFAOYSA-N
CLASS=Depsides (Didepsides)
ADDUCT=[M+H]+
INSTRUMENT=Thermo Q-Exactive Focus
PRECURSOR_MZ=447.2019
COMPOUND_NAME=Merochlorophaeic acid
ION_MODE=positive
FORMULA=C24H30O8
58.383907 66767.40625 
61.467831 70086.023438 
61.696915 63427.773438 
73.453156 75708.125 
91.055038 138062.359375 
151.075668 452156.4375 
177.054901 521777.28125 
179.107285 548251.0 
189.091309 1080620.625 
192.078232 1176174.0 
207.101898 21485346.0 
254.091064 37124.6875 
265.356079 13418.547852 
276.885345 7006.618652 
280.113434 12987.113281 
305.439484 7648.858887 
309.171112 33687.195312 
348.070435 6308.703125 
411.512817 86116.664062 
419.340851 6940.938477 
428.654846 7192.936523 
472.30838 40600.929688 
END IONS

BEGIN IONS
RTINSECONDS=190.723999
CHARGE=1+
MSLEVEL=2
SMILES=O=C1O/C(=C(/C(=O)N[C@H](C(=O)O)Cc2ccccc2)\c2ccccc2)/C(=C1c1ccccc1)O
INCHI=InChI=1S/C27H21NO6/c29-23-21(18-12-6-2-7-13-18)27(33)34-24(23)22(19-14-8-3-9-15-19)25(30)28-20(26(31)32)16-17-10-4-1-5-11-17/h1-15,20,29H,16H2,(H,28,30)(H,31,32)/b24-22+/t20-/m0/s1
INCHIKEY=XTLHEUFWRQKNNG-YVURAWIMSA-N
CLASS=Pulvinic Acid Derivatives
ADDUCT=[M+H]+
INSTRUMENT=Thermo Q-Exactive Focus
PRECURSOR_MZ=456.1447
COMPOUND_NAME=Norrhizocarpic acid
ION_MODE=positive
FORMULA=C27H21NO6
91.055183 145696.234375 
103.055199 209091.140625 
105.034363 119728.242188 
120.081535 6517769.5 
145.029175 213391.015625 
166.08699 2481084.5 
178.078888 316109.6875 
179.086319 1114631.625 
207.081253 8559666.0 
217.065887 392932.90625 
235.076157 4199513.0 
245.061096 397353.40625 
263.071259 8949853.0 
265.085663 113082.757812 
291.066162 1780915.5 
292.098328 43808.855469 
410.139832 1004078.0625 
END IONS

BEGIN IONS
RTINSECONDS=115.804001
CHARGE=1+
MSLEVEL=2
SMILES=O=C(O)c1c(CCC)cc(O)cc1O
INCHI=InChI=1S/C10H12O4/c1-2-3-6-4-7(11)5-8(12)9(6)10(13)14/h4-5,11-12H,2-3H2,1H3,(H,13,14)
INCHIKEY=RIVVNGIVVYEIRS-UHFFFAOYSA-N
CLASS=Cleavage Products of Depsides and Depsidones
ADDUCT=[M+H]+
INSTRUMENT=Thermo Q-Exactive Focus
PRECURSOR_MZ=197.0814
COMPOUND_NAME=Divaric acid
ION_MODE=positive
FORMULA=C10H12O4
55.018929 50154.109375 
68.997955 141936.609375 
91.054672 234364.125 
105.070328 315956.28125 
115.054604 412722.09375 
123.044312 907331.875 
133.064972 778739.8125 
151.075424 1557009.0 
161.060211 4002010.75 
179.070267 21636490.0 
END IONS

BEGIN IONS
RTINSECONDS=274.388
CHARGE=1+
MSLEVEL=2
SMILES=Oc1c(C(=O)Oc2cc(O)c(C(=O)O)c(CCCCC)c2)c(CC(=O)CCC)cc(OC)c1
INCHI=InChI=1S/C25H30O8/c1-4-6-7-9-15-11-19(14-20(27)22(15)24(29)30)33-25(31)23-16(10-17(26)8-5-2)12-18(32-3)13-21(23)28/h11-14,27-28H,4-10H2,1-3H3,(H,29,30)
INCHIKEY=PKLMGLZTAHCGBQ-UHFFFAOYSA-N
CLASS=Depsides (Didepsides)
ADDUCT=[M+H]+
INSTRUMENT=Thermo Q-Exactive Focus
PRECURSOR_MZ=459.2019
COMPOUND_NAME=Glomelliferic acid
ION_MODE=positive
FORMULA=C25H30O8
68.997978 251225.234375 
80.996979 354960.5 
91.970047 145793.140625 
95.085861 142351.8125 
137.059921 1551031.625 
163.075195 1762849.0 
179.033691 2095898.625 
189.090958 4344752.0 
207.101654 17038136.0 
217.086426 1390739.625 
225.112457 7033378.0 
235.096451 46272504.0 
END IONS

BEGIN IONS
RTINSECONDS=275.54599
CHARGE=1+
MSLEVEL=2
SMILES=Oc1c(C(=O)Oc2cc(O)c(C(=O)O)c(CCCCC)c2)c(CC(=O)CCC)cc(OC)c1
INCHI=InChI=1S/C25H30O8/c1-4-6-7-9-15-11-19(14-20(27)22(15)24(29)30)33-25(31)23-16(10-17(26)8-5-2)12-18(32-3)13-21(23)28/h11-14,27-28H,4-10H2,1-3H3,(H,29,30)
INCHIKEY=PKLMGLZTAHCGBQ-UHFFFAOYSA-N
CLASS=Depsides (Didepsides)
ADDUCT=[2M+NH4]+
INSTRUMENT=Thermo Q-Exactive Focus
PRECURSOR_MZ=934.4225
COMPOUND_NAME=Glomelliferic acid
ION_MODE=positive
FORMULA=C25H30O8
68.997719 121571.179688 
95.085968 137824.984375 
99.238289 144538.84375 
137.059906 591012.25 
163.07547 1453554.875 
179.033798 1338576.75 
189.090912 2858116.0 
207.101593 9835228.0 
217.085876 1068485.0 
225.112152 4941231.0 
235.096451 37612248.0 
269.179596 52183.242188 
287.282043 4197.460449 
427.910461 4166.492676 
459.19809 111290.578125 
468.49704 27340.207031 
477.345703 22396.708984 
505.466797 47992.351562 
514.034058 157078.21875 
543.074707 4946.629395 
600.622009 4572.908203 
644.671082 48442.890625 
775.910217 44932.828125 
912.182129 58305.238281 
955.237915 155799.75 
END IONS

BEGIN IONS
RTINSECONDS=213.578003
CHARGE=1+
MSLEVEL=2
SMILES=Oc1c(Oc2cc(OC)cc3c2C(=O)OC3(O)CCCC)c(CCCCC)c(c(c1)O)C(=O)O
INCHI=InChI=1S/C25H30O9/c1-4-6-8-9-15-20(23(28)29)17(26)13-18(27)22(15)33-19-12-14(32-3)11-16-21(19)24(30)34-25(16,31)10-7-5-2/h11-13,26-27,31H,4-10H2,1-3H3,(H,28,29)
INCHIKEY=BWRBGHBJBQFFAW-UHFFFAOYSA-N
CLASS=Diphenylethers
ADDUCT=[2M+Na]+
INSTRUMENT=Thermo Q-Exactive Focus
PRECURSOR_MZ=971.3677
COMPOUND_NAME=Lobariolcarboxylic acid (Lobarin)
ION_MODE=positive
FORMULA=C25H30O9
68.868111 40799.726562 
77.373451 59976.828125 
91.963104 148801.5 
97.965019 69835.8125 
105.52169 60830.25 
126.638336 74394.296875 
139.087921 62272.90625 
192.834869 18569.890625 
194.09436 66654.5625 
217.010544 23771.416016 
218.018906 31051.824219 
229.08374 41115.820312 
244.791016 42058.96875 
257.078094 135308.890625 
273.731384 44155.808594 
274.080811 78425.0625 
307.714447 19072.689453 
309.077667 47292.398438 
343.492676 49866.21875 
353.170685 22596.777344 
359.176025 15729.347656 
405.094421 92130.75 
419.147156 20686.1875 
435.177521 169568.359375 
461.156311 287809.1875 
479.093689 84919.867188 
479.166809 5540102.0 
497.177277 11675190.0 
516.224182 22882.804688 
516.765869 79577.171875 
538.730225 83443.539062 
579.051086 48892.898438 
685.771912 20969.095703 
694.717224 83662.203125 
791.774536 23218.296875 
880.070129 26131.908203 
885.090271 73792.375 
892.881226 19010.558594 
END IONS

BEGIN IONS
RTINSECONDS=183.160995
CHARGE=1+
MSLEVEL=2
SMILES=CC(C[C@H](NC(=O)/C(=C\1/C(=C(c2ccccc2)C(=O)O1)O)/c1ccccc1)C(=O)O)C
INCHI=InChI=1S/C24H23NO6/c1-14(2)13-17(23(28)29)25-22(27)19(16-11-7-4-8-12-16)21-20(26)18(24(30)31-21)15-9-5-3-6-10-15/h3-12,14,17,26H,13H2,1-2H3,(H,25,27)(H,28,29)/b21-19-/t17-/m0/s1
INCHIKEY=ZQLBONJLBKDOLE-UFVMTTLYSA-N
CLASS=Pulvinic Acid Derivatives
ADDUCT=[M+Na]+
INSTRUMENT=Thermo Q-Exactive Focus
PRECURSOR_MZ=444.1423
COMPOUND_NAME=Norepanorin
ION_MODE=positive
FORMULA=C24H23NO6
52.901512 5864.064453 
59.223488 7237.541992 
66.027229 7015.099609 
67.531273 6380.983887 
98.462334 7342.546875 
102.659821 7629.749023 
134.349716 6179.598633 
149.127472 5429.186035 
154.083893 15482.588867 
186.663101 5749.105957 
193.468567 5458.614258 
206.703262 5543.243164 
211.203369 8078.222168 
253.285995 8326.818359 
281.156036 7060.150879 
287.067993 50944.101562 
301.8302 7673.47998 
318.470886 6931.415527 
331.058136 65025.894531 
338.507507 6539.672852 
391.922974 7319.733887 
397.301636 5840.697754 
401.357452 6058.37793 
413.078247 5666.46582 
467.892822 2472.111816 
END IONS

BEGIN IONS
RTINSECONDS=221.783997
CHARGE=1+
MSLEVEL=2
SMILES=Oc1c(C(=O)Oc2c(OC)cc(c(C(=O)O)c2O)CCC)c(CCC)cc(OC)c1
INCHI=InChI=1S/C22H26O8/c1-5-7-12-9-14(28-3)11-15(23)17(12)22(27)30-20-16(29-4)10-13(8-6-2)18(19(20)24)21(25)26/h9-11,23-24H,5-8H2,1-4H3,(H,25,26)
INCHIKEY=CPHXGYQLOSNELY-UHFFFAOYSA-N
CLASS=Depsides (Didepsides)
ADDUCT=[M+K]+
INSTRUMENT=Thermo Q-Exactive Focus
PRECURSOR_MZ=457.1265
COMPOUND_NAME=Sekikaic acid
ION_MODE=positive
FORMULA=C22H26O8
59.028942 6981.324219 
68.598999 7309.660645 
99.134613 7070.193848 
101.212303 6769.937012 
110.275177 6958.307617 
138.88797 7068.008301 
189.658417 6835.699707 
191.557022 7945.306152 
193.127777 7734.904785 
199.578339 7498.140625 
231.042236 205197.203125 
252.612198 8031.089355 
265.04657 53696.976562 
283.049011 12633.900391 
301.060211 4288.131348 
387.222076 5736.142578 
420.584778 4164.9375 
END IONS

BEGIN IONS
RTINSECONDS=217.177994
CHARGE=1+
MSLEVEL=2
SMILES=Cc1cc(c2c(c1)C(=O)C13C4C5C(C1C(=O)C1=C(c6c(cc(cc6C(=O)C51C(C4O)C(=O)C3=C2O)C)O)O)O)O
INCHI=InChI=1S/C30H22O10/c1-7-3-9-13(11(31)5-7)21(33)17-25(37)20-23(35)15-16-24(36)19(29(15,17)27(9)39)26(38)18-22(34)14-10(28(40)30(16,18)20)4-8(2)6-12(14)32/h3-6,15-16,19-20,23-24,31-36H,1-2H3
INCHIKEY=QFDPVUTXKUGISP-UHFFFAOYSA-N
CLASS=Quinones
ADDUCT=[M+H]+
INSTRUMENT=Thermo Q-Exactive Focus
PRECURSOR_MZ=543.1291
COMPOUND_NAME=Rugulosin
ION_MODE=positive
FORMULA=C30H22O10
91.964447 12857.591797 
135.044495 169951.96875 
153.069489 124869.40625 
181.064987 181115.453125 
213.054642 1156650.625 
217.050888 283909.1875 
227.070282 1019282.3125 
255.065277 11192981.0 
258.052948 811796.0625 
271.060333 1656799.875 
273.075836 10365442.0 
437.105804 73343.921875 
461.103973 55720.941406 
479.111908 103738.640625 
489.097748 194015.375 
492.081543 42029.644531 
507.107666 737880.9375 
525.11731 239511.125 
END IONS

BEGIN IONS
RTINSECONDS=384.420013
CHARGE=1+
MSLEVEL=2
SMILES=CC1(C2C(CCC1OC(=O)C)(C)C1C(CC2)([C@]2(C(C(C1)O)C(CC2)[C@]1(C)O[C@@H](C(C)(OC(=O)C)C)CC1)C)C)C
INCHI=InChI=1S/C34H56O6/c1-20(35)38-26-13-15-31(7)24(29(26,3)4)12-17-32(8)25(31)19-23(37)28-22(11-16-33(28,32)9)34(10)18-14-27(40-34)30(5,6)39-21(2)36/h22-28,37H,11-19H2,1-10H3/t22?,23?,24?,25?,26?,27-,28?,31?,32?,33-,34-/m1/s1
INCHIKEY=TWRWTOXPYGQKPW-ZWXXETMRSA-N
CLASS=Terpenoids : Triterpenes
ADDUCT=[2M+Na]+
INSTRUMENT=Thermo Q-Exactive Focus
PRECURSOR_MZ=1143.805
COMPOUND_NAME=Diacetylpyxinol
ION_MODE=positive
FORMULA=C34H56O6
83.011192 311865.65625 
95.085762 259657.734375 
107.085228 273725.0625 
125.095451 388125.6875 
133.10083 295210.03125 
147.116714 512910.46875 
159.116409 364265.65625 
189.163116 526106.8125 
191.179153 451069.6875 
215.179047 211539.296875 
423.361786 222484.984375 
463.355682 3879545.75 
523.376831 28186774.0 
564.401855 110453.65625 
583.398071 57409936.0 
654.366943 226982.5625 
END IONS

BEGIN IONS
RTINSECONDS=194.893997
CHARGE=1+
MSLEVEL=2
SMILES=O=C1c2c(CC(=O)CCCCC)cc(O)c(O)c2Oc2c(O1)cc(c(c2CCCCC)C(=O)O)O
INCHI=InChI=1S/C26H30O9/c1-3-5-7-9-15(27)11-14-12-18(29)22(30)24-20(14)26(33)34-19-13-17(28)21(25(31)32)16(23(19)35-24)10-8-6-4-2/h12-13,28-30H,3-11H2,1-2H3,(H,31,32)
INCHIKEY=BQHHNAPTXQOPBW-UHFFFAOYSA-N
CLASS=Depsidones
ADDUCT=[M+NH4]+
INSTRUMENT=Thermo Q-Exactive Focus
PRECURSOR_MZ=504.2234
COMPOUND_NAME=3-Hydroxyphysodic acid
ION_MODE=positive
FORMULA=C26H30O9
71.086502 314832.8125 
91.970261 92384.414062 
95.086166 7758.408691 
99.081383 116380.28125 
117.779228 39165.121094 
135.080994 18281.388672 
177.091339 96974.71875 
179.035004 130871.804688 
205.086853 61591.753906 
206.0905 31593.027344 
219.066391 185432.609375 
249.113541 67038.757812 
263.09198 112674.179688 
273.039978 116285.46875 
275.055756 135034.140625 
317.139465 192711.703125 
327.124329 105106.984375 
328.094879 247627.9375 
329.103058 249009.6875 
373.129364 265746.9375 
373.202026 135184.25 
399.108154 459246.59375 
401.196625 533413.75 
427.176025 3497931.75 
443.207703 355611.28125 
469.186462 456127.0 
487.197327 1505503.875 
END IONS

BEGIN IONS
RTINSECONDS=276.548004
CHARGE=1+
MSLEVEL=2
SMILES=CC(=O)CCCCCCCCCCCCC[C@@H]1C(C(=O)O)C(=C)C(=O)O1
INCHI=InChI=1S/C21H34O5/c1-16(22)14-12-10-8-6-4-3-5-7-9-11-13-15-18-19(20(23)24)17(2)21(25)26-18/h18-19H,2-15H2,1H3,(H,23,24)/t18-,19?/m1/s1
INCHIKEY=SKQHRBRVCRUFSX-MRTLOADZSA-N
CLASS=Paraconic acids
ADDUCT=[2M+NH4]+
INSTRUMENT=Thermo Q-Exactive Focus
PRECURSOR_MZ=750.5156
COMPOUND_NAME=Muronic acid
ION_MODE=positive
FORMULA=C21H34O5
67.054932 140460.203125 
81.070312 400091.09375 
95.085915 471725.75 
107.085793 182790.96875 
109.10144 263574.65625 
121.064896 825225.125 
121.10128 188483.90625 
163.075012 130110.109375 
254.881561 42715.085938 
255.231537 182710.625 
275.236877 95923.921875 
285.221283 123515.726562 
303.231354 721460.0 
313.215759 126261.546875 
321.242004 191722.90625 
331.226135 428874.28125 
349.236908 439926.25 
367.247284 2971750.25 
384.273285 89065.460938 
389.685699 41072.671875 
455.954895 48614.839844 
474.027588 30724.087891 
476.543671 43784.175781 
522.353333 45618.132812 
563.356262 41749.125 
566.736938 41336.792969 
632.489929 8534.116211 
716.723633 9166.393555 
716.855225 8918.133789 
END IONS

BEGIN IONS
RTINSECONDS=274.407013
CHARGE=1+
MSLEVEL=2
SMILES=Oc1cc(OC(=O)c2c(O)cc(OC)cc2CCC(=O)CC)cc(CCCCC)c1C(=O)O
INCHI=InChI=1S/C25H30O8/c1-4-6-7-8-15-12-19(14-20(27)22(15)24(29)30)33-25(31)23-16(9-10-17(26)5-2)11-18(32-3)13-21(23)28/h11-14,27-28H,4-10H2,1-3H3,(H,29,30)
INCHIKEY=UCYIOAVHQGSYLP-UHFFFAOYSA-N
CLASS=Depsides (Didepsides)
ADDUCT=[M+Na]+
INSTRUMENT=Thermo Q-Exactive Focus
PRECURSOR_MZ=481.1838
COMPOUND_NAME=Miriquidic acid
ION_MODE=positive
FORMULA=C25H30O8
51.758553 55270.082031 
213.088943 605521.375 
229.084503 125802.75 
247.094833 164722.15625 
257.078735 3513162.5 
275.089355 773773.375 
END IONS

BEGIN IONS
RTINSECONDS=205.326996
CHARGE=1+
MSLEVEL=2
SMILES=Cc1c(C(=O)OC)c(OC)cc2c1c1c(cc(c(C(=O)O)c1o2)C)OC
INCHI=InChI=1S/C19H18O7/c1-8-6-10(23-3)16-14-9(2)15(19(22)25-5)11(24-4)7-12(14)26-17(16)13(8)18(20)21/h6-7H,1-5H3,(H,20,21)
INCHIKEY=WBIQYHZEYQDKCL-UHFFFAOYSA-N
CLASS=Dibenzofuranes
ADDUCT=[2M+NH4]+
INSTRUMENT=Thermo Q-Exactive Focus
PRECURSOR_MZ=734.2449
COMPOUND_NAME=Schizopeltic acid
ION_MODE=positive
FORMULA=C19H18O7
51.484612 684196.375 
61.173836 602103.25 
76.315674 346507.96875 
91.963165 1512071.625 
127.125076 692981.1875 
131.307205 460256.75 
132.831055 729125.5625 
175.265259 157224.734375 
177.153595 176921.921875 
202.889572 179542.890625 
231.219391 76867.148438 
253.810623 19537.6875 
254.147552 866731.5625 
258.358948 201711.328125 
265.45343 23157.667969 
275.034912 496070.15625 
312.062805 16370590.0 
327.086517 269595520.0 
341.102448 11942846.0 
352.792633 197106.296875 
359.112701 53086180.0 
370.610443 74429.609375 
373.711334 852557.75 
386.483215 9988.865234 
441.333466 8806.374023 
490.774353 207920.5 
505.540375 865306.9375 
632.719421 21917.398438 
666.414124 9339.042969 
END IONS

BEGIN IONS
RTINSECONDS=334.235992
CHARGE=1+
MSLEVEL=2
SMILES=CCCCCCCCCCCCCC[C@H](C(=O)OC)[C@@H](C(=O)O)CC(=O)O
INCHI=InChI=1S/C21H38O6/c1-3-4-5-6-7-8-9-10-11-12-13-14-15-17(21(26)27-2)18(20(24)25)16-19(22)23/h17-18H,3-16H2,1-2H3,(H,22,23)(H,24,25)/t17-,18-/m0/s1
INCHIKEY=LGCPAGYPUFWEBQ-ROUUACIJSA-N
CLASS=Acids
ADDUCT=[M+NH4]+
INSTRUMENT=Thermo Q-Exactive Focus
PRECURSOR_MZ=404.3012
COMPOUND_NAME=Rangiformic acid
ION_MODE=positive
FORMULA=C21H38O6
67.055099 1536678.875 
69.070679 2019002.125 
81.070602 1839426.125 
83.086235 1492995.75 
95.086052 1726656.75 
97.101669 1999010.125 
119.085831 1392790.375 
133.100952 2002911.625 
147.117081 999984.5625 
165.091324 872770.3125 
193.12294 550480.1875 
221.22551 281188.15625 
231.211548 562690.0625 
245.22644 1607979.875 
263.238251 687880.0625 
291.231964 1692350.25 
301.216248 1278480.125 
309.24292 1013182.6875 
319.227142 904261.375 
355.246857 2354602.0 
369.263428 8000905.0 
END IONS

BEGIN IONS
RTINSECONDS=221.800003
CHARGE=1+
MSLEVEL=2
SMILES=Cc1cc(=O)c2c(c(C)c(O[C@H]3[C@H](OC(=O)C)[C@@H](OC(=O)C)[C@H](OC(=O)C)[C@@H](COC(=O)C)O3)cc2O)o1
INCHI=InChI=1S/C25H28O13/c1-10-7-16(30)20-17(31)8-18(11(2)21(20)33-10)37-25-24(36-15(6)29)23(35-14(5)28)22(34-13(4)27)19(38-25)9-32-12(3)26/h7-8,19,22-25,31H,9H2,1-6H3/t19-,22-,23+,24-,25-/m1/s1
INCHIKEY=NWASWCGVBSEDJX-HYOIWIKGSA-N
CLASS=Chromanes and Chromones
ADDUCT=[M+H]+
INSTRUMENT=Thermo Q-Exactive Focus
PRECURSOR_MZ=537.1608
COMPOUND_NAME=Acetylloboridin
ION_MODE=positive
FORMULA=C25H28O13
53.039555 3292902.0 
61.029324 2949464.75 
81.034309 43125072.0 
97.02903 28585826.0 
109.028954 354674688.0 
127.039268 103714856.0 
139.039108 17397872.0 
169.049805 110483120.0 
207.06546 981919616.0 
211.060211 12224321.0 
271.081726 8742909.0 
331.102264 20250238.0 
END IONS

BEGIN IONS
RTINSECONDS=136.535995
CHARGE=1+
MSLEVEL=2
SMILES=O=C1c2c(C)cc(OC)c(C=O)c2Oc2c(O1)c(c(c1c2C(O)OC1=O)O)C
INCHI=InChI=1S/C19H14O9/c1-6-4-9(25-3)8(5-20)15-10(6)17(22)27-14-7(2)13(21)11-12(16(14)26-15)19(24)28-18(11)23/h4-5,19,21,24H,1-3H3
INCHIKEY=SKCUFZLDTAYNBZ-UHFFFAOYSA-N
CLASS=Depsidones
ADDUCT=[M+H]+
INSTRUMENT=Thermo Q-Exactive Focus
PRECURSOR_MZ=387.0716
COMPOUND_NAME=Stictic acid
ION_MODE=positive
FORMULA=C19H14O9
73.362038 12732.316406 
75.022911 15766.613281 
78.35096 13560.733398 
91.970665 12640.831055 
92.367088 14600.619141 
118.360176 15014.772461 
175.075348 20851.125 
177.055252 29295.679688 
229.049744 72411.1875 
231.065506 178181.6875 
241.049606 438570.28125 
245.044464 160891.78125 
257.04483 72508.148438 
259.06012 391884.6875 
313.034424 441964.21875 
313.070038 55115.75 
327.049988 65472.367188 
341.065765 209865.640625 
355.044769 760265.25 
369.06073 385470.28125 
END IONS

BEGIN IONS
RTINSECONDS=242.356995
CHARGE=1+
MSLEVEL=2
SMILES=CCCCCC(=O)Cc1cc(cc(c1C(=O)Oc1cc(c(c(c1)CC(=O)CCCCC)C(=O)O)OC)O)O
INCHI=InChI=1S/C29H36O9/c1-4-6-8-10-20(30)12-18-14-22(32)16-24(33)26(18)29(36)38-23-15-19(13-21(31)11-9-7-5-2)27(28(34)35)25(17-23)37-3/h14-17,32-33H,4-13H2,1-3H3,(H,34,35)
INCHIKEY=DGXLEDCXMIJNPJ-UHFFFAOYSA-N
CLASS=Depsides (Didepsides)
ADDUCT=[M+Na]+
INSTRUMENT=Thermo Q-Exactive Focus
PRECURSOR_MZ=551.2257
COMPOUND_NAME=Arthoniaic acid
ION_MODE=positive
FORMULA=C29H36O9
63.942215 58519.5 
69.931335 52604.195312 
86.200531 58664.46875 
91.971664 89926.820312 
102.41713 65813.828125 
113.271004 52829.671875 
132.159927 51284.722656 
140.873962 56792.851562 
154.166992 33044.65625 
158.627213 50127.113281 
210.96698 38094.691406 
215.670029 61417.839844 
245.115158 77570.523438 
271.094574 118624.03125 
285.110504 518787.25 
289.10498 73385.085938 
295.234619 57302.144531 
303.120605 7014469.5 
335.639923 54312.636719 
337.425568 38833.0 
353.360779 49028.890625 
364.305328 6635.162598 
390.222809 58455.738281 
402.853851 10087.041992 
424.073273 55203.359375 
452.774811 9256.932617 
471.962402 7874.21875 
533.597046 36609.847656 
578.279724 62595.558594 
END IONS

BEGIN IONS
RTINSECONDS=275.466003
CHARGE=1+
MSLEVEL=2
SMILES=Oc1c(C(=O)Oc2cc(O)c(C(=O)O)c(CCCCC)c2)c(CC(=O)CCC)cc(OC)c1
INCHI=InChI=1S/C25H30O8/c1-4-6-7-9-15-11-19(14-20(27)22(15)24(29)30)33-25(31)23-16(10-17(26)8-5-2)12-18(32-3)13-21(23)28/h11-14,27-28H,4-10H2,1-3H3,(H,29,30)
INCHIKEY=PKLMGLZTAHCGBQ-UHFFFAOYSA-N
CLASS=Depsides (Didepsides)
ADDUCT=[2M+Na]+
INSTRUMENT=Thermo Q-Exactive Focus
PRECURSOR_MZ=939.3779
COMPOUND_NAME=Glomelliferic acid
ION_MODE=positive
FORMULA=C25H30O8
66.450851 40895.738281 
73.597298 55952.902344 
83.110474 40710.199219 
91.970085 95733.390625 
98.710953 43542.300781 
150.094803 25400.072266 
151.471512 40147.429688 
159.625778 50990.121094 
186.656006 51407.753906 
213.42244 76296.523438 
229.083725 613440.3125 
231.09935 156211.296875 
235.096771 115650.390625 
247.093918 368752.40625 
257.078339 15875030.0 
275.088562 553279.5 
311.395599 13120.350586 
344.647369 42689.523438 
427.268738 61439.800781 
433.040771 28871.638672 
465.389862 22316.054688 
481.183319 4523462.0 
481.253876 106491.625 
512.949646 55523.589844 
606.696716 57585.445312 
618.005493 13658.794922 
653.586609 61540.039062 
684.109863 71554.898438 
863.03595 70335.570312 
912.908264 61662.660156 
END IONS

BEGIN IONS
RTINSECONDS=288.218994
CHARGE=1+
MSLEVEL=2
SMILES=O=C1Oc2c(c3C[C@@](O)(CCCCC)OC(=O)c3c(O)c2)Oc2c1c(cc(c2)OC)CC(=O)CCCCC
INCHI=InChI=1S/C29H34O9/c1-4-6-8-10-18(30)12-17-13-19(35-3)14-22-24(17)27(32)37-23-15-21(31)25-20(26(23)36-22)16-29(34,38-28(25)33)11-9-7-5-2/h13-15,31,34H,4-12,16H2,1-3H3/t29-/m1/s1
INCHIKEY=DQYWDDCXRXABIH-GDLZYMKVSA-N
CLASS=Depsidones
ADDUCT=[M+H+CH3OH]+
INSTRUMENT=Thermo Q-Exactive Focus
PRECURSOR_MZ=559.2543
COMPOUND_NAME=Alpha-collatolic acid
ION_MODE=positive
FORMULA=C29H34O9
54.665829 15745.307617 
62.693443 18176.695312 
64.758514 17803.505859 
71.086441 409845.6875 
99.080986 144899.984375 
123.044357 28449.697266 
126.46579 17758.197266 
137.023422 20112.701172 
161.143616 25070.113281 
164.046783 23413.460938 
177.054581 24996.960938 
217.086212 22238.664062 
229.086029 31919.173828 
231.102448 27753.216797 
241.085388 20753.689453 
285.076752 65022.554688 
287.091919 31980.167969 
311.056305 82541.804688 
313.07074 216006.53125 
315.159821 54382.039062 
365.13974 75201.46875 
369.133057 118596.640625 
383.149323 173515.703125 
385.16452 131971.03125 
393.133575 180792.234375 
411.144104 931221.1875 
429.15506 226708.90625 
465.22699 65638.078125 
467.206818 237257.53125 
483.239929 66693.765625 
509.217926 548443.1875 
524.196167 7567.277344 
527.228088 286518.78125 
578.965881 7718.293945 
END IONS

BEGIN IONS
RTINSECONDS=191.820007
CHARGE=1+
MSLEVEL=2
SMILES=Oc1c(C(=O)Oc2cc(C)c(c(O)c2C)C(=O)O)c(C)cc(OC)c1C(=O)O
INCHI=InChI=1S/C19H18O9/c1-7-5-10(9(3)15(20)12(7)17(22)23)28-19(26)13-8(2)6-11(27-4)14(16(13)21)18(24)25/h5-6,20-21H,1-4H3,(H,22,23)(H,24,25)
INCHIKEY=WCWYEXBIRSSVGF-UHFFFAOYSA-N
CLASS=Depsides (Didepsides)
ADDUCT=[M+Na+CH3CN]+
INSTRUMENT=Thermo Q-Exactive Focus
PRECURSOR_MZ=454.1114
COMPOUND_NAME=Squamatic acid
ION_MODE=positive
FORMULA=C19H18O9
61.942078 10145.09375 
67.252235 8581.321289 
71.114418 9236.401367 
82.805191 6590.533691 
84.324638 11010.275391 
91.965477 16535.652344 
157.475113 8559.680664 
187.035934 164647.65625 
191.033508 15443.0625 
218.207031 7293.325684 
218.996796 11036.134766 
220.823425 6855.373535 
231.025681 3061280.75 
273.605621 7994.21875 
276.296906 12635.764648 
307.418335 10934.875977 
344.754486 6469.107422 
361.286774 6778.90625 
377.020782 12913.760742 
377.062103 82528.242188 
395.07251 48506.816406 
413.08316 153884.90625 
469.196472 14871.532227 
END IONS

BEGIN IONS
RTINSECONDS=137.412003
CHARGE=1+
MSLEVEL=2
SMILES=Cc1c(c(c2c(c1)C(=O)c1cc(cc(c1C2=O)O)O)O)C(=O)O
INCHI=InChI=1S/C16H10O7/c1-5-2-7-12(14(20)10(5)16(22)23)15(21)11-8(13(7)19)3-6(17)4-9(11)18/h2-4,17-18,20H,1H3,(H,22,23)
INCHIKEY=UZOHDKGTYVTYDZ-UHFFFAOYSA-N
CLASS=Quinones
ADDUCT=[2M+Na]+
INSTRUMENT=Thermo Q-Exactive Focus
PRECURSOR_MZ=651.0751
COMPOUND_NAME=Endocrocin
ION_MODE=positive
FORMULA=C16H10O7
53.218624 11848.53418 
54.612869 10455.073242 
54.884441 9847.490234 
88.58622 7053.697754 
91.96981 17554.734375 
113.452705 11536.27832 
164.691422 10625.129883 
171.667633 16658.228516 
183.296005 7610.393555 
183.410324 11192.946289 
203.906906 13094.588867 
221.435257 8933.776367 
238.155197 12184.758789 
257.718536 8927.556641 
259.870941 12211.780273 
297.039429 11211.930664 
319.020813 232873.296875 
325.084869 7406.79248 
337.031403 1297090.5 
355.041962 19929.21875 
378.058167 9765.55957 
558.709473 3297.322021 
END IONS

BEGIN IONS
RTINSECONDS=260.191986
CHARGE=1+
MSLEVEL=2
SMILES=O=C1c2c(CC(=O)CCCCC)cc(OC)c(O)c2Oc2c(O1)cc(c(c2CCCCC)C(=O)O)O
INCHI=InChI=1S/C27H32O9/c1-4-6-8-10-16(28)12-15-13-19(34-3)23(30)25-21(15)27(33)35-20-14-18(29)22(26(31)32)17(24(20)36-25)11-9-7-5-2/h13-14,29-30H,4-12H2,1-3H3,(H,31,32)
INCHIKEY=YFNNJORBJZUGCV-UHFFFAOYSA-N
CLASS=Depsidones
ADDUCT=[2M+NH4]+
INSTRUMENT=Thermo Q-Exactive Focus
PRECURSOR_MZ=1018.4436
COMPOUND_NAME=Lividic acid
ION_MODE=positive
FORMULA=C27H32O9
71.086288 3251718.0 
91.969971 1047039.1875 
95.085541 585316.8125 
99.080574 1873148.25 
107.085411 656971.75 
135.07991 724813.875 
163.038605 746145.0625 
177.090942 2953683.0 
179.032959 618694.3125 
193.049332 1903976.625 
205.085556 722321.25 
233.080566 5662289.5 
263.127136 1494387.75 
277.106812 3219376.0 
287.054688 3576822.25 
289.070312 3639938.0 
331.153259 7124427.0 
342.109161 9249577.0 
343.116974 3275795.0 
387.143188 8680642.0 
387.216187 3781535.0 
413.122345 18126516.0 
415.210938 8116587.0 
441.190125 101883456.0 
457.221191 7430182.0 
483.200684 5684256.5 
501.211182 57454064.0 
529.263245 26183.347656 
574.354309 78035.734375 
625.867676 148580.203125 
631.480835 127653.65625 
664.73822 161663.3125 
686.742065 326543.21875 
750.276917 29578.970703 
801.539856 298109.5625 
839.921509 69811.984375 
853.268982 143457.421875 
895.755371 143374.015625 
933.523132 5689.844238 
961.997192 281147.8125 
989.07251 69552.476562 
END IONS

BEGIN IONS
RTINSECONDS=285.152008
CHARGE=1+
MSLEVEL=2
SMILES=CC(C[C@H](NC(=O)/C(=C\1/C(=C(c2ccccc2)C(=O)O1)O)/c1ccccc1)C(=O)O)C
INCHI=InChI=1S/C24H23NO6/c1-14(2)13-17(23(28)29)25-22(27)19(16-11-7-4-8-12-16)21-20(26)18(24(30)31-21)15-9-5-3-6-10-15/h3-12,14,17,26H,13H2,1-2H3,(H,25,27)(H,28,29)/b21-19-/t17-/m0/s1
INCHIKEY=ZQLBONJLBKDOLE-UFVMTTLYSA-N
CLASS=Pulvinic Acid Derivatives
ADDUCT=[2M+H]+
INSTRUMENT=Thermo Q-Exactive Focus
PRECURSOR_MZ=843.3129
COMPOUND_NAME=Norepanorin
ION_MODE=positive
FORMULA=C24H23NO6
82.26548 41324.730469 
86.097023 4979042.0 
89.039474 43082.117188 
112.691566 46126.117188 
132.101913 3669024.75 
145.028854 159141.84375 
178.077637 93589.507812 
179.085709 179528.046875 
207.080261 2115656.5 
217.065475 112706.90625 
235.075134 1482699.5 
245.059525 98324.429688 
263.070007 3116413.75 
283.736908 10814.201172 
291.064636 700153.875 
348.769653 41020.484375 
360.738464 21251.140625 
375.133667 24644.601562 
375.20636 44623.414062 
391.308411 44572.554688 
404.151215 65424.050781 
422.159332 2950588.0 
432.945923 24212.728516 
481.943665 24011.105469 
512.938232 10764.070312 
535.649597 11021.1875 
549.969727 43714.765625 
648.343445 12362.924805 
688.871826 54884.691406 
756.522522 52357.46875 
757.243835 53065.605469 
791.981323 12727.196289 
795.850769 50349.0 
END IONS

BEGIN IONS
RTINSECONDS=257.513
CHARGE=1+
MSLEVEL=2
SMILES=Oc1cc(OC(=O)c2c(O)cc(O)cc2CC(=O)CCCCC)cc(CCCCC)c1C(=O)O
INCHI=InChI=1S/C26H32O8/c1-3-5-7-9-16-13-20(15-22(30)23(16)25(31)32)34-26(33)24-17(12-19(28)14-21(24)29)11-18(27)10-8-6-4-2/h12-15,28-30H,3-11H2,1-2H3,(H,31,32)
INCHIKEY=VZPLPGICHZXOCQ-UHFFFAOYSA-N
CLASS=Depsides (Didepsides)
ADDUCT=[M+Na]+
INSTRUMENT=Thermo Q-Exactive Focus
PRECURSOR_MZ=495.1995
COMPOUND_NAME=Olivetoric acid
ION_MODE=positive
FORMULA=C26H32O8
55.215229 28466.326172 
59.187702 19119.318359 
72.866158 25966.919922 
79.505898 18787.998047 
93.604691 19228.037109 
95.169205 34885.394531 
108.516861 15633.463867 
143.785431 13872.598633 
227.685898 21306.398438 
229.083313 107381.296875 
247.094757 62892.570312 
271.093689 2096528.75 
289.104156 59060.871094 
305.378876 17263.974609 
339.345184 27072.591797 
374.774323 6212.60498 
383.571472 8011.213379 
396.096954 7216.671387 
400.220642 6387.444824 
END IONS

BEGIN IONS
RTINSECONDS=279.847992
CHARGE=1+
MSLEVEL=2
SMILES=O=C1O/C(=C(/C(=O)N[C@H](C(=O)O)Cc2ccccc2)\c2ccccc2)/C(=C1c1ccccc1)O
INCHI=InChI=1S/C27H21NO6/c29-23-21(18-12-6-2-7-13-18)27(33)34-24(23)22(19-14-8-3-9-15-19)25(30)28-20(26(31)32)16-17-10-4-1-5-11-17/h1-15,20,29H,16H2,(H,28,30)(H,31,32)/b24-22+/t20-/m0/s1
INCHIKEY=XTLHEUFWRQKNNG-YVURAWIMSA-N
CLASS=Pulvinic Acid Derivatives
ADDUCT=[M+NH4]+
INSTRUMENT=Thermo Q-Exactive Focus
PRECURSOR_MZ=473.1713
COMPOUND_NAME=Norrhizocarpic acid
ION_MODE=positive
FORMULA=C27H21NO6
73.32885 33192.910156 
91.963623 69795.65625 
103.054688 50589.113281 
105.033966 47633.824219 
120.081062 3145375.0 
131.0495 102179.726562 
149.060104 106178.40625 
166.086334 2021407.375 
179.085632 85428.507812 
207.08046 1106582.75 
217.065216 46122.96875 
235.075333 593172.4375 
245.059113 33301.691406 
263.070221 1427910.375 
291.064453 300450.96875 
307.820374 25407.259766 
316.380341 24498.074219 
331.774597 25296.578125 
335.194489 46794.191406 
376.763977 13177.329102 
393.879883 42216.191406 
396.581482 21481.914062 
407.198853 30919.705078 
456.079437 55604.894531 
456.14447 1034887.625 
END IONS

BEGIN IONS
RTINSECONDS=390.684998
CHARGE=1+
MSLEVEL=2
SMILES=CC1(C)[C@@H](OC(=O)C)C[C@H](OC(=O)C)[C@]2(C)[C@H]3CC[C@@H]4[C@@]5(C)CC[C@H](C(C)(O)C)[C@@H]5CC[C@@]4(C)[C@]3(C)CCC12
INCHI=InChI=1S/C34H56O5/c1-20(35)38-27-19-28(39-21(2)36)34(10)24(29(27,3)4)15-18-33(9)26(34)12-11-25-31(7)16-13-22(30(5,6)37)23(31)14-17-32(25,33)8/h22-28,37H,11-19H2,1-10H3/t22-,23-,24?,25+,26-,27-,28-,31-,32+,33+,34-/m0/s1
INCHIKEY=HIGXRAWIRQTPEC-ZQLPSASCSA-N
CLASS=Terpenoids : Triterpenes
ADDUCT=[M+Na]+
INSTRUMENT=Thermo Q-Exactive Focus
PRECURSOR_MZ=567.4025
COMPOUND_NAME="1alpa,3beta-diacetoxy-22-hopanol"
ION_MODE=positive
FORMULA=C34H56O5
54.938667 76571.632812 
83.011261 850745.0625 
91.967117 398309.4375 
95.086365 196478.390625 
109.10202 213820.359375 
133.101761 163990.015625 
147.117386 183133.203125 
161.132889 161386.984375 
191.179886 100860.640625 
203.180084 395902.65625 
217.195557 257251.515625 
447.360321 154272.5 
507.383331 286586.96875 
526.397461 462295.40625 
END IONS

BEGIN IONS
RTINSECONDS=332.515991
CHARGE=1+
MSLEVEL=2
SMILES=O=C(O)C[C@@H]([C@H](CCCCCCCCCCCCCC)C(=O)O)C(=O)OC
INCHI=InChI=1S/C21H38O6/c1-3-4-5-6-7-8-9-10-11-12-13-14-15-17(20(24)25)18(16-19(22)23)21(26)27-2/h17-18H,3-16H2,1-2H3,(H,22,23)(H,24,25)/t17-,18-/m0/s1
INCHIKEY=MZWQZYDNVSKPPF-ROUUACIJSA-N
CLASS=Acids
ADDUCT=[M+NH4]+
INSTRUMENT=Thermo Q-Exactive Focus
PRECURSOR_MZ=404.3012
COMPOUND_NAME=Isorangiformic acid
ION_MODE=positive
FORMULA=C21H38O6
57.070839 2657940.75 
69.07077 4339042.0 
81.070633 3487201.25 
83.086212 3332638.25 
95.086128 4026993.25 
119.085815 3273343.25 
133.101364 3621406.75 
147.117111 1618094.5 
161.132812 1532320.5 
165.0914 1695913.375 
179.107162 1255878.125 
231.211044 913087.625 
245.226639 2807363.75 
263.237885 1222404.625 
291.231903 2321169.25 
301.216614 1099153.0 
319.22757 1286242.125 
337.236969 978851.3125 
355.247681 4723764.5 
369.217316 611650.6875 
369.263672 10902888.0 
END IONS

BEGIN IONS
RTINSECONDS=255.453003
CHARGE=1+
MSLEVEL=2
SMILES=CC(C)C[C@H](NC(=O)c1ccccc1)C(=O)OC[C@@H](NC(=O)c1ccccc1)Cc1ccccc1
INCHI=InChI=1S/C29H32N2O4/c1-21(2)18-26(31-28(33)24-16-10-5-11-17-24)29(34)35-20-25(19-22-12-6-3-7-13-22)30-27(32)23-14-8-4-9-15-23/h3-17,21,25-26H,18-20H2,1-2H3,(H,30,32)(H,31,33)/t25-,26-/m0/s1
INCHIKEY=JOOSAYNHLJGJCN-UIOOFZCWSA-N
CLASS=N-Containing Compounds
ADDUCT=[2M+NH4]+
INSTRUMENT=Thermo Q-Exactive Focus
PRECURSOR_MZ=962.5068
COMPOUND_NAME=Hypothallin
ION_MODE=positive
FORMULA=C29H32N2O4
79.055054 2246621.75 
91.055138 5943357.5 
105.034088 70399344.0 
117.070412 32958842.0 
122.060677 8826289.0 
134.096664 8213826.5 
171.085327 366040.71875 
190.122742 17229002.0 
218.117889 4818516.5 
238.122971 85045064.0 
239.10701 1213845.125 
249.830475 246460.34375 
256.133484 38034332.0 
266.715149 217456.15625 
291.764893 173878.234375 
327.613556 328010.96875 
384.084625 243563.875 
417.605011 78548.585938 
423.849823 71102.734375 
432.26593 209144.078125 
447.345276 77393.039062 
473.244385 12498704.0 
489.272186 56669.011719 
490.279053 49512.453125 
496.229218 50308.945312 
513.0177 360032.40625 
582.192749 390986.28125 
625.509277 254392.3125 
708.085754 364850.03125 
710.379883 70412.257812 
735.579285 79519.21875 
759.355164 10930.597656 
805.538818 280918.96875 
END IONS

BEGIN IONS
RTINSECONDS=292.274994
CHARGE=1+
MSLEVEL=2
SMILES=CCCCCc1cc(cc(c1C(=O)O)OC)OC(=O)c1c(cc(cc1CC(=O)CCCCC)OC)O
INCHI=InChI=1S/C28H36O8/c1-5-7-9-11-18-14-22(17-24(35-4)26(18)27(31)32)36-28(33)25-19(13-20(29)12-10-8-6-2)15-21(34-3)16-23(25)30/h14-17,30H,5-13H2,1-4H3,(H,31,32)
INCHIKEY=UANVCGQMNRTKGM-UHFFFAOYSA-N
CLASS=Depsides (Didepsides)
ADDUCT=[2M+NH4]+
INSTRUMENT=Thermo Q-Exactive Focus
PRECURSOR_MZ=1018.5164
COMPOUND_NAME=Confluentic acid
ION_MODE=positive
FORMULA=C28H36O8
71.086395 146015.390625 
91.970268 593649.625 
124.052132 1169794.25 
125.06002 1033849.5 
137.059845 2781425.0 
163.07547 2970831.75 
175.075485 2377944.75 
195.137741 3417318.75 
217.122452 3111335.75 
221.117401 21875206.0 
235.132996 4947826.0 
239.127899 16397359.0 
263.127899 67291600.0 
295.190765 174896.0625 
316.626984 73842.007812 
318.356842 213355.328125 
351.906677 105128.84375 
356.518341 85939.125 
361.218353 97325.453125 
424.653137 43799.898438 
447.347137 106720.460938 
492.615875 93714.992188 
553.891724 76420.203125 
554.272766 162309.1875 
579.851318 94263.1875 
601.706848 198402.359375 
614.42041 162858.09375 
705.529297 54792.605469 
717.890137 44727.855469 
768.204895 77793.359375 
775.106506 84828.859375 
922.021545 78396.523438 
END IONS

BEGIN IONS
RTINSECONDS=322.891998
CHARGE=1+
MSLEVEL=2
SMILES=CC(C)C[C@@H](C(=O)OC)NC(=O)/C(=C\1/C(=C(C(=O)O1)c1ccccc1)O)/c1ccccc1
INCHI=InChI=1S/C25H25NO6/c1-15(2)14-18(24(29)31-3)26-23(28)20(17-12-8-5-9-13-17)22-21(27)19(25(30)32-22)16-10-6-4-7-11-16/h4-13,15,18,27H,14H2,1-3H3,(H,26,28)/b22-20-/t18-/m0/s1
INCHIKEY=IBSRGCBHIASQMQ-BKBKCADHSA-N
CLASS=Pulvinic Acid Derivatives
ADDUCT=[2M+H]+
INSTRUMENT=Thermo Q-Exactive Focus
PRECURSOR_MZ=871.3442
COMPOUND_NAME=Epanorin
ION_MODE=positive
FORMULA=C25H25NO6
63.87973 74253.890625 
68.479759 99522.523438 
86.096855 17926092.0 
91.971161 137364.515625 
145.028198 146625.625 
146.117172 14810426.0 
178.076584 152747.453125 
179.08522 426649.90625 
207.079819 4869473.0 
217.064301 362326.28125 
235.074646 3831814.75 
245.059662 249107.25 
263.069427 9737906.0 
291.064117 1859803.875 
303.657196 109155.0 
317.407471 80388.710938 
345.809967 9661.208008 
376.152313 16643.730469 
404.14743 170602.453125 
409.362854 21399.087891 
415.18692 76333.898438 
419.214081 14670.988281 
436.174133 8029522.0 
464.553833 9813.897461 
480.373383 9796.260742 
485.488312 15703.59082 
531.287415 10509.276367 
537.494446 8706.097656 
541.739929 107411.632812 
553.136963 8041.824219 
584.825684 59826.628906 
586.658569 105647.25 
688.930298 82618.15625 
763.070435 61186.164062 
811.440796 15447.503906 
824.93457 65847.6875 
829.876587 9700.858398 
848.737549 17392.167969 
END IONS

BEGIN IONS
RTINSECONDS=183.220001
CHARGE=1+
MSLEVEL=2
SMILES=CC1C(OC2(C(C1O)C)C(C1C(C(=O)C2(C(=O)O1)C)C)C)C
INCHI=InChI=1S/C17H26O5/c1-7-11(5)22-17(9(3)12(7)18)10(4)13-8(2)14(19)16(17,6)15(20)21-13/h7-13,18H,1-6H3
INCHIKEY=CVPVGRDVSAJUQS-UHFFFAOYSA-N
CLASS=Aliphatic and Cycloaliphatic Compounds
ADDUCT=[M+Na+CH3CN]+
INSTRUMENT=Thermo Q-Exactive Focus
PRECURSOR_MZ=374.1943
COMPOUND_NAME=Portentol
ION_MODE=positive
FORMULA=C17H26O5
55.966843 11055.855469 
91.968018 13284.681641 
92.182632 12046.932617 
92.807152 11215.765625 
93.764748 11337.125 
96.401817 11421.692383 
133.815033 13510.285156 
163.03688 55553.730469 
168.474106 5403.162109 
177.097992 13154.919922 
178.447769 5862.530762 
205.535141 12276.323242 
213.732117 4992.394531 
214.007385 5174.527344 
271.16687 6657.522949 
277.104858 87047.46875 
289.140686 20129.347656 
290.993378 14355.558594 
315.156616 368869.125 
333.167175 1517135.0 
343.0802 5038.257324 
350.874512 5675.317871 
351.177704 9280.303711 
END IONS

BEGIN IONS
RTINSECONDS=340.149994
CHARGE=1+
MSLEVEL=2
SMILES=CC1(C)C2CC[C@]3([C@@]4(CC[C@H]5[C@H](CC[C@@]5([C@H]4CC[C@@H]3[C@@]2(C)C(=O)C=C1)C)C(C)(O)C)C)C
INCHI=InChI=1S/C30H48O2/c1-25(2)15-14-24(31)30(8)21(25)13-18-29(7)23(30)10-9-22-27(5)16-11-19(26(3,4)32)20(27)12-17-28(22,29)6/h14-15,19-23,32H,9-13,16-18H2,1-8H3/t19-,20-,21?,22+,23-,27-,28+,29+,30-/m0/s1
INCHIKEY=YLKHZBZGHNOEES-LISTXKHRSA-N
CLASS=Terpenoids : Triterpenes
ADDUCT=[M+H+CH3CN]+
INSTRUMENT=Thermo Q-Exactive Focus
PRECURSOR_MZ=482.3998
COMPOUND_NAME=22-Hydoxy-2-hopen-1-one
ION_MODE=positive
FORMULA=C30H48O2
89.06028 58013.140625 
109.745468 5883.903809 
133.086151 25615.351562 
135.117004 6112.312012 
177.111313 7350.005859 
189.163452 6334.643066 
201.163071 3106.501953 
283.175415 29159.695312 
407.330872 4976.283691 
419.3302 7968.608887 
437.341034 51995.855469 
END IONS

BEGIN IONS
RTINSECONDS=316.170013
CHARGE=1+
MSLEVEL=2
SMILES=CCCCCCCCCCCCCCC(C(=O)O)C(CC(=O)OC)(C(=O)O)O
INCHI=InChI=1S/C21H38O7/c1-3-4-5-6-7-8-9-10-11-12-13-14-15-17(19(23)24)21(27,20(25)26)16-18(22)28-2/h17,27H,3-16H2,1-2H3,(H,23,24)(H,25,26)
INCHIKEY=HMJJWFFZRCLIDN-UHFFFAOYSA-N
CLASS=Acids
ADDUCT=[M+Na]+
INSTRUMENT=Thermo Q-Exactive Focus
PRECURSOR_MZ=425.2515
COMPOUND_NAME=Caperatic acid
ION_MODE=positive
FORMULA=C21H38O7
57.408939 73178.3125 
63.668404 95206.289062 
67.347778 100878.664062 
71.645668 35562.234375 
72.689194 32818.578125 
91.963707 40201.539062 
140.754654 102522.9375 
142.555252 119865.125 
146.253799 40785.929688 
169.010361 41664.710938 
184.335266 21263.658203 
206.768906 10571.378906 
220.859695 14840.342773 
243.063553 16362.943359 
248.355942 14855.733398 
275.536743 34786.429688 
335.254608 270582.84375 
336.547211 114241.164062 
337.874908 6009.209473 
351.526855 8029.82959 
379.246399 71396.640625 
384.210968 100125.851562 
405.346954 16432.480469 
407.238129 142319.59375 
END IONS

BEGIN IONS
RTINSECONDS=261.466003
CHARGE=1+
MSLEVEL=2
SMILES=O=C1Oc2c(c(CC(=O)CCCCC)c(C(=O)O)c(O)c2)Oc2c1c(cc(c2)O)CC(=O)CCCCC
INCHI=InChI=1S/C28H32O9/c1-3-5-7-9-17(29)11-16-12-19(31)14-22-24(16)28(35)37-23-15-21(32)25(27(33)34)20(26(23)36-22)13-18(30)10-8-6-4-2/h12,14-15,31-32H,3-11,13H2,1-2H3,(H,33,34)
INCHIKEY=ZDIOCINAHISORH-UHFFFAOYSA-N
CLASS=Depsidones
ADDUCT=[M+H]+
INSTRUMENT=Thermo Q-Exactive Focus
PRECURSOR_MZ=513.2125
COMPOUND_NAME=Alpha-Alectoronic acid
ION_MODE=positive
FORMULA=C28H32O9
53.24596 220868.5625 
66.256943 84632.273438 
71.086494 16297232.0 
81.070663 532346.375 
91.963211 1074819.5 
99.081032 7175918.5 
123.04425 749403.0625 
137.024216 659174.125 
150.031128 1312697.875 
163.039337 756842.9375 
192.041641 1394007.25 
203.070145 640688.3125 
215.070145 387870.53125 
230.093689 553024.0 
248.104034 763449.375 
271.060516 1092604.625 
273.076416 837001.9375 
297.039612 1001400.3125 
299.055695 2006006.0 
301.143494 1169369.125 
354.110046 1627860.0 
355.118225 3601856.0 
369.133789 1981165.625 
371.148468 2821337.75 
379.118378 2156556.0 
397.128571 11391464.0 
415.139679 2073367.75 
427.211975 1256751.75 
451.212433 1208243.375 
453.190979 16478312.0 
477.191132 3876825.75 
495.20163 16785624.0 
END IONS

BEGIN IONS
RTINSECONDS=401.826996
CHARGE=1+
MSLEVEL=2
SMILES=CC1(C)[C@@H](OC(=O)C)C[C@@H](OC(=O)C)[C@]2(C)[C@H]3CC[C@@H]4[C@@]5(C)CC[C@H](C(C)(O)C)[C@@H]5CC[C@@]4(C)[C@]3(C)CCC12
INCHI=InChI=1S/C34H56O5/c1-20(35)38-27-19-28(39-21(2)36)34(10)24(29(27,3)4)15-18-33(9)26(34)12-11-25-31(7)16-13-22(30(5,6)37)23(31)14-17-32(25,33)8/h22-28,37H,11-19H2,1-10H3/t22-,23-,24?,25+,26-,27-,28+,31-,32+,33+,34-/m0/s1
INCHIKEY=HIGXRAWIRQTPEC-GAGXLZTKSA-N
CLASS=Terpenoids : Triterpenes
ADDUCT=[2M+Na]+
INSTRUMENT=Thermo Q-Exactive Focus
PRECURSOR_MZ=1111.8153
COMPOUND_NAME="1beta,3beta-diacetoxy-22-hopanol"
ION_MODE=positive
FORMULA=C34H56O5
83.011299 195500.796875 
91.967941 87321.296875 
95.086357 135166.765625 
109.101929 93870.914062 
135.117203 132770.96875 
149.133026 87856.460938 
161.133057 64467.226562 
186.27063 60272.902344 
191.180954 49772.589844 
203.179977 57259.207031 
243.160385 48172.5625 
244.323685 47955.117188 
261.481781 52310.042969 
271.242432 54029.890625 
291.040314 47136.6875 
309.932678 35046.742188 
312.603821 51836.625 
346.325195 25279.609375 
409.374207 56754.25 
414.077911 35375.484375 
427.860992 55234.265625 
453.200348 42741.40625 
471.464661 34605.449219 
471.557007 6654.98291 
491.286499 63485.011719 
507.382446 366077.625 
525.140564 10048.492188 
565.458679 48651.136719 
567.403198 23435336.0 
571.834351 33939.085938 
608.426208 36989.628906 
760.291504 28918.400391 
776.122192 29108.677734 
912.183105 50115.949219 
928.953552 27760.375 
1013.737183 25496.462891 
1127.818115 64859.601562 
1148.30249 32831.003906 
END IONS

BEGIN IONS
RTINSECONDS=306.139008
CHARGE=1+
MSLEVEL=2
SMILES=CC1(C)[C@@H](O)C[C@@H](O)[C@]2(C)[C@H]3CC[C@@H]4[C@@]5(C)CC[C@H](C(C)(O)C)[C@@H]5CC[C@@]4(C)[C@]3(C)CCC12
INCHI=InChI=1S/C30H52O3/c1-25(2)20-13-16-29(7)22(30(20,8)24(32)17-23(25)31)10-9-21-27(5)14-11-18(26(3,4)33)19(27)12-15-28(21,29)6/h18-24,31-33H,9-17H2,1-8H3/t18-,19-,20?,21+,22-,23-,24+,27-,28+,29+,30-/m0/s1
INCHIKEY=UFWDOQZJZKOECC-LHKSMCHBSA-N
CLASS=Terpenoids : Triterpenes
ADDUCT=[M+Na]+
INSTRUMENT=Thermo Q-Exactive Focus
PRECURSOR_MZ=483.3814
COMPOUND_NAME="1b,3b,22-Hopantriol"
ION_MODE=positive
FORMULA=C30H52O3
95.086159 133218.59375 
105.070259 143490.8125 
107.085945 120507.914062 
121.101326 194508.140625 
131.085617 325269.0 
133.101227 847688.0625 
177.127991 522333.625 
199.14827 207507.53125 
213.164017 74016.703125 
245.191833 28021.095703 
419.331329 37757.203125 
437.341278 110787.90625 
END IONS

BEGIN IONS
RTINSECONDS=200.643005
CHARGE=1+
MSLEVEL=2
SMILES=O=C(OC)/C(=C\1/OC(=O)C(=C1OC)c1ccccc1)/c1c(OC)cccc1
INCHI=InChI=1S/C21H18O6/c1-24-15-12-8-7-11-14(15)17(20(22)26-3)19-18(25-2)16(21(23)27-19)13-9-5-4-6-10-13/h4-12H,1-3H3/b19-17+
INCHIKEY=WGZKMINRLLRJPF-HTXNQAPBSA-N
CLASS=Pulvinic Acid Derivatives
ADDUCT=[M+H+CH3OH]+
INSTRUMENT=Thermo Q-Exactive Focus
PRECURSOR_MZ=399.1444
COMPOUND_NAME=Leprapinic acid methyl ether
ION_MODE=positive
FORMULA=C21H18O6
91.967377 2816133.5 
103.054634 1424119.0 
105.033859 1497135.625 
115.054314 4713255.0 
118.041328 1484906.875 
145.028214 1574536.125 
161.059418 9620892.0 
189.05426 12488029.0 
191.071259 6491411.0 
219.064392 8152608.0 
251.106003 32890372.0 
279.100891 15826816.0 
292.072449 781792.4375 
294.120239 1117667.125 
307.095795 9875364.0 
335.090424 23602342.0 
350.109711 1477572.375 
367.117218 1645080.125 
382.13681 533027.4375 
END IONS

BEGIN IONS
RTINSECONDS=190.916
CHARGE=1+
MSLEVEL=2
SMILES=Oc1c(C(=O)Oc2cc(C)c(c(O)c2C)C(=O)O)c(C)cc(OC)c1C(=O)O
INCHI=InChI=1S/C19H18O9/c1-7-5-10(9(3)15(20)12(7)17(22)23)28-19(26)13-8(2)6-11(27-4)14(16(13)21)18(24)25/h5-6,20-21H,1-4H3,(H,22,23)(H,24,25)
INCHIKEY=WCWYEXBIRSSVGF-UHFFFAOYSA-N
CLASS=Depsides (Didepsides)
ADDUCT=[M+H]+
INSTRUMENT=Thermo Q-Exactive Focus
PRECURSOR_MZ=391.1029
COMPOUND_NAME=Squamatic acid
ION_MODE=positive
FORMULA=C19H18O9
52.781998 126734.242188 
59.94582 132762.328125 
60.590862 147102.359375 
71.576347 170757.125 
108.859299 160243.515625 
131.409943 158921.796875 
149.083206 70389.257812 
154.479843 167090.484375 
190.334976 148831.34375 
191.03331 25083162.0 
199.638077 169970.421875 
209.043915 15498053.0 
252.337372 164592.453125 
272.891266 178999.5 
274.044952 168590.28125 
297.428253 189334.328125 
300.730286 169727.578125 
315.080475 14509.853516 
345.121552 13674.701172 
351.387146 198676.0625 
361.584137 6736.056152 
END IONS

BEGIN IONS
RTINSECONDS=257.019012
CHARGE=1+
MSLEVEL=2
SMILES=CC(C)C[C@H](NC(=O)c1ccccc1)C(=O)OC[C@@H](NC(=O)c1ccccc1)Cc1ccccc1
INCHI=InChI=1S/C29H32N2O4/c1-21(2)18-26(31-28(33)24-16-10-5-11-17-24)29(34)35-20-25(19-22-12-6-3-7-13-22)30-27(32)23-14-8-4-9-15-23/h3-17,21,25-26H,18-20H2,1-2H3,(H,30,32)(H,31,33)/t25-,26-/m0/s1
INCHIKEY=JOOSAYNHLJGJCN-UIOOFZCWSA-N
CLASS=N-Containing Compounds
ADDUCT=[M+K]+
INSTRUMENT=Thermo Q-Exactive Focus
PRECURSOR_MZ=511.1999
COMPOUND_NAME=Hypothallin
ION_MODE=positive
FORMULA=C29H32N2O4
105.034294 18494.271484 
117.070305 10812.392578 
238.123108 16664.388672 
239.126892 6541.429199 
274.084503 23172.326172 
END IONS

BEGIN IONS
RTINSECONDS=236.740997
CHARGE=1+
MSLEVEL=2
SMILES=COc1cc2c(c(=O)oc(CCCCC)c2)c(OC)c1
INCHI=InChI=1S/C16H20O4/c1-4-5-6-7-12-8-11-9-13(18-2)10-14(19-3)15(11)16(17)20-12/h8-10H,4-7H2,1-3H3
INCHIKEY=NKYAIPHVDQBFLF-UHFFFAOYSA-N
CLASS=Cleavage Products of Depsides and Depsidones
ADDUCT=[M+Na+CH3CN]+
INSTRUMENT=Thermo Q-Exactive Focus
PRECURSOR_MZ=340.1525
COMPOUND_NAME="2,4-Di-O-methylolivetonide"
ION_MODE=positive
FORMULA=C16H20O4
51.583549 7978.785645 
91.967621 10780.088867 
284.101624 11597.725586 
299.125244 3321488.5 
317.135254 29994.931641 
END IONS

BEGIN IONS
RTINSECONDS=203.298996
CHARGE=1+
MSLEVEL=2
SMILES=Cc1c(C(=O)OC)c(OC)cc2c1c1c(cc(c(C(=O)O)c1o2)C)OC
INCHI=InChI=1S/C19H18O7/c1-8-6-10(23-3)16-14-9(2)15(19(22)25-5)11(24-4)7-12(14)26-17(16)13(8)18(20)21/h6-7H,1-5H3,(H,20,21)
INCHIKEY=WBIQYHZEYQDKCL-UHFFFAOYSA-N
CLASS=Dibenzofuranes
ADDUCT=[2M+H]+
INSTRUMENT=Thermo Q-Exactive Focus
PRECURSOR_MZ=717.2183
COMPOUND_NAME=Schizopeltic acid
ION_MODE=positive
FORMULA=C19H18O7
52.839859 245414.46875 
56.497108 194678.25 
58.247025 192422.640625 
66.851166 314591.25 
70.252739 329766.28125 
82.389381 300425.25 
113.728271 314012.0625 
138.806763 223090.828125 
139.09877 199932.640625 
177.296555 324624.0625 
201.468781 372830.78125 
208.468506 201658.265625 
212.083984 622490.25 
239.07019 402376.9375 
242.296631 319687.71875 
283.06189 446101.53125 
284.068207 530973.125 
297.039368 523393.9375 
312.06308 10369384.0 
327.086548 105224224.0 
341.102203 5245225.5 
359.112518 8337218.5 
442.654633 9590.819336 
469.501251 262489.625 
475.873718 28628.650391 
496.488342 203465.953125 
513.038818 80988.960938 
525.145203 9572.258789 
566.017273 357327.5625 
570.462402 29993.759766 
615.822205 359693.03125 
646.909424 93786.445312 
650.636475 8792.421875 
END IONS

BEGIN IONS
RTINSECONDS=276.977997
CHARGE=1+
MSLEVEL=2
SMILES=CCCCCCCCCC[C@H]1C[C@H]([C@@H](C(=O)O1)C)C(=O)O
INCHI=InChI=1S/C17H30O4/c1-3-4-5-6-7-8-9-10-11-14-12-15(16(18)19)13(2)17(20)21-14/h13-15H,3-12H2,1-2H3,(H,18,19)/t13-,14-,15+/m0/s1
INCHIKEY=SRMPRRDLILJEAW-SOUVJXGZSA-N
CLASS=Acids
ADDUCT=[M+H+CH3OH]+
INSTRUMENT=Thermo Q-Exactive Focus
PRECURSOR_MZ=331.2484
COMPOUND_NAME=Acaranoic acid
ION_MODE=positive
FORMULA=C17H30O4
69.070869 462825.1875 
81.070847 696824.375 
83.086365 387227.0625 
95.086258 676619.5625 
105.070465 439032.5 
109.065552 439216.65625 
133.101578 421137.375 
189.164413 328913.9375 
217.195618 1307323.75 
235.205933 763541.5 
245.19075 251045.59375 
263.20108 675492.1875 
277.216736 282983.96875 
281.211578 667916.4375 
295.227325 707292.1875 
313.237671 402237.5 
END IONS

BEGIN IONS
RTINSECONDS=125.343002
CHARGE=1+
MSLEVEL=2
SMILES=O=C1c2c(C)cc(O)c(C=O)c2Oc2c(O1)c(c(c1c2C(O)OC1=O)O)CO
INCHI=InChI=1S/C18H12O10/c1-5-2-8(21)6(3-19)13-9(5)16(23)27-14-7(4-20)12(22)10-11(15(14)26-13)18(25)28-17(10)24/h2-3,18,20-22,25H,4H2,1H3
INCHIKEY=QQTKVXCQLZIJPP-UHFFFAOYSA-N
CLASS=Depsidones
ADDUCT=[M+H+CH3OH]+
INSTRUMENT=Thermo Q-Exactive Focus
PRECURSOR_MZ=421.0771
COMPOUND_NAME=Salazinic acid
ION_MODE=positive
FORMULA=C18H12O10
53.047871 6497.706543 
64.545532 6910.937012 
65.93763 6904.821289 
99.008705 18933.78125 
108.386116 6589.744141 
117.854691 6616.517578 
119.013268 24036.951172 
177.018738 19824.451172 
179.034012 100314.320312 
195.029205 25285.916016 
207.028702 38669.957031 
215.034866 21215.011719 
229.049911 58343.269531 
243.029236 29527.369141 
269.045349 21606.869141 
297.039612 149366.328125 
299.019104 264250.875 
307.02417 30576.84375 
325.034302 334438.625 
343.045593 104399.5625 
353.029297 133171.265625 
371.039764 54711.320312 
385.055573 55805.863281 
403.067993 34774.925781 
439.531189 5772.858398 
446.884857 5877.576172 
END IONS

BEGIN IONS
RTINSECONDS=337.671997
CHARGE=1+
MSLEVEL=2
SMILES=CC1(C)C2CC[C@@]3(C)C(CCC4C3(CCC3[C@@H](O)C(C)(C)CCC43C)C)C2(C)CC(OC(=O)C)C1O
INCHI=InChI=1S/C32H54O4/c1-19(33)36-21-18-30(7)22(28(4,5)26(21)35)13-15-32(9)24(30)11-10-23-29(6)17-16-27(2,3)25(34)20(29)12-14-31(23,32)8/h20-26,34-35H,10-18H2,1-9H3/t20?,21?,22?,23?,24?,25-,26?,29?,30?,31?,32+/m1/s1
INCHIKEY=QZWMMIGRNYLXMG-XDRJWLFLSA-N
CLASS=Terpenoids : Triterpenes
ADDUCT=[M+NH4]+
INSTRUMENT=Thermo Q-Exactive Focus
PRECURSOR_MZ=520.4366
COMPOUND_NAME="2alpha-acetoxy-3beta,22alpha-stictandiol"
ION_MODE=positive
FORMULA=C32H54O4
81.070618 41819.335938 
95.086128 119149.046875 
107.086021 52843.882812 
109.101677 130493.445312 
121.101486 84563.882812 
123.117172 58183.71875 
135.117035 120726.960938 
189.164001 51904.78125 
191.179367 104167.28125 
203.179779 39591.566406 
207.174713 39133.667969 
217.195251 43341.449219 
275.328735 9073.515625 
297.257782 7838.833496 
308.328674 7846.89209 
315.268799 14483.213867 
329.284485 22341.078125 
341.284912 10033.25 
355.299103 16351.367188 
407.367371 19774.230469 
413.18927 8923.46875 
413.376709 10404.236328 
425.37793 298949.625 
443.38916 50676.0 
479.349884 15813.110352 
503.412262 10102.336914 
END IONS

BEGIN IONS
RTINSECONDS=169.352997
CHARGE=1+
MSLEVEL=2
SMILES=Cc1cc(=O)c2c(o1)c(c(c(c2O)C)O)Cl
INCHI=InChI=1S/C11H9ClO4/c1-4-3-6(13)7-9(14)5(2)10(15)8(12)11(7)16-4/h3,14-15H,1-2H3
INCHIKEY=OFIWISPGMYFUGQ-UHFFFAOYSA-N
CLASS=Chromanes and Chromones
ADDUCT=[M+H]+
INSTRUMENT=Thermo Q-Exactive Focus
PRECURSOR_MZ=241.0268
COMPOUND_NAME=Rupicolin (sordidone)
ION_MODE=positive
FORMULA=C11H9ClO4
52.505592 128324.234375 
54.537312 88339.773438 
154.989258 163497.46875 
195.020691 688584.1875 
200.995209 1477326.375 
205.05011 263099.65625 
206.057724 1920210.25 
END IONS

BEGIN IONS
RTINSECONDS=202.179993
CHARGE=1+
MSLEVEL=2
SMILES=Oc1cc(C(=O)O)cc2c1C(=O)c1c(cc(cc1O)OC)C2=O
INCHI=InChI=1S/C16H10O7/c1-23-7-4-9-13(11(18)5-7)15(20)12-8(14(9)19)2-6(16(21)22)3-10(12)17/h2-5,17-18H,1H3,(H,21,22)
INCHIKEY=HEULMVKOOVHXME-UHFFFAOYSA-N
CLASS=Quinones
ADDUCT=[M+H]+
INSTRUMENT=Thermo Q-Exactive Focus
PRECURSOR_MZ=315.0505
COMPOUND_NAME=Parietinic acid
ION_MODE=positive
FORMULA=C16H10O7
57.68795 3871.208496 
64.478439 4466.059082 
75.729263 4772.937988 
95.050041 4238.747559 
95.507942 4503.676758 
116.101181 2809.445557 
144.097702 4183.32666 
151.039398 3720.427246 
172.556412 2351.062988 
213.055023 7729.967285 
229.458054 4721.004395 
241.049835 9708.794922 
269.044434 10504.063477 
271.06076 33316.566406 
272.032013 6177.36377 
297.039917 11699.758789 
END IONS

BEGIN IONS
RTINSECONDS=161.490997
CHARGE=1+
MSLEVEL=2
SMILES=O=C1c2c(C)cc(O)c(C)c2Oc2c(O1)cc(c(c2C)C(=O)O)O
INCHI=InChI=1S/C17H14O7/c1-6-4-9(18)7(2)15-12(6)17(22)23-11-5-10(19)13(16(20)21)8(3)14(11)24-15/h4-5,18-19H,1-3H3,(H,20,21)
INCHIKEY=HETZRHDDRHBPKX-UHFFFAOYSA-N
CLASS=Depsidones
ADDUCT=[M+H]+
INSTRUMENT=Thermo Q-Exactive Focus
PRECURSOR_MZ=331.0818
COMPOUND_NAME=Nornotatic acid
ION_MODE=positive
FORMULA=C17H14O7
68.997841 10716.930664 
83.013489 53786.339844 
85.102234 2114.517822 
89.192131 112388.351562 
98.984619 3384.692627 
159.080444 404889.9375 
187.075134 1111934.75 
189.090881 744857.875 
215.070251 1224423.625 
217.085602 6465372.5 
243.064606 1151629.125 
245.080399 4059550.0 
271.059662 29174884.0 
287.090363 887277.8125 
313.070007 3574846.0 
END IONS

BEGIN IONS
RTINSECONDS=278.671997
CHARGE=1+
MSLEVEL=2
SMILES=CC(=O)CCCCCCCCCCCCC[C@H]1OC(=O)C(=C1C(=O)O)C
INCHI=InChI=1S/C21H34O5/c1-16(22)14-12-10-8-6-4-3-5-7-9-11-13-15-18-19(20(23)24)17(2)21(25)26-18/h18H,3-15H2,1-2H3,(H,23,24)/t18-/m1/s1
INCHIKEY=KYSXDEQQOVVLIN-GOSISDBHSA-N
CLASS=Paraconic acids
ADDUCT=[M+H]+
INSTRUMENT=Thermo Q-Exactive Focus
PRECURSOR_MZ=367.2484
COMPOUND_NAME=Isomuronic acid
ION_MODE=positive
FORMULA=C21H34O5
67.055359 24715196.0 
81.070877 44065028.0 
93.070847 22873238.0 
95.086433 60353972.0 
109.101944 27987128.0 
121.065514 34202896.0 
271.227966 18370668.0 
275.237701 4139204.0 
285.223114 7575227.5 
303.232849 23710058.0 
321.243469 13877738.0 
331.228638 17124872.0 
349.238281 43799464.0 
END IONS

BEGIN IONS
RTINSECONDS=291.855011
CHARGE=1+
MSLEVEL=2
SMILES=CCCCCc1cc(cc(c1C(=O)O)OC)OC(=O)c1c(cc(cc1CC(=O)CCCCC)OC)O
INCHI=InChI=1S/C28H36O8/c1-5-7-9-11-18-14-22(17-24(35-4)26(18)27(31)32)36-28(33)25-19(13-20(29)12-10-8-6-2)15-21(34-3)16-23(25)30/h14-17,30H,5-13H2,1-4H3,(H,31,32)
INCHIKEY=UANVCGQMNRTKGM-UHFFFAOYSA-N
CLASS=Depsides (Didepsides)
ADDUCT=[M+Na]+
INSTRUMENT=Thermo Q-Exactive Focus
PRECURSOR_MZ=523.2308
COMPOUND_NAME=Confluentic acid
ION_MODE=positive
FORMULA=C28H36O8
93.24025 62624.007812 
97.355606 68918.84375 
99.790298 60712.527344 
101.744431 58693.863281 
106.56665 69005.148438 
133.083527 59800.722656 
196.261948 31589.742188 
201.425644 14315.110352 
243.099304 1491053.875 
257.114868 81332.515625 
259.130798 265717.71875 
261.109894 875173.75 
285.109772 3502652.75 
303.120697 550280.1875 
376.408539 14536.616211 
END IONS

BEGIN IONS
RTINSECONDS=297.515015
CHARGE=1+
MSLEVEL=2
SMILES=CCCCCCCCCCCC1[C@H](C(=O)O)C(C)C(=O)O1
INCHI=InChI=1S/C17H30O4/c1-3-4-5-6-7-8-9-10-11-12-14-15(16(18)19)13(2)17(20)21-14/h13-15H,3-12H2,1-2H3,(H,18,19)/t13?,14?,15-/m1/s1
INCHIKEY=PKXAQFKGSXYQJX-YMAMQOFZSA-N
CLASS=Paraconic acids
ADDUCT=[M+NH4]+
INSTRUMENT=Thermo Q-Exactive Focus
PRECURSOR_MZ=316.2488
COMPOUND_NAME=Nephrosteranic acid
ION_MODE=positive
FORMULA=C17H30O4
67.055092 44437.960938 
69.070755 65209.347656 
81.070541 93931.390625 
83.086197 52829.269531 
95.086105 93260.921875 
109.101593 74823.28125 
123.117165 38041.207031 
133.101379 38225.953125 
147.11705 30040.150391 
179.179718 53476.671875 
189.164124 53775.625 
217.195084 123990.515625 
235.205444 124672.085938 
245.18988 15423.585938 
253.216629 42555.179688 
263.200592 87300.0 
281.21106 165023.234375 
299.221954 76298.273438 
END IONS

BEGIN IONS
RTINSECONDS=289.674011
CHARGE=1+
MSLEVEL=2
SMILES=O=C1c2c(C(=O)CCCC)cc(OC)cc2Oc2c(O1)cc(c(c2CCCCC)C(=O)O)O
INCHI=InChI=1S/C25H28O8/c1-4-6-8-9-15-21(24(28)29)18(27)13-20-23(15)32-19-12-14(31-3)11-16(17(26)10-7-5-2)22(19)25(30)33-20/h11-13,27H,4-10H2,1-3H3,(H,28,29)
INCHIKEY=JHEWMLHQNRHTQX-UHFFFAOYSA-N
CLASS=Depsidones
ADDUCT=[2M+Na]+
INSTRUMENT=Thermo Q-Exactive Focus
PRECURSOR_MZ=935.3466
COMPOUND_NAME=Lobaric acid
ION_MODE=positive
FORMULA=C25H28O8
66.122765 84167.890625 
76.786621 80136.09375 
91.968582 148445.75 
97.924606 107951.140625 
102.830734 80611.640625 
133.324081 92640.46875 
139.388489 86640.304688 
176.513931 88820.898438 
176.823563 85610.359375 
207.362961 91723.375 
232.025894 80235.5 
236.100235 96985.234375 
237.278839 76477.304688 
251.198669 72386.304688 
275.911194 73923.445312 
304.587494 92045.148438 
309.172211 83628.296875 
313.830048 35808.53125 
318.914825 57870.871094 
391.186676 98218.953125 
393.164978 81076.1875 
405.09549 444937.46875 
417.167297 94122.09375 
435.178314 2141286.25 
460.197052 61536.242188 
461.157501 1690571.375 
479.168091 10316461.0 
489.576599 64499.960938 
497.171692 48888.527344 
545.915894 38566.246094 
576.963196 86957.46875 
581.752991 56806.867188 
596.64447 63655.6875 
630.745789 57285.859375 
648.422852 95668.585938 
837.980103 11806.666992 
856.084351 65345.089844 
860.381042 79766.484375 
871.401062 62181.039062 
893.188782 98884.601562 
903.514587 108720.101562 
END IONS

BEGIN IONS
RTINSECONDS=340.811005
CHARGE=1+
MSLEVEL=2
SMILES=CC1(C)C2CC[C@@]3(C)C(CCC4C3(CCC3[C@@H](O)C(C)(C)CCC43C)C)C2(C)CC(OC(=O)C)C1O
INCHI=InChI=1S/C32H54O4/c1-19(33)36-21-18-30(7)22(28(4,5)26(21)35)13-15-32(9)24(30)11-10-23-29(6)17-16-27(2,3)25(34)20(29)12-14-31(23,32)8/h20-26,34-35H,10-18H2,1-9H3/t20?,21?,22?,23?,24?,25-,26?,29?,30?,31?,32+/m1/s1
INCHIKEY=QZWMMIGRNYLXMG-XDRJWLFLSA-N
CLASS=Terpenoids : Triterpenes
ADDUCT=[2M+H]+
INSTRUMENT=Thermo Q-Exactive Focus
PRECURSOR_MZ=1005.8122
COMPOUND_NAME="2alpha-acetoxy-3beta,22alpha-stictandiol"
ION_MODE=positive
FORMULA=C32H54O4
81.070633 198312.046875 
95.08609 469555.59375 
109.101593 426601.0625 
121.101433 362875.8125 
123.116997 304996.03125 
135.116776 797797.5 
149.132599 286514.65625 
189.163834 255402.125 
191.17981 386955.53125 
203.179459 198339.046875 
217.195084 353248.53125 
297.256744 22931.652344 
315.268127 21939.791016 
329.284424 38972.148438 
343.299683 29459.132812 
355.297943 17972.339844 
383.328247 17161.865234 
399.362823 23417.357422 
407.367096 216682.078125 
425.377747 1699255.125 
443.388092 160513.40625 
447.345734 16398.076172 
464.497803 11863.78418 
503.408905 69774.492188 
584.018372 13614.386719 
623.924561 12513.414062 
714.942688 13474.681641 
741.806396 12186.730469 
753.61084 12261.560547 
798.190186 12371.558594 
869.029297 11955.103516 
885.930969 12692.237305 
898.307678 11435.349609 
END IONS

BEGIN IONS
RTINSECONDS=393.403015
CHARGE=1+
MSLEVEL=2
SMILES=CC1(C)[C@@H](OC(=O)C)C[C@H](OC(=O)C)[C@]2(C)[C@H]3CC[C@@H]4[C@@]5(C)CC[C@H](C(C)(O)C)[C@@H]5CC[C@@]4(C)[C@]3(C)CCC12
INCHI=InChI=1S/C34H56O5/c1-20(35)38-27-19-28(39-21(2)36)34(10)24(29(27,3)4)15-18-33(9)26(34)12-11-25-31(7)16-13-22(30(5,6)37)23(31)14-17-32(25,33)8/h22-28,37H,11-19H2,1-10H3/t22-,23-,24?,25+,26-,27-,28-,31-,32+,33+,34-/m0/s1
INCHIKEY=HIGXRAWIRQTPEC-ZQLPSASCSA-N
CLASS=Terpenoids : Triterpenes
ADDUCT=[M+Na+CH3CN]+
INSTRUMENT=Thermo Q-Exactive Focus
PRECURSOR_MZ=608.4291
COMPOUND_NAME="1alpa,3beta-diacetoxy-22-hopanol"
ION_MODE=positive
FORMULA=C34H56O5
83.011421 252352.15625 
91.967628 67615.585938 
95.086411 46291.445312 
109.10173 40888.671875 
133.101761 38011.871094 
147.117233 37537.839844 
149.132874 36265.738281 
161.133026 34682.945312 
203.180069 97633.078125 
217.195847 60354.453125 
255.855148 7212.688477 
294.452667 11931.899414 
335.221588 10486.6875 
342.973969 6704.436035 
367.338593 10831.018555 
368.564911 7495.479004 
385.465942 7319.98584 
407.368347 16766.890625 
434.903046 8557.832031 
447.359528 55658.945312 
475.814941 8273.912109 
505.43158 8178.726074 
507.382294 73177.8125 
554.031921 7925.737305 
567.403625 1782020.875 
636.491211 13192.333984 
END IONS

BEGIN IONS
RTINSECONDS=330.596985
CHARGE=1+
MSLEVEL=2
SMILES=CC[C@@H](C)C[C@@H](C)[C@@H]([C@H](C)C(=O)O[C@@H]([C@H](C)C[C@H](C)CC)[C@H](C)C(=O)O)O
INCHI=InChI=1S/C22H42O5/c1-9-13(3)11-15(5)19(23)17(7)22(26)27-20(18(8)21(24)25)16(6)12-14(4)10-2/h13-20,23H,9-12H2,1-8H3,(H,24,25)/t13-,14-,15-,16-,17+,18+,19+,20+/m1/s1
INCHIKEY=ZQEUMOKDJCSNHB-IHRHECOVSA-N
CLASS=Acids
ADDUCT=[M+H]+
INSTRUMENT=Thermo Q-Exactive Focus
PRECURSOR_MZ=387.311
COMPOUND_NAME=Bourgeanic acid
ION_MODE=positive
FORMULA=C22H42O5
55.055145 3807839.5 
57.070759 4694729.5 
69.07058 16390273.0 
83.086044 21768444.0 
95.085884 10554327.0 
109.101334 8648875.0 
111.080742 22068566.0 
149.132187 11299019.0 
167.142731 37540332.0 
185.153183 26771428.0 
END IONS

BEGIN IONS
RTINSECONDS=135.539001
CHARGE=1+
MSLEVEL=2
SMILES=Cc1cc(O)cc(O)c1C(=O)Oc1cc(O)c(C(=O)OC[C@@H](O)[C@@H](O)CO)c(C)c1
INCHI=InChI=1S/C20H22O10/c1-9-3-11(22)5-13(23)18(9)20(28)30-12-4-10(2)17(14(24)6-12)19(27)29-8-16(26)15(25)7-21/h3-6,15-16,21-26H,7-8H2,1-2H3/t15-,16+/m0/s1
INCHIKEY=BUBBEHCXSMCYNY-JKSUJKDBSA-N
CLASS=Depsides (Didepsides)
ADDUCT=[M+H]+
INSTRUMENT=Thermo Q-Exactive Focus
PRECURSOR_MZ=423.1291
COMPOUND_NAME=Erythrin
ION_MODE=positive
FORMULA=C20H22O10
61.180115 37294.164062 
67.055107 98031.125 
68.997917 121244.226562 
95.049583 116935.28125 
122.294266 45102.535156 
123.044662 47381.964844 
151.039108 12486572.0 
169.049683 79596.09375 
181.647552 15864.711914 
222.001968 7816.203125 
229.532669 8074.760742 
237.074371 12124.225586 
241.362747 8029.466309 
255.0867 26568.865234 
289.647369 9975.939453 
290.77713 10268.40625 
301.07074 122960.25 
345.427948 8765.875977 
358.290344 20470.382812 
371.885559 3475.932617 
373.496796 8427.657227 
398.973022 18422.730469 
END IONS

BEGIN IONS
RTINSECONDS=261.287994
CHARGE=1+
MSLEVEL=2
SMILES=Cc1cc(c(c(c1C(=O)O)O)C)OC(=O)c1c(c(c(cc1C)OC)C)OC
INCHI=InChI=1S/C20H22O7/c1-9-8-14(11(3)17(21)15(9)19(22)23)27-20(24)16-10(2)7-13(25-5)12(4)18(16)26-6/h7-8,21H,1-6H3,(H,22,23)
INCHIKEY=MIJKZXWOOXIEEU-UHFFFAOYSA-N
CLASS=Depsides (Didepsides)
ADDUCT=[M+Na]+
INSTRUMENT=Thermo Q-Exactive Focus
PRECURSOR_MZ=397.1263
COMPOUND_NAME=Diffractaic acid
ION_MODE=positive
FORMULA=C20H22O7
76.840401 62734.625 
91.970428 138570.4375 
187.037186 222971.171875 
193.086349 2561678.75 
379.114349 876046.9375 
END IONS

BEGIN IONS
RTINSECONDS=384.050995
CHARGE=1+
MSLEVEL=2
SMILES=CC1(C2C(CCC1OC(=O)C)(C)C1C(CC2)([C@]2(C(C(C1)O)C(CC2)[C@]1(C)O[C@@H](C(C)(OC(=O)C)C)CC1)C)C)C
INCHI=InChI=1S/C34H56O6/c1-20(35)38-26-13-15-31(7)24(29(26,3)4)12-17-32(8)25(31)19-23(37)28-22(11-16-33(28,32)9)34(10)18-14-27(40-34)30(5,6)39-21(2)36/h22-28,37H,11-19H2,1-10H3/t22?,23?,24?,25?,26?,27-,28?,31?,32?,33-,34-/m1/s1
INCHIKEY=TWRWTOXPYGQKPW-ZWXXETMRSA-N
CLASS=Terpenoids : Triterpenes
ADDUCT=[M+Na]+
INSTRUMENT=Thermo Q-Exactive Focus
PRECURSOR_MZ=583.3975
COMPOUND_NAME=Diacetylpyxinol
ION_MODE=positive
FORMULA=C34H56O6
83.011208 43767.046875 
91.965118 78605.257812 
107.086288 57477.65625 
121.101952 41971.003906 
125.09642 41162.519531 
133.101608 37618.0625 
147.117294 45864.398438 
189.164444 48831.25 
191.180405 27310.763672 
201.164505 20254.566406 
463.355865 146003.109375 
523.376587 1384553.375 
END IONS

BEGIN IONS
RTINSECONDS=241.867996
CHARGE=1+
MSLEVEL=2
SMILES=CCCCCC(=O)Cc1cc(cc(c1C(=O)Oc1cc(c(c(c1)CC(=O)CCCCC)C(=O)O)OC)O)O
INCHI=InChI=1S/C29H36O9/c1-4-6-8-10-20(30)12-18-14-22(32)16-24(33)26(18)29(36)38-23-15-19(13-21(31)11-9-7-5-2)27(28(34)35)25(17-23)37-3/h14-17,32-33H,4-13H2,1-3H3,(H,34,35)
INCHIKEY=DGXLEDCXMIJNPJ-UHFFFAOYSA-N
CLASS=Depsides (Didepsides)
ADDUCT=[M+NH4]+
INSTRUMENT=Thermo Q-Exactive Focus
PRECURSOR_MZ=546.2703
COMPOUND_NAME=Arthoniaic acid
ION_MODE=positive
FORMULA=C29H36O9
55.055038 16046.073242 
69.07077 762852.5 
71.086555 1683623.25 
91.97052 274397.21875 
99.08094 1008468.0 
123.04451 1702770.0 
137.059952 5684888.0 
163.075684 9010283.0 
165.055054 3113236.25 
175.075623 6767423.0 
179.070358 4205829.0 
217.122818 6459707.0 
235.133133 18685034.0 
237.14917 2141989.25 
249.112625 7358104.0 
263.128082 121314912.0 
281.138855 7579889.0 
END IONS

BEGIN IONS
RTINSECONDS=218.067001
CHARGE=1+
MSLEVEL=2
SMILES=O=C1C(=C(O)/C(=C(/c2ccccc2)\C(=O)N[C@@H](Cc2ccccc2)C(=O)OC)/O1)c1ccccc1
INCHI=InChI=1S/C28H23NO6/c1-34-27(32)21(17-18-11-5-2-6-12-18)29-26(31)23(20-15-9-4-10-16-20)25-24(30)22(28(33)35-25)19-13-7-3-8-14-19/h2-16,21,30H,17H2,1H3,(H,29,31)/b25-23+/t21-/m0/s1
INCHIKEY=DKDGWAKCXBFTMM-KZKMBZSSSA-N
CLASS=Pulvinic Acid Derivatives
ADDUCT=[M+H]+
INSTRUMENT=Thermo Q-Exactive Focus
PRECURSOR_MZ=470.1604
COMPOUND_NAME=Rhizocarpic acid
ION_MODE=positive
FORMULA=C28H23NO6
51.003098 69839.375 
51.163326 70631.148438 
53.441868 63370.472656 
54.530979 66389.734375 
65.866974 75734.046875 
96.485138 90814.210938 
120.081322 4524114.0 
120.200706 85577.28125 
121.065376 146357.59375 
163.075577 216401.515625 
179.086121 426755.25 
180.102661 2444038.0 
207.080917 4443257.0 
217.065872 236895.21875 
235.075897 2446317.0 
245.060013 96711.414062 
263.070831 4636339.5 
269.124481 33634.664062 
291.065155 981022.25 
319.084412 12155.979492 
332.923615 27787.207031 
337.347961 85930.804688 
384.489777 12077.823242 
400.712036 8497.705078 
410.140198 569825.3125 
419.890381 93769.148438 
428.16983 11186.665039 
438.135315 25448.564453 
END IONS

BEGIN IONS
RTINSECONDS=214.895004
CHARGE=1+
MSLEVEL=2
SMILES=O=C1c2c(CC(=O)CCCCC)cc(O)c(O)c2Oc2c(O1)cc(c(c2CCCCC)C(=O)O)O
INCHI=InChI=1S/C26H30O9/c1-3-5-7-9-15(27)11-14-12-18(29)22(30)24-20(14)26(33)34-19-13-17(28)21(25(31)32)16(23(19)35-24)10-8-6-4-2/h12-13,28-30H,3-11H2,1-2H3,(H,31,32)
INCHIKEY=BQHHNAPTXQOPBW-UHFFFAOYSA-N
CLASS=Depsidones
ADDUCT=[M+Na]+
INSTRUMENT=Thermo Q-Exactive Focus
PRECURSOR_MZ=509.1788
COMPOUND_NAME=3-Hydroxyphysodic acid
ION_MODE=positive
FORMULA=C26H30O9
84.218422 22975.865234 
91.963699 149795.515625 
133.789185 31692.652344 
465.189453 1301049.625 
491.167908 186906.328125 
END IONS

BEGIN IONS
RTINSECONDS=183.313995
CHARGE=1+
MSLEVEL=2
SMILES=CC1C(OC2(C(C1O)C)C(C1C(C(=O)C2(C(=O)O1)C)C)C)C
INCHI=InChI=1S/C17H26O5/c1-7-11(5)22-17(9(3)12(7)18)10(4)13-8(2)14(19)16(17,6)15(20)21-13/h7-13,18H,1-6H3
INCHIKEY=CVPVGRDVSAJUQS-UHFFFAOYSA-N
CLASS=Aliphatic and Cycloaliphatic Compounds
ADDUCT=[2M+Na]+
INSTRUMENT=Thermo Q-Exactive Focus
PRECURSOR_MZ=643.3458
COMPOUND_NAME=Portentol
ION_MODE=positive
FORMULA=C17H26O5
58.414738 26776.388672 
59.818905 28118.582031 
91.964607 10724.257812 
112.550491 9811.322266 
116.632027 8506.257812 
122.439423 26846.884766 
157.267242 9600.510742 
163.036789 119310.125 
197.392288 30530.724609 
211.784912 10182.988281 
224.804962 9751.43457 
255.190857 27528.970703 
262.119781 9190.867188 
277.104706 202813.84375 
315.156433 760748.1875 
315.191864 47638.019531 
324.640167 29449.224609 
333.167175 3352989.0 
344.071381 30013.669922 
392.566467 9242.449219 
448.847321 7724.524902 
531.308655 8015.246094 
573.394958 7099.23877 
587.881287 7962.828613 
611.963806 8400.373047 
613.023499 7303.155762 
624.115417 8059.126465 
END IONS

BEGIN IONS
RTINSECONDS=333.789001
CHARGE=1+
MSLEVEL=2
SMILES=CCCCCCCCCCCCC[C@@H]1OC(=O)C(=C)[C@@H]1C(=O)O
INCHI=InChI=1S/C19H32O4/c1-3-4-5-6-7-8-9-10-11-12-13-14-16-17(18(20)21)15(2)19(22)23-16/h16-17H,2-14H2,1H3,(H,20,21)/t16-,17-/m0/s1
INCHIKEY=WZYZDHVPSZCEEP-IRXDYDNUSA-N
CLASS=Paraconic acids
ADDUCT=[M+H]+
INSTRUMENT=Thermo Q-Exactive Focus
PRECURSOR_MZ=325.2379
COMPOUND_NAME=allo-Protolichesterinic acid
ION_MODE=positive
FORMULA=C19H32O4
67.055038 193081.734375 
69.070717 217739.40625 
81.070557 315167.34375 
93.070435 234569.5 
95.085983 258265.640625 
121.101357 208515.828125 
135.116806 166081.015625 
163.075531 97413.875 
233.226624 115433.085938 
243.210983 102083.773438 
261.221191 97149.632812 
271.205353 40544.234375 
289.216156 169463.296875 
307.226654 166236.203125 
END IONS

BEGIN IONS
RTINSECONDS=110.968002
CHARGE=1+
MSLEVEL=2
SMILES=Cc1cc(c(c2c1C(=O)Oc1c(O2)c2c(c(c1CO)O)C(=O)OC2O)C=O)OC
INCHI=InChI=1S/C19H14O10/c1-6-3-9(26-2)7(4-20)14-10(6)17(23)28-15-8(5-21)13(22)11-12(16(15)27-14)19(25)29-18(11)24/h3-4,19,21-22,25H,5H2,1-2H3
INCHIKEY=FYPCEUKJORJHDL-UHFFFAOYSA-N
CLASS=Depsidones
ADDUCT=[2M+NH4]+
INSTRUMENT=Thermo Q-Exactive Focus
PRECURSOR_MZ=822.1518
COMPOUND_NAME=Constictic acid
ION_MODE=positive
FORMULA=C19H14O10
68.878967 43243.1875 
78.726128 127861.609375 
82.030922 40677.0 
91.963493 417759.9375 
99.008522 717679.5625 
119.013557 137900.4375 
147.851562 144752.78125 
191.035065 241508.796875 
193.050797 278563.0 
200.375305 162044.859375 
227.070633 309304.0 
231.065704 542280.5625 
243.065689 3213438.75 
257.045624 644824.875 
259.060944 433846.28125 
287.055573 1776652.25 
311.055603 3992314.0 
313.035095 5466890.5 
339.05072 21207808.0 
367.045654 4038533.0 
385.056244 14006077.0 
401.305756 24758.453125 
403.066833 5407960.5 
414.94812 156604.9375 
528.199646 12874.606445 
548.026062 10050.870117 
609.496277 11514.493164 
636.736694 43742.691406 
641.458069 10618.774414 
683.861877 14235.816406 
723.553406 13689.448242 
731.526428 10348.423828 
766.624573 190364.734375 
800.247498 27539.832031 
END IONS

BEGIN IONS
RTINSECONDS=343.411011
CHARGE=1+
MSLEVEL=2
SMILES=CCCCCCCCCCCCC[C@@H]1[C@@H](C(=O)O)[C@H](C)C(=O)O1
INCHI=InChI=1S/C19H34O4/c1-3-4-5-6-7-8-9-10-11-12-13-14-16-17(18(20)21)15(2)19(22)23-16/h15-17H,3-14H2,1-2H3,(H,20,21)/t15-,16+,17-/m0/s1
INCHIKEY=WLGALFYTFVOQPY-BBWFWOEESA-N
CLASS=Paraconic acids
ADDUCT=[M+H+CH3CN]+
INSTRUMENT=Thermo Q-Exactive Focus
PRECURSOR_MZ=368.2801
COMPOUND_NAME=Roccellaric acid
ION_MODE=positive
FORMULA=C19H34O4
67.054405 61797.359375 
69.07 66352.164062 
81.069756 125349.335938 
95.085121 137793.78125 
97.100693 56205.558594 
109.100487 69820.0 
133.09996 47557.964844 
147.115463 39098.441406 
207.209076 52102.457031 
217.193192 36341.550781 
245.223892 92218.054688 
263.234283 119891.789062 
273.218964 10417.856445 
281.244385 52609.5 
291.228577 74207.78125 
309.239136 84774.734375 
327.249573 30148.041016 
END IONS

BEGIN IONS
RTINSECONDS=289.593994
CHARGE=1+
MSLEVEL=2
SMILES=O=C1c2c(C(=O)CCCC)cc(OC)cc2Oc2c(O1)cc(c(c2CCCCC)C(=O)O)O
INCHI=InChI=1S/C25H28O8/c1-4-6-8-9-15-21(24(28)29)18(27)13-20-23(15)32-19-12-14(31-3)11-16(17(26)10-7-5-2)22(19)25(30)33-20/h11-13,27H,4-10H2,1-3H3,(H,28,29)
INCHIKEY=JHEWMLHQNRHTQX-UHFFFAOYSA-N
CLASS=Depsidones
ADDUCT=[M+Na]+
INSTRUMENT=Thermo Q-Exactive Focus
PRECURSOR_MZ=479.1682
COMPOUND_NAME=Lobaric acid
ION_MODE=positive
FORMULA=C25H28O8
81.533722 70749.296875 
91.964516 165600.90625 
405.097351 151743.453125 
435.178223 948555.4375 
461.157654 622417.0 
END IONS

BEGIN IONS
RTINSECONDS=172.733994
CHARGE=1+
MSLEVEL=2
SMILES=O=C(OC)c1c(C)cc(OC)cc1OC
INCHI=InChI=1S/C11H14O4/c1-7-5-8(13-2)6-9(14-3)10(7)11(12)15-4/h5-6H,1-4H3
INCHIKEY=QCEODMDPMRZZDI-UHFFFAOYSA-N
CLASS=Cleavage Products of Depsides and Depsidones
ADDUCT=[M+H]+
INSTRUMENT=Thermo Q-Exactive Focus
PRECURSOR_MZ=211.097
COMPOUND_NAME="Methyl-2,4-Di-O-methylorsellinate"
ION_MODE=positive
FORMULA=C11H14O4
59.596684 64474.8125 
91.054619 5594137.0 
93.034142 2599780.25 
121.06488 3688503.0 
136.051773 13396535.0 
149.060547 834077.9375 
164.04657 6824531.5 
179.070068 531618880.0 
END IONS

BEGIN IONS
RTINSECONDS=125.385002
CHARGE=1+
MSLEVEL=2
SMILES=O[C@H]1[C@H](O)[C@@H](O)[C@H](Oc2c(C)c3oc(C)cc(=O)c3c(O)c2C)O[C@@H]1COC(=O)C
INCHI=InChI=1S/C20H24O10/c1-7-5-11(22)13-14(23)8(2)18(9(3)19(13)28-7)30-20-17(26)16(25)15(24)12(29-20)6-27-10(4)21/h5,12,15-17,20,23-26H,6H2,1-4H3/t12-,15-,16+,17-,20+/m1/s1
INCHIKEY=NJRLDXGREKHXGV-IVABAYMNSA-N
CLASS=Chromanes and Chromones
ADDUCT=[M+H]+
INSTRUMENT=Thermo Q-Exactive Focus
PRECURSOR_MZ=425.1448
COMPOUND_NAME=Galapagin
ION_MODE=positive
FORMULA=C20H24O10
52.317898 241412.5625 
61.322556 61767.886719 
71.703697 58299.167969 
219.06546 1640439.0 
221.081024 289357376.0 
END IONS

BEGIN IONS
RTINSECONDS=111.472
CHARGE=1+
MSLEVEL=2
SMILES=Cc1cc(c(c2c1C(=O)Oc1c(O2)c2c(c(c1CO)O)C(=O)OC2O)C=O)OC
INCHI=InChI=1S/C19H14O10/c1-6-3-9(26-2)7(4-20)14-10(6)17(23)28-15-8(5-21)13(22)11-12(16(15)27-14)19(25)29-18(11)24/h3-4,19,21-22,25H,5H2,1-2H3
INCHIKEY=FYPCEUKJORJHDL-UHFFFAOYSA-N
CLASS=Depsidones
ADDUCT=[2M+Na]+
INSTRUMENT=Thermo Q-Exactive Focus
PRECURSOR_MZ=827.1072
COMPOUND_NAME=Constictic acid
ION_MODE=positive
FORMULA=C19H14O10
71.231567 12566.751953 
75.183723 26925.671875 
75.454987 52573.039062 
78.368286 11815.504883 
91.970642 26360.5 
97.764343 12972.638672 
133.444595 26640.9375 
155.023941 10634.131836 
172.389114 65733.554688 
183.001587 27581.660156 
197.772888 12813.930664 
212.975845 48219.242188 
215.031952 153260.1875 
257.499756 6488.089844 
259.996643 31940.96875 
299.59491 36209.257812 
319.058594 86631.703125 
325.085419 31843.769531 
335.054321 73133.679688 
347.751404 69438.109375 
363.048035 733611.4375 
379.043884 185796.09375 
407.038269 3730760.75 
425.048706 2484428.5 
425.107666 16204.5 
461.275055 56976.050781 
478.352081 35205.738281 
494.033356 28461.0 
507.017242 59917.667969 
545.662354 9452.152344 
800.33075 14602.864258 
END IONS

BEGIN IONS
RTINSECONDS=210.085007
CHARGE=1+
MSLEVEL=2
SMILES=O=C(OC)/C(=C\1/OC(=O)C(=C1O)c1ccccc1)/c1c(OC)cccc1
INCHI=InChI=1S/C20H16O6/c1-24-14-11-7-6-10-13(14)16(19(22)25-2)18-17(21)15(20(23)26-18)12-8-4-3-5-9-12/h3-11,21H,1-2H3/b18-16+
INCHIKEY=IWYVMUDIEOXASM-FBMGVBCBSA-N
CLASS=Pulvinic Acid Derivatives
ADDUCT=[M+H+CH3OH]+
INSTRUMENT=Thermo Q-Exactive Focus
PRECURSOR_MZ=385.1287
COMPOUND_NAME=Leprapinic acid
ION_MODE=positive
FORMULA=C20H16O6
91.055069 417786.375 
119.049774 1233976.125 
121.065376 359938.1875 
147.044373 1094529.125 
149.059982 401989.0 
151.076263 896539.8125 
175.03952 812016.3125 
179.070694 2394720.75 
207.065414 341249.8125 
209.097153 166059.15625 
235.060745 2990883.0 
237.091797 292580.3125 
265.086731 270335.3125 
293.081177 702859.75 
309.112488 445436.875 
321.076202 1037747.5625 
325.109528 30409.939453 
353.102722 609071.0 
END IONS

BEGIN IONS
RTINSECONDS=194.686996
CHARGE=1+
MSLEVEL=2
SMILES=O=C1c2c(C)cc(O)c(C=O)c2Oc2c(O1)c(c(c(c2C)C(=O)O)O)COC(=O)C
INCHI=InChI=1S/C20H16O10/c1-7-4-12(23)10(5-21)17-13(7)20(27)30-18-11(6-28-9(3)22)15(24)14(19(25)26)8(2)16(18)29-17/h4-5,23-24H,6H2,1-3H3,(H,25,26)
INCHIKEY=SKXNIRUDASOCCN-UHFFFAOYSA-N
CLASS=Depsidones
ADDUCT=[M+NH4]+
INSTRUMENT=Thermo Q-Exactive Focus
PRECURSOR_MZ=434.1087
COMPOUND_NAME=Physodalic acid
ION_MODE=positive
FORMULA=C20H16O10
91.969185 319666.71875 
131.049637 518173.875 
285.039886 47846560.0 
303.050842 2450112.0 
339.009674 533672.375 
339.05069 15850510.0 
357.061066 19410792.0 
357.10556 763597.5625 
END IONS

BEGIN IONS
RTINSECONDS=214.018005
CHARGE=1+
MSLEVEL=2
SMILES=Oc1c(Oc2cc(OC)cc3c2C(=O)OC3(O)CCCC)c(CCCCC)c(c(c1)O)C(=O)O
INCHI=InChI=1S/C25H30O9/c1-4-6-8-9-15-20(23(28)29)17(26)13-18(27)22(15)33-19-12-14(32-3)11-16-21(19)24(30)34-25(16,31)10-7-5-2/h11-13,26-27,31H,4-10H2,1-3H3,(H,28,29)
INCHIKEY=BWRBGHBJBQFFAW-UHFFFAOYSA-N
CLASS=Diphenylethers
ADDUCT=[M+NH4]+
INSTRUMENT=Thermo Q-Exactive Focus
PRECURSOR_MZ=492.2234
COMPOUND_NAME=Lobariolcarboxylic acid (Lobarin)
ION_MODE=positive
FORMULA=C25H30O9
57.070728 118183.132812 
85.065437 136055.890625 
91.968948 66420.734375 
99.551407 35696.890625 
135.79483 35318.042969 
137.023224 82392.054688 
145.014313 33472.269531 
149.834 34390.144531 
177.091095 20253.408203 
193.086136 21648.294922 
235.096695 67478.78125 
236.09877 24238.910156 
237.102753 21072.5625 
269.117737 42397.050781 
287.127319 138098.03125 
288.136688 14416.375977 
343.189972 119815.765625 
356.125244 174490.8125 
357.132599 247976.765625 
371.184631 452049.0625 
395.18457 192842.125 
397.163757 1640903.25 
413.194855 586277.375 
439.174286 147811.828125 
447.74762 36699.777344 
457.184845 1399161.0 
475.195374 22436.402344 
507.99054 16337.973633 
515.636047 12038.011719 
END IONS

BEGIN IONS
RTINSECONDS=287.097992
CHARGE=1+
MSLEVEL=2
SMILES=CCCCCc1c2c(cc(c1C(=O)O)O)oc1c2c(cc(c1)OC)CCC
INCHI=InChI=1S/C22H26O5/c1-4-6-7-9-15-20(22(24)25)16(23)12-18-21(15)19-13(8-5-2)10-14(26-3)11-17(19)27-18/h10-12,23H,4-9H2,1-3H3,(H,24,25)
INCHIKEY=IDZVZCQOFFSQMO-UHFFFAOYSA-N
CLASS=Dibenzofuranes
ADDUCT=[M+H]+
INSTRUMENT=Thermo Q-Exactive Focus
PRECURSOR_MZ=371.1858
COMPOUND_NAME=Didymic acid
ION_MODE=positive
FORMULA=C22H26O5
51.394192 74956.804688 
55.642193 118326.992188 
71.08606 124042.945312 
75.344032 82096.53125 
91.146317 72269.539062 
123.744728 71929.117188 
150.719742 62337.789062 
152.342834 11798.198242 
168.648239 83052.640625 
191.884674 153139.921875 
215.070923 429339.78125 
239.106613 473407.65625 
253.122528 460926.8125 
255.100967 596890.3125 
283.096191 2552224.5 
296.099976 669072.8125 
301.107178 1096841.25 
310.118896 466461.625 
353.172791 5043306.5 
391.861664 135489.921875 
END IONS

BEGIN IONS
RTINSECONDS=394.743011
CHARGE=1+
MSLEVEL=2
SMILES=CC1(C)[C@@H](OC(=O)C)C[C@H](OC(=O)C)[C@]2(C)[C@H]3CC[C@@H]4[C@@]5(C)CC[C@H](C(C)(O)C)[C@@H]5CC[C@@]4(C)[C@]3(C)CCC12
INCHI=InChI=1S/C34H56O5/c1-20(35)38-27-19-28(39-21(2)36)34(10)24(29(27,3)4)15-18-33(9)26(34)12-11-25-31(7)16-13-22(30(5,6)37)23(31)14-17-32(25,33)8/h22-28,37H,11-19H2,1-10H3/t22-,23-,24?,25+,26-,27-,28-,31-,32+,33+,34-/m0/s1
INCHIKEY=HIGXRAWIRQTPEC-ZQLPSASCSA-N
CLASS=Terpenoids : Triterpenes
ADDUCT=[2M+Na]+
INSTRUMENT=Thermo Q-Exactive Focus
PRECURSOR_MZ=1111.8153
COMPOUND_NAME="1alpa,3beta-diacetoxy-22-hopanol"
ION_MODE=positive
FORMULA=C34H56O5
83.011322 256311.140625 
91.966682 210639.046875 
95.086464 148355.140625 
121.101852 111626.617188 
135.117554 115349.242188 
149.133331 116626.078125 
203.180191 99520.117188 
207.711487 41354.644531 
217.196335 33360.707031 
243.007233 13986.293945 
260.115051 56648.460938 
268.885345 12127.446289 
285.125763 15886.529297 
322.860992 12208.286133 
336.920044 12720.739258 
337.05188 13283.893555 
345.882416 13285.691406 
374.363159 63429.042969 
403.129395 41829.894531 
438.225525 24106.414062 
447.360809 58513.84375 
449.754211 17798.439453 
467.409668 60241.429688 
500.045959 20389.861328 
500.82074 12966.963867 
507.381897 308607.53125 
566.578613 13308.995117 
567.403442 23574588.0 
571.137085 38034.957031 
576.950989 67312.328125 
581.423096 60091.648438 
610.949463 14191.806641 
651.131897 71831.609375 
661.547729 63498.8125 
681.332275 14614.866211 
692.947327 66172.195312 
705.862671 14587.555664 
747.004822 12352.62793 
755.998962 14466.709961 
767.403931 13006.84375 
775.524536 62831.652344 
858.207581 13527.679688 
869.814087 15831.844727 
884.028076 61529.398438 
957.090637 15205.477539 
961.824402 68079.109375 
966.560303 50181.074219 
969.445068 17094.84375 
1003.12616 68929.882812 
1013.73761 90966.4375 
1025.932129 81560.484375 
1038.560669 15034.571289 
1128.477051 43761.617188 
1131.51123 25089.039062 
END IONS

BEGIN IONS
RTINSECONDS=241.585999
CHARGE=1+
MSLEVEL=2
SMILES=Oc1c(C(=O)Oc2cc(O)c(C(=O)O)c(CC(=O)CCC)c2)c(CC(=O)CCC)cc(OC)c1
INCHI=InChI=1S/C25H28O9/c1-4-6-16(26)8-14-11-19(13-20(28)22(14)24(30)31)34-25(32)23-15(9-17(27)7-5-2)10-18(33-3)12-21(23)29/h10-13,28-29H,4-9H2,1-3H3,(H,30,31)
INCHIKEY=QZZMDINWSWWNKM-UHFFFAOYSA-N
CLASS=Depsides (Didepsides)
ADDUCT=[M+K]+
INSTRUMENT=Thermo Q-Exactive Focus
PRECURSOR_MZ=511.137
COMPOUND_NAME=Glomellic acid
ION_MODE=positive
FORMULA=C25H28O9
70.953194 9562.688477 
86.915359 8511.958984 
91.968102 19034.3125 
92.369095 8998.793945 
106.679657 8585.208984 
119.945351 8668.751953 
164.08876 9956.946289 
182.455643 5458.599121 
197.941086 6413.017578 
213.684128 8402.979492 
259.036896 24166.970703 
273.052307 320318.21875 
273.080078 17356.945312 
277.047546 63032.0625 
280.268311 7471.04248 
291.062988 17265.662109 
344.328918 7100.95459 
354.527008 8316.668945 
370.143188 6353.562012 
396.751617 5464.626953 
434.728729 6336.996582 
437.694153 6082.34375 
471.844849 8621.266602 
538.534363 8638.118164 
END IONS

BEGIN IONS
RTINSECONDS=124.903999
CHARGE=1+
MSLEVEL=2
SMILES=Cc1cc(=O)c2c(cc3c(C(=CC(=O)C3=O)OC)c2OC)o1
INCHI=InChI=1S/C16H12O6/c1-7-4-9(17)14-12(22-7)5-8-13(16(14)21-3)11(20-2)6-10(18)15(8)19/h4-6H,1-3H3
INCHIKEY=GESAVORGYOGKOW-UHFFFAOYSA-N
CLASS=Quinones
ADDUCT=[2M+H]+
INSTRUMENT=Thermo Q-Exactive Focus
PRECURSOR_MZ=601.1346
COMPOUND_NAME=Canarione dimethylether
ION_MODE=positive
FORMULA=C16H12O6
53.157574 6004.074219 
56.070915 6184.454102 
59.093426 5944.81543 
63.76767 6552.059082 
70.188248 6664.099609 
91.964264 14801.688477 
134.824402 6753.87793 
161.505768 7408.265137 
229.049438 26362.390625 
258.052368 26893.230469 
273.074402 104586.960938 
286.045715 47801.878906 
301.069641 639549.25 
302.07843 24282.767578 
329.986969 7159.349121 
347.881836 7009.611816 
516.560059 6941.715332 
END IONS

BEGIN IONS
RTINSECONDS=397.830994
CHARGE=1+
MSLEVEL=2
SMILES=CC1(C)[C@@H](O)CC[C@]2(C)[C@H]3CC[C@@H]4[C@@H]([C@@]5(C)O[C@H](CC5)C(C)(OC(=O)C)C)CC[C@@]4(C)[C@]3(C)CCC12
INCHI=InChI=1S/C32H54O4/c1-20(33)35-28(4,5)26-15-19-32(9,36-26)22-12-17-30(7)21(22)10-11-24-29(6)16-14-25(34)27(2,3)23(29)13-18-31(24,30)8/h21-26,34H,10-19H2,1-9H3/t21-,22+,23?,24-,25+,26-,29+,30-,31-,32+/m1/s1
INCHIKEY=KLFGJICTDRFLDB-VJNLAODGSA-N
CLASS=Terpenoids : Triterpenes
ADDUCT=[M+H]+
INSTRUMENT=Thermo Q-Exactive Focus
PRECURSOR_MZ=503.41
COMPOUND_NAME="25-Acetoxy-3b-hydroxy-20(S),24(R)-epoxydammarane"
ION_MODE=positive
FORMULA=C32H54O4
81.070641 647418.625 
95.086121 1624365.25 
107.085983 1021189.1875 
109.101837 1400378.5 
119.085838 906652.25 
121.101486 1403698.375 
135.117065 967532.875 
161.132553 719373.75 
189.164154 721870.1875 
191.179535 2522367.25 
203.179993 585699.125 
217.195404 1058380.875 
277.216827 226700.078125 
293.210999 89059.601562 
295.227081 81283.898438 
407.367523 408723.8125 
425.377777 216312.15625 
467.38858 696368.125 
485.399109 1147083.75 
END IONS

BEGIN IONS
RTINSECONDS=290.834991
CHARGE=1+
MSLEVEL=2
SMILES=O=C1c2c(C)c(Cl)c(OC)cc2Oc2c(O1)c(c(c(c2C)Cl)OC)Cl
INCHI=InChI=1S/C17H13Cl3O5/c1-6-10-8(5-9(22-3)11(6)18)24-14-7(2)12(19)15(23-4)13(20)16(14)25-17(10)21/h5H,1-4H3
INCHIKEY=HEZSUFJPGFDKIG-UHFFFAOYSA-N
CLASS=Depsidones
ADDUCT=[M+H+CH3OH]+
INSTRUMENT=Thermo Q-Exactive Focus
PRECURSOR_MZ=435.0169
COMPOUND_NAME=3-Dechloro-4-O-methyldiploicin
ION_MODE=positive
FORMULA=C17H13Cl3O5
50.135677 3692.306396 
53.943867 7202.996094 
69.283478 187315.140625 
113.0158 34602.261719 
115.855804 37519.832031 
142.018051 328860.09375 
169.005249 2857253.0 
170.013123 701741.125 
176.987 2105605.75 
198.007904 2383675.5 
204.982117 989478.25 
216.018555 1046223.625 
230.033798 1449534.375 
247.052567 911430.125 
276.055389 834520.3125 
309.00769 557354.1875 
311.02359 1900854.625 
324.031281 531921.625 
339.018433 1969163.625 
360.979645 386083.8125 
367.013702 1473979.875 
402.990204 12896965.0 
END IONS

BEGIN IONS
RTINSECONDS=333.903992
CHARGE=1+
MSLEVEL=2
SMILES=CCCCCCCCCCCCC[C@H]1[C@H]([C@H](C(=O)O1)C)C(=O)O
INCHI=InChI=1S/C19H34O4/c1-3-4-5-6-7-8-9-10-11-12-13-14-16-17(18(20)21)15(2)19(22)23-16/h15-17H,3-14H2,1-2H3,(H,20,21)/t15-,16+,17+/m1/s1
INCHIKEY=WLGALFYTFVOQPY-IKGGRYGDSA-N
CLASS=Paraconic acids
ADDUCT=[M+H]+
INSTRUMENT=Thermo Q-Exactive Focus
PRECURSOR_MZ=327.2535
COMPOUND_NAME=Nephromopsic acid
ION_MODE=positive
FORMULA=C19H34O4
67.055031 739759.25 
69.070732 695943.5 
81.070671 1741639.25 
83.086304 681952.8125 
95.086067 1357303.0 
109.101624 673929.5625 
133.101151 558979.5 
147.116867 475138.28125 
175.148666 202892.953125 
179.107239 229560.015625 
207.211441 360843.8125 
217.195816 412629.34375 
245.226654 978764.625 
263.23703 953870.75 
273.221771 108637.851562 
281.246796 153304.78125 
291.23172 890211.625 
309.242065 572769.375 
END IONS

BEGIN IONS
RTINSECONDS=123.960999
CHARGE=1+
MSLEVEL=2
SMILES=c1ccc(cc1)C1=C(C(=O)C(=C(C1=O)O)c1ccccc1)O
INCHI=InChI=1S/C18H12O4/c19-15-13(11-7-3-1-4-8-11)16(20)18(22)14(17(15)21)12-9-5-2-6-10-12/h1-10,19,22H
INCHIKEY=HZKFHDXTSAYOSN-UHFFFAOYSA-N
CLASS=Quinones
ADDUCT=[M+H+HCOOH]+
INSTRUMENT=Thermo Q-Exactive Focus
PRECURSOR_MZ=339.0869
COMPOUND_NAME=Polyporic acid
ION_MODE=positive
FORMULA=C18H12O4
66.266098 3842.446533 
90.517235 5312.034668 
91.054848 2504.886475 
103.959526 5743.577148 
128.280334 5120.98877 
161.022919 8701.878906 
162.027237 4940.834961 
173.023697 11907.095703 
203.033661 51968.027344 
205.065247 14550.199219 
221.044052 16756.269531 
233.059311 25789.457031 
261.054474 149955.890625 
265.085938 6413.742676 
289.049438 16178.55957 
307.06015 7484.70459 
321.075623 36740.203125 
END IONS

BEGIN IONS
RTINSECONDS=105.511002
CHARGE=1+
MSLEVEL=2
SMILES=O=C(O)c1c(C)c(Cl)c(O)cc1O
INCHI=InChI=1S/C8H7ClO4/c1-3-6(8(12)13)4(10)2-5(11)7(3)9/h2,10-11H,1H3,(H,12,13)
INCHIKEY=GZQRFGTYUAPOOM-UHFFFAOYSA-N
CLASS=Cleavage Products of Depsides and Depsidones
ADDUCT=[M+H]+
INSTRUMENT=Thermo Q-Exactive Focus
PRECURSOR_MZ=203.0111
COMPOUND_NAME=5-Chloroorsellinic acid
ION_MODE=positive
FORMULA=C8H7ClO4
65.040207 34195.894531 
65.716599 6966.191406 
93.03389 7314.637207 
101.015884 16899.921875 
115.106712 8259.62207 
121.02916 7269.294434 
129.010193 25459.548828 
157.005142 12722.166992 
173.492218 7350.546875 
185.000183 2134412.25 
END IONS

BEGIN IONS
RTINSECONDS=313.243011
CHARGE=1+
MSLEVEL=2
SMILES=OC(=O)c1c(OC)cc(cc1CCCCC)OC(=O)c1c(CCCCC)cc(OC)cc1OC
INCHI=InChI=1S/C27H36O7/c1-6-8-10-12-18-15-21(17-22(32-4)24(18)26(28)29)34-27(30)25-19(13-11-9-7-2)14-20(31-3)16-23(25)33-5/h14-17H,6-13H2,1-5H3,(H,28,29)
INCHIKEY=FNJKTDQIJKLZGZ-UHFFFAOYSA-N
CLASS=Depsides (Didepsides)
ADDUCT=[M+H]+
INSTRUMENT=Thermo Q-Exactive Focus
PRECURSOR_MZ=473.2539
COMPOUND_NAME=Planaic acid
ION_MODE=positive
FORMULA=C27H36O7
51.638607 245274.5625 
59.050003 58647.015625 
70.61058 28552.574219 
121.064873 2599555.25 
151.075241 17662608.0 
162.067398 7997620.0 
177.090378 11734012.0 
192.077606 12420760.0 
217.122345 13028164.0 
235.132446 283737024.0 
236.135925 33306586.0 
END IONS

BEGIN IONS
RTINSECONDS=222.733994
CHARGE=1+
MSLEVEL=2
SMILES=Cc1cc(O)c2c(C(=O)c3cc(O)cc(O)c3C2=O)c1
INCHI=InChI=1S/C15H10O5/c1-6-2-8-12(10(17)3-6)15(20)13-9(14(8)19)4-7(16)5-11(13)18/h2-5,16-18H,1H3
INCHIKEY=RHMXXJGYXNZAPX-UHFFFAOYSA-N
CLASS=Quinones
ADDUCT=[M+H]+
INSTRUMENT=Thermo Q-Exactive Focus
PRECURSOR_MZ=271.0606
COMPOUND_NAME=Emodin
ION_MODE=positive
FORMULA=C15H10O5
65.039497 49190.871094 
91.054718 53372.054688 
91.96669 66689.023438 
95.013367 136097.078125 
135.044754 66865.421875 
141.070557 82857.882812 
169.065308 102300.34375 
173.060059 179093.546875 
197.059357 508437.71875 
201.055191 675313.0 
225.055161 315197.125 
229.049881 1317617.75 
243.067368 55617.652344 
253.04985 47279.097656 
END IONS

BEGIN IONS
RTINSECONDS=261.231995
CHARGE=1+
MSLEVEL=2
SMILES=O=C1c2c(CC(=O)CCCCC)cc(OC)c(O)c2Oc2c(O1)cc(c(c2CCCCC)C(=O)O)O
INCHI=InChI=1S/C27H32O9/c1-4-6-8-10-16(28)12-15-13-19(34-3)23(30)25-21(15)27(33)35-20-14-18(29)22(26(31)32)17(24(20)36-25)11-9-7-5-2/h13-14,29-30H,4-12H2,1-3H3,(H,31,32)
INCHIKEY=YFNNJORBJZUGCV-UHFFFAOYSA-N
CLASS=Depsidones
ADDUCT=[2M+H]+
INSTRUMENT=Thermo Q-Exactive Focus
PRECURSOR_MZ=1001.4171
COMPOUND_NAME=Lividic acid
ION_MODE=positive
FORMULA=C27H32O9
71.086273 89899.65625 
79.487587 17535.283203 
91.968475 24352.060547 
99.08078 37732.496094 
107.3592 19443.771484 
135.079849 19280.042969 
153.054916 23118.890625 
177.091141 59312.308594 
185.514664 19607.099609 
193.049484 43133.851562 
205.086426 25855.505859 
233.080307 122149.46875 
271.097046 58895.101562 
277.106689 168189.9375 
287.054718 94763.3125 
289.069946 73842.554688 
331.153442 96000.648438 
342.109192 214855.4375 
343.117401 74999.125 
387.143188 199315.390625 
387.21637 98645.40625 
413.122589 424583.875 
415.210785 212807.09375 
439.209747 29808.685547 
441.190277 2016398.5 
457.221802 190463.234375 
483.201202 300733.5625 
501.21109 1494461.125 
514.165466 18142.238281 
627.269836 11279.349609 
END IONS

BEGIN IONS
RTINSECONDS=280.062012
CHARGE=1+
MSLEVEL=2
SMILES=O=C(OC)/C(=C\1/OC(=O)C(=C1O)c1ccccc1)/c1c(OC)cccc1
INCHI=InChI=1S/C20H16O6/c1-24-14-11-7-6-10-13(14)16(19(22)25-2)18-17(21)15(20(23)26-18)12-8-4-3-5-9-12/h3-11,21H,1-2H3/b18-16+
INCHIKEY=IWYVMUDIEOXASM-FBMGVBCBSA-N
CLASS=Pulvinic Acid Derivatives
ADDUCT=[2M+NH4]+
INSTRUMENT=Thermo Q-Exactive Focus
PRECURSOR_MZ=722.2238
COMPOUND_NAME=Leprapinic acid
ION_MODE=positive
FORMULA=C20H16O6
53.38327 77332.421875 
60.587852 66022.984375 
70.778511 76922.007812 
91.054588 830622.4375 
117.034035 125945.4375 
119.049179 4626685.0 
145.027954 695074.375 
147.043793 6629775.0 
175.038635 3953741.25 
191.085831 81925.539062 
194.072571 106965.890625 
209.095718 61315.769531 
237.090515 1417259.0 
247.074738 140533.46875 
265.085175 1519775.875 
278.057343 272687.8125 
293.045044 118738.195312 
293.080109 6193577.0 
321.075073 6525353.5 
345.671112 72863.789062 
353.101196 5384543.5 
353.145203 152222.671875 
386.074463 61732.328125 
390.44339 88349.914062 
447.349396 92328.710938 
455.550354 8647.570312 
467.830231 10350.645508 
495.998016 25459.548828 
511.324402 9347.761719 
598.420227 68518.851562 
END IONS

BEGIN IONS
RTINSECONDS=135.145004
CHARGE=1+
MSLEVEL=2
SMILES=Cc1cc(O)cc(O)c1C(=O)Oc1cc(O)c(C(=O)OC[C@@H](O)[C@@H](O)CO)c(C)c1
INCHI=InChI=1S/C20H22O10/c1-9-3-11(22)5-13(23)18(9)20(28)30-12-4-10(2)17(14(24)6-12)19(27)29-8-16(26)15(25)7-21/h3-6,15-16,21-26H,7-8H2,1-2H3/t15-,16+/m0/s1
INCHIKEY=BUBBEHCXSMCYNY-JKSUJKDBSA-N
CLASS=Depsides (Didepsides)
ADDUCT=[M+Na]+
INSTRUMENT=Thermo Q-Exactive Focus
PRECURSOR_MZ=445.1111
COMPOUND_NAME=Erythrin
ION_MODE=positive
FORMULA=C20H22O10
50.663864 17872.865234 
55.677017 22956.984375 
63.316906 21358.283203 
76.225143 21779.398438 
91.966705 24251.175781 
101.865112 24250.666016 
145.047272 2657985.0 
155.884338 11639.871094 
164.709045 10653.289062 
173.021103 1291188.25 
185.612 24815.21875 
191.032211 12660.243164 
221.418564 10506.566406 
242.042862 25031.992188 
256.028259 11641.805664 
295.078949 1811239.75 
314.584137 6372.164551 
337.379822 26179.962891 
386.137421 4482.592773 
392.089417 12459.547852 
398.999115 14670.774414 
406.249939 6520.969238 
468.809692 2925.490234 
END IONS

BEGIN IONS
RTINSECONDS=149.630005
CHARGE=1+
MSLEVEL=2
SMILES=c1c(cc2c(c1O)C(=O)c1c(cc(cc1C2=O)O)O)CO
INCHI=InChI=1S/C15H10O6/c16-5-6-1-8-12(10(18)2-6)15(21)13-9(14(8)20)3-7(17)4-11(13)19/h1-4,16-19H,5H2
INCHIKEY=YQHZABGPIPECSQ-UHFFFAOYSA-N
CLASS=Quinones
ADDUCT=[M+H]+
INSTRUMENT=Thermo Q-Exactive Focus
PRECURSOR_MZ=287.0556
COMPOUND_NAME=Citreorosein
ION_MODE=positive
FORMULA=C15H10O6
50.062183 10088.003906 
56.470242 12601.043945 
76.925186 10810.029297 
102.08638 13338.737305 
109.81076 13449.00293 
118.85054 12176.625 
160.738663 12562.167969 
172.824783 13095.015625 
187.039032 26448.947266 
199.038788 37677.226562 
213.054443 74352.820312 
215.033905 69484.765625 
241.049286 520558.78125 
257.044281 191582.265625 
269.04422 358340.53125 
END IONS

BEGIN IONS
RTINSECONDS=257.274994
CHARGE=1+
MSLEVEL=2
SMILES=CC(=O)CCCCCCCCCCCCC[C@H]1[C@H](C(C)C(=O)O1)C(=O)O
INCHI=InChI=1S/C21H36O5/c1-16(22)14-12-10-8-6-4-3-5-7-9-11-13-15-18-19(20(23)24)17(2)21(25)26-18/h17-19H,3-15H2,1-2H3,(H,23,24)/t17?,18-,19-/m0/s1
INCHIKEY=SPGPUDJMXMJNCU-MNNMKWMVSA-N
CLASS=Paraconic acids
ADDUCT=[M+H]+
INSTRUMENT=Thermo Q-Exactive Focus
PRECURSOR_MZ=369.2641
COMPOUND_NAME=Dihydropertusaric
ION_MODE=positive
FORMULA=C21H36O5
67.054794 13397600.0 
81.07032 31158556.0 
83.085815 10737164.0 
95.085648 38655516.0 
109.101379 22569124.0 
121.101021 10377161.0 
123.116585 9308867.0 
135.116226 8979878.0 
221.225479 2236927.75 
277.251831 8596383.0 
287.236725 5929028.0 
305.246246 27305012.0 
323.25766 6250276.0 
333.240601 13888438.0 
351.251709 17110774.0 
END IONS

BEGIN IONS
RTINSECONDS=402.218994
CHARGE=1+
MSLEVEL=2
SMILES=CC1(C)[C@@H](OC(=O)C)C[C@H](OC(=O)C)[C@]2(C)[C@H]3CC[C@@H]4[C@@]5(C)CC[C@H](C(C)(O)C)[C@@H]5CC[C@@]4(C)[C@]3(C)CCC12
INCHI=InChI=1S/C34H56O5/c1-20(35)38-27-19-28(39-21(2)36)34(10)24(29(27,3)4)15-18-33(9)26(34)12-11-25-31(7)16-13-22(30(5,6)37)23(31)14-17-32(25,33)8/h22-28,37H,11-19H2,1-10H3/t22-,23-,24?,25+,26-,27-,28-,31-,32+,33+,34-/m0/s1
INCHIKEY=HIGXRAWIRQTPEC-ZQLPSASCSA-N
CLASS=Terpenoids : Triterpenes
ADDUCT=[2M+NH4]+
INSTRUMENT=Thermo Q-Exactive Focus
PRECURSOR_MZ=1106.8599
COMPOUND_NAME="1alpa,3beta-diacetoxy-22-hopanol"
ION_MODE=positive
FORMULA=C34H56O5
81.070778 2684448.5 
95.086426 5869949.0 
107.086334 3439053.0 
109.101822 4283790.0 
121.10173 4482024.5 
135.117401 4333479.5 
149.133347 4710371.5 
189.164154 2878833.25 
191.180405 2616622.75 
203.179962 3660658.5 
217.195709 4344882.0 
257.227417 715643.375 
269.227539 622645.1875 
271.243164 472870.375 
283.24292 370731.09375 
337.290802 279124.6875 
341.370911 143848.484375 
351.306366 128861.375 
365.32254 130378.398438 
367.33667 1945162.0 
374.026978 170276.046875 
407.368256 13330776.0 
425.378662 1641403.75 
443.391541 22342.113281 
467.390198 1754318.5 
475.177734 110575.945312 
484.416656 209334.3125 
518.541626 111204.40625 
527.410522 1908399.125 
544.437866 1663243.875 
562.359802 9765.135742 
562.447998 19744086.0 
609.955017 36180.730469 
652.95282 19236.929688 
697.244141 97784.007812 
721.78949 21217.738281 
721.978943 159992.578125 
727.250732 20545.716797 
744.128784 88152.820312 
811.728516 37306.75 
855.306458 7712.625488 
876.225342 18529.65625 
914.435242 19373.386719 
926.023621 115453.585938 
935.369629 38473.917969 
963.102478 22622.289062 
1125.573242 6424.70752 
1127.703125 9415.145508 
END IONS

BEGIN IONS
RTINSECONDS=259.003998
CHARGE=1+
MSLEVEL=2
SMILES=C[C@H](O)CCCCCCCCCCCCC[C@@H]1C(C(=O)O)C(=C)C(=O)O1
INCHI=InChI=1S/C21H36O5/c1-16(22)14-12-10-8-6-4-3-5-7-9-11-13-15-18-19(20(23)24)17(2)21(25)26-18/h16,18-19,22H,2-15H2,1H3,(H,23,24)/t16-,18+,19?/m0/s1
INCHIKEY=UYUDMGMNHAKPEV-CXEJCQMISA-N
CLASS=Paraconic acids
ADDUCT=[M+NH4]+
INSTRUMENT=Thermo Q-Exactive Focus
PRECURSOR_MZ=386.2906
COMPOUND_NAME=Murolic acid
ION_MODE=positive
FORMULA=C21H36O5
67.05513 454806.0625 
69.070908 618031.5 
81.070587 817633.0625 
83.08625 579149.6875 
95.086136 1237339.75 
109.101646 770062.3125 
123.117188 520102.71875 
137.132751 411538.34375 
151.148636 390595.375 
165.16423 406808.4375 
217.123047 185499.0 
221.226562 1290883.75 
253.143387 237147.421875 
277.252533 292436.1875 
281.175201 186073.25 
305.24762 767841.9375 
315.232025 351106.40625 
333.24231 376546.125 
351.252899 922784.0 
369.26355 1923440.125 
406.393311 5530.627441 
END IONS

BEGIN IONS
RTINSECONDS=273.942993
CHARGE=1+
MSLEVEL=2
SMILES=CC(=O)CCCCCCCCCCCCC[C@@H]1C(C(C)C(=O)O1)C(=O)O
INCHI=InChI=1S/C21H36O5/c1-16(22)14-12-10-8-6-4-3-5-7-9-11-13-15-18-19(20(23)24)17(2)21(25)26-18/h17-19H,3-15H2,1-2H3,(H,23,24)/t17?,18-,19?/m1/s1
INCHIKEY=SPGPUDJMXMJNCU-JLAWEPINSA-N
CLASS=Paraconic acids
ADDUCT=[M+H]+
INSTRUMENT=Thermo Q-Exactive Focus
PRECURSOR_MZ=369.2641
COMPOUND_NAME=Dihydromuronic acid
ION_MODE=positive
FORMULA=C21H36O5
67.055283 18895758.0 
81.070793 31464178.0 
83.086479 13837038.0 
93.07077 12655642.0 
95.086456 49029028.0 
109.101807 25859906.0 
149.131424 7769012.0 
259.208588 1165902.625 
259.240875 239816.140625 
261.258209 1453841.625 
277.253448 9657916.0 
287.238129 4175463.25 
305.248016 25021106.0 
333.242889 8067133.5 
351.253387 14278037.0 
END IONS

BEGIN IONS
RTINSECONDS=285.56601
CHARGE=1+
MSLEVEL=2
SMILES=Oc1c(C(=O)Oc2c(OC)cc(c(C(=O)O)c2O)CCC)c(CCC)cc(OC)c1
INCHI=InChI=1S/C22H26O8/c1-5-7-12-9-14(28-3)11-15(23)17(12)22(27)30-20-16(29-4)10-13(8-6-2)18(19(20)24)21(25)26/h9-11,23-24H,5-8H2,1-4H3,(H,25,26)
INCHIKEY=CPHXGYQLOSNELY-UHFFFAOYSA-N
CLASS=Depsides (Didepsides)
ADDUCT=[M+H]+
INSTRUMENT=Thermo Q-Exactive Focus
PRECURSOR_MZ=419.1706
COMPOUND_NAME=Sekikaic acid
ION_MODE=positive
FORMULA=C22H26O8
73.887917 81991.6875 
74.066727 74654.234375 
91.969994 141858.453125 
105.070267 195324.453125 
137.059784 293632.28125 
137.096481 258971.421875 
151.039215 597833.375 
165.091187 356478.34375 
175.0755 895016.125 
193.086136 8859930.0 
209.081482 2939588.5 
211.096756 2220076.0 
248.197006 84004.445312 
249.433029 9358.095703 
295.826111 44965.546875 
301.938812 43149.957031 
327.87146 48168.246094 
347.173828 10376.976562 
352.983734 92271.460938 
371.696564 44827.699219 
390.259155 41705.773438 
401.160065 1371492.625 
442.901978 83760.078125 
END IONS

BEGIN IONS
RTINSECONDS=310.277008
CHARGE=1+
MSLEVEL=2
SMILES=O=C(O)C(CCCCCCCCCCCC)C(C)C(=O)O
INCHI=InChI=1S/C17H32O4/c1-3-4-5-6-7-8-9-10-11-12-13-15(17(20)21)14(2)16(18)19/h14-15H,3-13H2,1-2H3,(H,18,19)(H,20,21)
INCHIKEY=CADNMISJDLVPCK-UHFFFAOYSA-N
CLASS=Acids
ADDUCT=[M+NH4]+
INSTRUMENT=Thermo Q-Exactive Focus
PRECURSOR_MZ=318.2644
COMPOUND_NAME=Roccellic acid
ION_MODE=positive
FORMULA=C17H32O4
57.069977 118355.132812 
69.069618 265369.59375 
83.084976 219202.078125 
95.084694 78229.453125 
97.100311 165637.40625 
111.079178 88739.328125 
135.115082 64329.15625 
149.130249 61526.386719 
163.145752 58513.359375 
219.207367 180803.40625 
237.217911 201110.015625 
250.541885 11898.335938 
255.228012 40780.925781 
283.222504 609247.25 
301.233826 22780.40625 
END IONS

BEGIN IONS
RTINSECONDS=292.194
CHARGE=1+
MSLEVEL=2
SMILES=CCCCCc1cc(cc(c1C(=O)O)OC)OC(=O)c1c(cc(cc1CC(=O)CCCCC)OC)O
INCHI=InChI=1S/C28H36O8/c1-5-7-9-11-18-14-22(17-24(35-4)26(18)27(31)32)36-28(33)25-19(13-20(29)12-10-8-6-2)15-21(34-3)16-23(25)30/h14-17,30H,5-13H2,1-4H3,(H,31,32)
INCHIKEY=UANVCGQMNRTKGM-UHFFFAOYSA-N
CLASS=Depsides (Didepsides)
ADDUCT=[2M+Na]+
INSTRUMENT=Thermo Q-Exactive Focus
PRECURSOR_MZ=1023.4718
COMPOUND_NAME=Confluentic acid
ION_MODE=positive
FORMULA=C28H36O8
72.066254 62389.464844 
91.96347 165571.40625 
102.847954 62888.570312 
108.352699 62923.355469 
114.4132 62545.128906 
126.683388 65613.132812 
152.694717 67876.125 
191.438461 68322.367188 
193.775925 70852.078125 
243.099335 6691991.5 
257.115204 163332.734375 
259.130463 711667.5 
261.109863 2342984.0 
285.109863 11529796.0 
303.120422 2517742.5 
314.153534 76558.015625 
344.422577 73016.234375 
371.407471 5244.623535 
427.713257 85549.828125 
435.514496 22765.144531 
436.480591 45338.414062 
523.230774 2726464.5 
526.226868 4483.444336 
537.960999 4896.004395 
541.23761 44809.511719 
628.587952 25055.898438 
723.321594 46916.722656 
745.862854 50151.148438 
889.02655 28197.292969 
898.089966 60082.894531 
992.158447 31828.189453 
END IONS

BEGIN IONS
RTINSECONDS=332.993011
CHARGE=1+
MSLEVEL=2
SMILES=O=C(O)C[C@@H]([C@H](CCCCCCCCCCCCCC)C(=O)O)C(=O)OC
INCHI=InChI=1S/C21H38O6/c1-3-4-5-6-7-8-9-10-11-12-13-14-15-17(20(24)25)18(16-19(22)23)21(26)27-2/h17-18H,3-16H2,1-2H3,(H,22,23)(H,24,25)/t17-,18-/m0/s1
INCHIKEY=MZWQZYDNVSKPPF-ROUUACIJSA-N
CLASS=Acids
ADDUCT=[M+H]+
INSTRUMENT=Thermo Q-Exactive Focus
PRECURSOR_MZ=387.2747
COMPOUND_NAME=Isorangiformic acid
ION_MODE=positive
FORMULA=C21H38O6
67.055122 1866818.5 
69.07074 3014569.75 
81.070587 3508747.25 
83.08622 2733981.5 
95.086197 3101086.0 
119.085754 2555839.75 
133.101364 2868315.75 
147.117081 1336498.25 
165.091156 1246445.0 
179.106934 909086.625 
219.211273 553030.9375 
231.211502 664787.1875 
245.22644 2000876.75 
263.237793 721536.8125 
291.23233 1536972.875 
301.216309 948081.6875 
309.243347 848453.4375 
319.226807 1493618.75 
337.237549 1281775.25 
355.24765 4522470.5 
369.263123 3898319.0 
END IONS

BEGIN IONS
RTINSECONDS=222.513
CHARGE=1+
MSLEVEL=2
SMILES=O=C(Oc1c(O)cc(CCCCC)c(C(=O)O)c1O)c1c(CCC)cc(OC)cc1OC
INCHI=InChI=1S/C24H30O8/c1-5-7-8-10-15-12-17(25)22(21(26)20(15)23(27)28)32-24(29)19-14(9-6-2)11-16(30-3)13-18(19)31-4/h11-13,25-26H,5-10H2,1-4H3,(H,27,28)
INCHIKEY=AAKHGLJWUOZNTQ-UHFFFAOYSA-N
CLASS=Depsides (Didepsides)
ADDUCT=[M+K]+
INSTRUMENT=Thermo Q-Exactive Focus
PRECURSOR_MZ=485.1578
COMPOUND_NAME=Merochlorophaeic acid
ION_MODE=positive
FORMULA=C24H30O8
56.01548 6306.430664 
91.962723 12241.141602 
97.058998 7730.476074 
99.29776 7399.536621 
112.117035 6353.425781 
137.685287 7263.839844 
143.053818 6603.820801 
167.166168 6984.131348 
177.003922 6663.877441 
207.101929 110016.046875 
231.835159 6599.458008 
243.513916 6417.870605 
255.233566 6578.716797 
263.068695 21296.140625 
263.751984 6932.110352 
320.046021 6370.054688 
345.383148 5996.120117 
349.443054 5660.726074 
380.25528 6337.025391 
382.993103 7170.749512 
390.513733 7065.119141 
401.211182 5994.605469 
452.793213 6660.324707 
467.146973 109501.453125 
END IONS

BEGIN IONS
RTINSECONDS=256.52301
CHARGE=1+
MSLEVEL=2
SMILES=C[C@H](O)CCCCCCCCCCCCC[C@@H]1C(C(=O)O)C(=C)C(=O)O1
INCHI=InChI=1S/C21H36O5/c1-16(22)14-12-10-8-6-4-3-5-7-9-11-13-15-18-19(20(23)24)17(2)21(25)26-18/h16,18-19,22H,2-15H2,1H3,(H,23,24)/t16-,18+,19?/m0/s1
INCHIKEY=UYUDMGMNHAKPEV-CXEJCQMISA-N
CLASS=Paraconic acids
ADDUCT=[M+H+CH3OH]+
INSTRUMENT=Thermo Q-Exactive Focus
PRECURSOR_MZ=401.2903
COMPOUND_NAME=Murolic acid
ION_MODE=positive
FORMULA=C21H36O5
67.055038 73388.765625 
69.070763 89376.476562 
81.070587 124112.15625 
83.086281 75298.65625 
95.086075 126993.59375 
109.101715 77342.4375 
119.086136 54924.667969 
121.101494 70518.414062 
207.102234 20331.033203 
221.227112 32680.027344 
243.210785 21454.753906 
259.243378 25565.685547 
275.237366 52949.339844 
287.237122 30752.445312 
313.200287 25199.529297 
315.233063 54245.636719 
333.242218 96813.695312 
347.258392 48687.695312 
365.27002 60896.710938 
383.2789 89296.914062 
END IONS

BEGIN IONS
RTINSECONDS=314.294006
CHARGE=1+
MSLEVEL=2
SMILES=O=C1C(=C(O)/C(=C(/c2ccccc2)\C(=O)N[C@@H](Cc2ccccc2)C(=O)OC)/O1)c1ccccc1
INCHI=InChI=1S/C28H23NO6/c1-34-27(32)21(17-18-11-5-2-6-12-18)29-26(31)23(20-15-9-4-10-16-20)25-24(30)22(28(33)35-25)19-13-7-3-8-14-19/h2-16,21,30H,17H2,1H3,(H,29,31)/b25-23+/t21-/m0/s1
INCHIKEY=DKDGWAKCXBFTMM-KZKMBZSSSA-N
CLASS=Pulvinic Acid Derivatives
ADDUCT=[2M+H]+
INSTRUMENT=Thermo Q-Exactive Focus
PRECURSOR_MZ=939.3129
COMPOUND_NAME=Rhizocarpic acid
ION_MODE=positive
FORMULA=C28H23NO6
68.088631 22282.072266 
88.13884 26076.941406 
91.964958 46289.222656 
103.054756 104195.382812 
120.081078 4507536.0 
121.065109 182694.03125 
163.07547 191585.125 
179.08551 95529.15625 
180.101974 3486420.0 
207.080536 995573.125 
217.064651 63813.75 
235.075394 688151.5 
245.059753 45457.886719 
263.070251 1465357.75 
285.709656 24796.068359 
291.065033 222841.5625 
325.770172 12736.708984 
343.690857 25554.113281 
344.091644 11353.798828 
355.80484 24603.001953 
387.273956 24019.541016 
415.590607 13721.347656 
438.132202 26931.330078 
470.160156 1949940.0 
510.63562 13493.145508 
521.963135 22235.179688 
621.370972 26717.15625 
626.447571 14707.817383 
662.423767 14671.524414 
695.659912 13167.44043 
920.256653 10654.857422 
END IONS

BEGIN IONS
RTINSECONDS=214.475006
CHARGE=1+
MSLEVEL=2
SMILES=Oc1c(Oc2cc(OC)cc3c2C(=O)OC3(O)CCCC)c(CCCCC)c(c(c1)O)C(=O)O
INCHI=InChI=1S/C25H30O9/c1-4-6-8-9-15-20(23(28)29)17(26)13-18(27)22(15)33-19-12-14(32-3)11-16-21(19)24(30)34-25(16,31)10-7-5-2/h11-13,26-27,31H,4-10H2,1-3H3,(H,28,29)
INCHIKEY=BWRBGHBJBQFFAW-UHFFFAOYSA-N
CLASS=Diphenylethers
ADDUCT=[2M+H]+
INSTRUMENT=Thermo Q-Exactive Focus
PRECURSOR_MZ=949.3858
COMPOUND_NAME=Lobariolcarboxylic acid (Lobarin)
ION_MODE=positive
FORMULA=C25H30O9
85.065361 213366.140625 
91.970261 100631.5 
95.085983 35515.527344 
137.023468 164653.703125 
151.0392 42710.058594 
163.038742 43062.902344 
177.090973 85396.617188 
201.090393 37243.320312 
217.085892 36305.167969 
235.096558 142110.28125 
269.117126 101964.796875 
287.12677 307397.25 
343.119476 129262.4375 
343.189667 245636.84375 
356.124573 323338.0 
357.132843 418940.125 
371.184448 775565.1875 
397.163757 3445259.0 
413.195404 1001064.5 
439.174316 450477.0 
457.184814 2588559.75 
458.18869 34772.988281 
475.196167 178203.328125 
622.529236 11744.37793 
725.259399 25411.427734 
726.9552 29953.787109 
850.008972 11312.410156 
982.745972 32427.851562 
END IONS

BEGIN IONS
RTINSECONDS=274.747009
CHARGE=1+
MSLEVEL=2
SMILES=Oc1cc(OC(=O)c2c(O)cc(OC)cc2CCC(=O)CC)cc(CCCCC)c1C(=O)O
INCHI=InChI=1S/C25H30O8/c1-4-6-7-8-15-12-19(14-20(27)22(15)24(29)30)33-25(31)23-16(9-10-17(26)5-2)11-18(32-3)13-21(23)28/h11-14,27-28H,4-10H2,1-3H3,(H,29,30)
INCHIKEY=UCYIOAVHQGSYLP-UHFFFAOYSA-N
CLASS=Depsides (Didepsides)
ADDUCT=[M+H]+
INSTRUMENT=Thermo Q-Exactive Focus
PRECURSOR_MZ=459.2019
COMPOUND_NAME=Miriquidic acid
ION_MODE=positive
FORMULA=C25H30O8
57.034557 1299218.125 
57.743893 71501.007812 
68.725555 46347.167969 
79.419197 75823.414062 
137.060013 221499.015625 
163.075592 249382.734375 
163.112183 316497.28125 
176.083755 300604.59375 
179.070663 436037.84375 
191.106903 12397745.0 
235.096771 11664844.0 
263.429047 23228.029297 
269.53006 13738.379883 
276.689789 63397.605469 
296.072754 72913.085938 
296.229462 95382.773438 
326.489258 82048.21875 
336.031647 47714.605469 
399.176453 10850.242188 
436.835541 12261.038086 
END IONS

BEGIN IONS
RTINSECONDS=241.154999
CHARGE=1+
MSLEVEL=2
SMILES=Oc1c(C(=O)Oc2cc(O)c(C(=O)O)c(CC(=O)CCC)c2)c(CC(=O)CCC)cc(OC)c1
INCHI=InChI=1S/C25H28O9/c1-4-6-16(26)8-14-11-19(13-20(28)22(14)24(30)31)34-25(32)23-15(9-17(27)7-5-2)10-18(33-3)12-21(23)29/h10-13,28-29H,4-9H2,1-3H3,(H,30,31)
INCHIKEY=QZZMDINWSWWNKM-UHFFFAOYSA-N
CLASS=Depsides (Didepsides)
ADDUCT=[2M+Na]+
INSTRUMENT=Thermo Q-Exactive Focus
PRECURSOR_MZ=967.3364
COMPOUND_NAME=Glomellic acid
ION_MODE=positive
FORMULA=C25H28O9
76.668434 73781.234375 
78.550781 53545.0 
85.162842 56887.992188 
104.137329 90148.882812 
104.947281 58465.734375 
112.692719 90376.789062 
150.859787 80798.195312 
154.949875 93716.585938 
172.521027 72169.765625 
184.151871 87315.664062 
217.083572 5234647.5 
231.09935 1826985.0 
243.06279 1771643.5 
257.078339 14951833.0 
261.073303 4380799.0 
275.088806 1920586.25 
339.435455 42963.835938 
341.330597 61835.757812 
366.895996 57923.46875 
389.120453 9587.302734 
405.661072 39400.921875 
462.347961 10769.191406 
474.345428 60580.449219 
495.097321 14147.572266 
495.162628 11454098.0 
584.050476 69719.703125 
598.375427 68255.890625 
638.722656 58489.691406 
638.845703 60875.1875 
642.984741 74411.28125 
643.493225 57057.855469 
694.224182 46544.308594 
694.841492 90223.023438 
706.658447 53795.808594 
719.682251 91343.476562 
736.654114 63409.402344 
767.797241 77569.78125 
783.253357 12150.425781 
796.796936 77174.296875 
889.466675 12111.280273 
934.518188 63828.746094 
947.836243 91693.132812 
1000.765625 58920.90625 
END IONS

BEGIN IONS
RTINSECONDS=111.841003
CHARGE=1+
MSLEVEL=2
SMILES=Cc1cc(c(c2c1C(=O)Oc1c(O2)c2c(c(c1CO)O)C(=O)OC2O)C=O)OC
INCHI=InChI=1S/C19H14O10/c1-6-3-9(26-2)7(4-20)14-10(6)17(23)28-15-8(5-21)13(22)11-12(16(15)27-14)19(25)29-18(11)24/h3-4,19,21-22,25H,5H2,1-2H3
INCHIKEY=FYPCEUKJORJHDL-UHFFFAOYSA-N
CLASS=Depsidones
ADDUCT=[M+H+CH3OH]+
INSTRUMENT=Thermo Q-Exactive Focus
PRECURSOR_MZ=435.0927
COMPOUND_NAME=Constictic acid
ION_MODE=positive
FORMULA=C19H14O10
75.086479 8115.948242 
81.040077 9176.072266 
85.312721 9114.008789 
89.638969 9588.230469 
99.009239 15800.15918 
140.930695 9923.568359 
153.518372 6154.962402 
191.037064 182693.921875 
193.051544 124116.4375 
209.046967 97223.09375 
223.062225 50100.144531 
243.06781 140692.109375 
257.047943 37506.921875 
259.063385 14790.512695 
287.058014 44162.742188 
311.058197 122298.773438 
313.039001 100812.25 
313.073242 14371.931641 
339.053406 451848.53125 
367.04834 49954.007812 
385.05954 171147.015625 
399.075714 35225.855469 
END IONS

BEGIN IONS
RTINSECONDS=214.889008
CHARGE=1+
MSLEVEL=2
SMILES=Oc1c(Oc2cc(OC)cc3c2C(=O)OC3(O)CCCC)c(CCCCC)c(c(c1)O)C(=O)O
INCHI=InChI=1S/C25H30O9/c1-4-6-8-9-15-20(23(28)29)17(26)13-18(27)22(15)33-19-12-14(32-3)11-16-21(19)24(30)34-25(16,31)10-7-5-2/h11-13,26-27,31H,4-10H2,1-3H3,(H,28,29)
INCHIKEY=BWRBGHBJBQFFAW-UHFFFAOYSA-N
CLASS=Diphenylethers
ADDUCT=[M+H]+
INSTRUMENT=Thermo Q-Exactive Focus
PRECURSOR_MZ=475.1968
COMPOUND_NAME=Lobariolcarboxylic acid (Lobarin)
ION_MODE=positive
FORMULA=C25H30O9
56.998268 475503.09375 
57.070728 2159235.5 
58.07402 619177.9375 
85.065353 2438925.5 
86.069077 881509.5625 
109.517204 78464.617188 
137.023178 1111761.875 
151.039474 73290.953125 
177.090958 447523.28125 
191.032761 630106.5625 
235.09642 903839.1875 
269.116638 1308891.375 
270.120209 795065.875 
287.127533 2569790.75 
288.131287 2363366.0 
357.13028 4729644.5 
358.135559 3845045.75 
371.184692 4862973.5 
372.187744 8525343.0 
397.16394 24747510.0 
398.167236 35317564.0 
414.198425 11709171.0 
457.185638 6667185.5 
458.188354 13496919.0 
END IONS

BEGIN IONS
RTINSECONDS=236.414001
CHARGE=1+
MSLEVEL=2
SMILES=O=c1oc(CCCCC)cc2c1c(cc(c2)O)O
INCHI=InChI=1S/C14H16O4/c1-2-3-4-5-11-7-9-6-10(15)8-12(16)13(9)14(17)18-11/h6-8,15-16H,2-5H2,1H3
INCHIKEY=FIMFRMRZGBUYMV-UHFFFAOYSA-N
CLASS=Cleavage Products of Depsides and Depsidones
ADDUCT=[M+H]+
INSTRUMENT=Thermo Q-Exactive Focus
PRECURSOR_MZ=249.1127
COMPOUND_NAME=Olivetonide
ION_MODE=positive
FORMULA=C14H16O4
55.055325 668640.6875 
68.998085 1636871.125 
69.070831 1088106.375 
79.055 1220932.25 
81.070587 978888.4375 
91.055046 915263.9375 
123.044434 1922377.75 
147.044357 3643519.25 
149.060165 2486800.75 
161.060165 5691405.0 
175.039536 4997733.5 
189.055038 2898349.0 
193.049835 5594492.5 
231.101883 5278362.5 
END IONS

BEGIN IONS
RTINSECONDS=122.281998
CHARGE=1+
MSLEVEL=2
SMILES=Cc1cc(c2c(c1)C(=O)c1c(C2=O)c(ccc1)O)O
INCHI=InChI=1S/C15H10O4/c1-7-5-9-13(11(17)6-7)15(19)12-8(14(9)18)3-2-4-10(12)16/h2-6,16-17H,1H3
INCHIKEY=LQGUBLBATBMXHT-UHFFFAOYSA-N
CLASS=Quinones
ADDUCT=[M+H+HCOOH]+
INSTRUMENT=Thermo Q-Exactive Focus
PRECURSOR_MZ=301.0712
COMPOUND_NAME=Chrysophanol
ION_MODE=positive
FORMULA=C15H10O4
56.755188 39826.679688 
57.361462 49869.226562 
59.490299 39573.683594 
62.271687 38411.875 
65.824768 35742.65625 
67.779358 40375.789062 
118.086327 44021.777344 
130.807495 13000.720703 
161.048401 43415.4375 
214.062378 150397.859375 
229.049454 558939.0 
242.057556 191204.046875 
243.065323 239347.21875 
245.080475 201030.359375 
258.052277 472848.03125 
273.075653 1440650.875 
END IONS

BEGIN IONS
RTINSECONDS=266.654999
CHARGE=1+
MSLEVEL=2
SMILES=CC(=O)CCCCCCCCCCCCCC1C(C(=C)C(=O)O1)C(=O)O
INCHI=InChI=1S/C21H34O5/c1-16(22)14-12-10-8-6-4-3-5-7-9-11-13-15-18-19(20(23)24)17(2)21(25)26-18/h18-19H,2-15H2,1H3,(H,23,24)
INCHIKEY=SKQHRBRVCRUFSX-UHFFFAOYSA-N
CLASS=Paraconic acids
ADDUCT=[2M+NH4]+
INSTRUMENT=Thermo Q-Exactive Focus
PRECURSOR_MZ=750.5156
COMPOUND_NAME=Pertusaric acid
ION_MODE=positive
FORMULA=C21H34O5
67.055122 209291.53125 
81.070709 508753.78125 
93.070648 250424.875 
95.086227 694198.0 
109.10183 384528.15625 
121.065239 1272570.125 
121.101555 308565.4375 
135.11705 243324.5 
149.060043 209375.75 
163.075546 200706.859375 
255.231903 340418.5 
275.237 214924.984375 
303.232025 1287933.125 
313.21698 250504.234375 
321.242157 309638.46875 
331.227173 947900.3125 
349.237823 790939.8125 
367.248444 4416146.5 
384.275696 154475.8125 
412.601166 12331.499023 
416.187439 37586.125 
482.101868 12681.004883 
488.81665 11377.15332 
491.866211 32927.453125 
515.829285 31461.158203 
568.100159 38123.125 
621.808899 36517.28125 
660.532715 38261.253906 
END IONS

BEGIN IONS
RTINSECONDS=257.251007
CHARGE=1+
MSLEVEL=2
SMILES=Oc1cc(OC(=O)c2c(O)cc(O)cc2CC(=O)CCCCC)cc(CCCCC)c1C(=O)O
INCHI=InChI=1S/C26H32O8/c1-3-5-7-9-16-13-20(15-22(30)23(16)25(31)32)34-26(33)24-17(12-19(28)14-21(24)29)11-18(27)10-8-6-4-2/h12-15,28-30H,3-11H2,1-2H3,(H,31,32)
INCHIKEY=VZPLPGICHZXOCQ-UHFFFAOYSA-N
CLASS=Depsides (Didepsides)
ADDUCT=[M+H]+
INSTRUMENT=Thermo Q-Exactive Focus
PRECURSOR_MZ=473.2175
COMPOUND_NAME=Olivetoric acid
ION_MODE=positive
FORMULA=C26H32O8
55.055065 352594.0 
67.054901 199787.484375 
68.99794 493590.0625 
69.070671 594267.5625 
95.086098 349059.28125 
123.044159 1895297.5 
149.059708 1854831.125 
161.059555 2220113.5 
203.106384 1995060.5 
207.101349 2831938.25 
221.116943 2057332.25 
225.111923 4989931.5 
231.101334 1501227.625 
249.111771 19235512.0 
265.262512 92812.257812 
299.742462 200896.6875 
305.238861 5988.159668 
366.992584 23524.929688 
375.999603 6763.91748 
382.715149 10774.694336 
413.184753 235192.125 
428.216034 13073.383789 
431.425293 6341.616699 
447.342407 25029.533203 
498.025757 26104.46875 
END IONS

BEGIN IONS
RTINSECONDS=342.368011
CHARGE=1+
MSLEVEL=2
SMILES=CC(C)(C)CCCCCCCCCC1C(C(=O)O)C(C(=O)O1)C
INCHI=InChI=1S/C19H34O4/c1-14-16(17(20)21)15(23-18(14)22)12-10-8-6-5-7-9-11-13-19(2,3)4/h14-16H,5-13H2,1-4H3,(H,20,21)
INCHIKEY=NRFWTRPHJATQOB-UHFFFAOYSA-N
CLASS=Paraconic acids
ADDUCT=[M+H]+
INSTRUMENT=Thermo Q-Exactive Focus
PRECURSOR_MZ=327.2535
COMPOUND_NAME=Neodihydroprotolichesterinic acid
ION_MODE=positive
FORMULA=C19H34O4
67.054817 171059.59375 
69.07048 172325.671875 
81.070305 330062.5625 
95.085777 339631.03125 
97.101349 142316.609375 
109.10125 172154.78125 
133.100922 106115.257812 
179.106461 52361.460938 
207.210556 83584.523438 
217.19458 74369.765625 
245.22525 193176.03125 
263.235809 202709.890625 
273.218475 16157.994141 
291.23053 126669.421875 
309.242035 80839.039062 
END IONS

BEGIN IONS
RTINSECONDS=273.372009
CHARGE=1+
MSLEVEL=2
SMILES=Cc1cc(c2c(c1)C(=O)c1c(c(cc(c1C2=O)O)O)c1c2c(c(cc1O)O)C(=O)c1c(cc(cc1C2=O)C)O)O
INCHI=InChI=1S/C30H18O10/c1-9-3-11-19(13(31)5-9)29(39)23-17(35)7-15(33)21(25(23)27(11)37)22-16(34)8-18(36)24-26(22)28(38)12-4-10(2)6-14(32)20(12)30(24)40/h3-8,31-36H,1-2H3
INCHIKEY=MQSXZQXHIJMNAF-UHFFFAOYSA-N
CLASS=Quinones
ADDUCT=[M+H]+
INSTRUMENT=Thermo Q-Exactive Focus
PRECURSOR_MZ=539.0978
COMPOUND_NAME=Skyrin
ION_MODE=positive
FORMULA=C30H18O10
63.939613 6237.758301 
73.713753 6202.40625 
75.317871 5910.79834 
76.334496 6507.375488 
86.205902 6838.533203 
90.564018 5678.184082 
131.042511 3216.028076 
154.063187 2473.006348 
160.44751 2971.94751 
191.055069 6723.178711 
198.914276 2480.229736 
213.055084 2969.101074 
230.71109 7366.85791 
241.050262 6432.368652 
269.045227 4016.422852 
270.051941 29188.355469 
296.471069 6185.466797 
308.861572 2876.409912 
309.656799 7229.73291 
335.523956 6550.220703 
436.768921 7234.538086 
446.164062 6850.376465 
448.83075 7043.159668 
469.092346 5588.695801 
504.083344 4874.952148 
504.26825 7550.92041 
521.086792 51640.988281 
END IONS

BEGIN IONS
RTINSECONDS=304.76001
CHARGE=1+
MSLEVEL=2
SMILES=O=C1Oc2c(c3C[C@@](O)(CCCCC)OC(=O)c3c(O)c2)Oc2c1c(cc(c2)OC)CC(=O)CCCCC
INCHI=InChI=1S/C29H34O9/c1-4-6-8-10-18(30)12-17-13-19(35-3)14-22-24(17)27(32)37-23-15-21(31)25-20(26(23)36-22)16-29(34,38-28(25)33)11-9-7-5-2/h13-15,31,34H,4-12,16H2,1-3H3/t29-/m1/s1
INCHIKEY=DQYWDDCXRXABIH-GDLZYMKVSA-N
CLASS=Depsidones
ADDUCT=[M+NH4]+
INSTRUMENT=Thermo Q-Exactive Focus
PRECURSOR_MZ=544.2547
COMPOUND_NAME=Alpha-collatolic acid
ION_MODE=positive
FORMULA=C29H34O9
71.08654 36064396.0 
91.96479 926690.0 
99.081093 16832224.0 
177.054871 1261751.375 
213.092712 985542.9375 
231.10289 1744982.5 
241.087051 1650547.5 
285.076355 3557634.75 
287.091919 3445550.0 
301.144714 4431156.0 
311.05661 3474402.5 
313.071106 10413456.0 
315.160217 3873756.0 
368.126862 3068073.25 
369.13385 13488795.0 
383.150208 7189044.5 
385.165588 7949313.0 
393.134155 8292856.0 
411.144409 38812260.0 
429.155273 5676510.5 
465.228607 3662594.5 
467.207153 44072520.0 
491.207367 11206506.0 
509.218323 49212076.0 
527.228577 23091398.0 
END IONS

BEGIN IONS
RTINSECONDS=177.218002
CHARGE=1+
MSLEVEL=2
SMILES=CC1C(OC2(C(C1O)C)C(C1C(C(=O)C2(C(=O)O1)C)C)C)C
INCHI=InChI=1S/C17H26O5/c1-7-11(5)22-17(9(3)12(7)18)10(4)13-8(2)14(19)16(17,6)15(20)21-13/h7-13,18H,1-6H3
INCHIKEY=CVPVGRDVSAJUQS-UHFFFAOYSA-N
CLASS=Aliphatic and Cycloaliphatic Compounds
ADDUCT=[M+Na]+
INSTRUMENT=Thermo Q-Exactive Focus
PRECURSOR_MZ=333.1678
COMPOUND_NAME=Portentol
ION_MODE=positive
FORMULA=C17H26O5
103.68576 4891.687012 
163.036621 217025.640625 
277.105255 255586.21875 
315.156555 1207889.75 
END IONS

BEGIN IONS
RTINSECONDS=156.195007
CHARGE=1+
MSLEVEL=2
SMILES=O=C(C)O[C@@H]1[C@@H](O)[C@H](O)[C@@H](COC(=O)C)O[C@H]1Oc1cc2oc(C)cc(=O)c2c(O)c1C
INCHI=InChI=1S/C21H24O11/c1-8-5-12(24)16-14(29-8)6-13(9(2)17(16)25)31-21-20(30-11(4)23)19(27)18(26)15(32-21)7-28-10(3)22/h5-6,15,18-21,25-27H,7H2,1-4H3/t15-,18-,19+,20-,21-/m1/s1
INCHIKEY=AFCAWRFTSGVRQA-CMWLGVBASA-N
CLASS=Chromanes and Chromones
ADDUCT=[M+H]+
INSTRUMENT=Thermo Q-Exactive Focus
PRECURSOR_MZ=453.1397
COMPOUND_NAME=Roccellin
ION_MODE=positive
FORMULA=C21H24O11
55.561188 1706237.25 
81.034142 4216591.5 
97.028862 1875600.875 
99.044449 6303643.5 
109.028877 12532959.0 
127.03904 43927340.0 
145.049698 1921222.25 
169.049774 2438935.25 
187.060211 6184201.5 
205.049835 3196084.75 
207.065216 632493056.0 
229.070816 8760227.0 
247.080841 4451478.0 
END IONS

BEGIN IONS
RTINSECONDS=221.223007
CHARGE=1+
MSLEVEL=2
SMILES=Oc1c(C(=O)Oc2c(OC)cc(c(C(=O)O)c2O)CCC)c(CCC)cc(OC)c1
INCHI=InChI=1S/C22H26O8/c1-5-7-12-9-14(28-3)11-15(23)17(12)22(27)30-20-16(29-4)10-13(8-6-2)18(19(20)24)21(25)26/h9-11,23-24H,5-8H2,1-4H3,(H,25,26)
INCHIKEY=CPHXGYQLOSNELY-UHFFFAOYSA-N
CLASS=Depsides (Didepsides)
ADDUCT=[2M+NH4]+
INSTRUMENT=Thermo Q-Exactive Focus
PRECURSOR_MZ=854.3599
COMPOUND_NAME=Sekikaic acid
ION_MODE=positive
FORMULA=C22H26O8
59.440548 22706.472656 
69.034241 23979.380859 
75.745178 50197.914062 
78.047264 30405.775391 
91.970284 134340.703125 
115.054382 100654.515625 
137.059845 344872.46875 
165.091232 733664.5625 
175.075485 1646588.625 
178.062469 273389.625 
193.08609 27020084.0 
209.080994 1036293.9375 
211.096573 189822.609375 
253.349869 23295.941406 
273.200989 16550.664062 
361.633698 5675.223145 
374.452484 20834.599609 
385.163635 9872.457031 
401.158966 204869.1875 
419.169434 72433.359375 
499.22644 70927.421875 
516.150635 20969.273438 
559.053284 6956.370605 
639.426208 41736.453125 
728.664917 10435.836914 
763.114319 6245.410156 
END IONS

BEGIN IONS
RTINSECONDS=184.580994
CHARGE=1+
MSLEVEL=2
SMILES=CC(C[C@H](NC(=O)/C(=C\1/C(=C(c2ccccc2)C(=O)O1)O)/c1ccccc1)C(=O)O)C
INCHI=InChI=1S/C24H23NO6/c1-14(2)13-17(23(28)29)25-22(27)19(16-11-7-4-8-12-16)21-20(26)18(24(30)31-21)15-9-5-3-6-10-15/h3-12,14,17,26H,13H2,1-2H3,(H,25,27)(H,28,29)/b21-19-/t17-/m0/s1
INCHIKEY=ZQLBONJLBKDOLE-UFVMTTLYSA-N
CLASS=Pulvinic Acid Derivatives
ADDUCT=[2M+Na]+
INSTRUMENT=Thermo Q-Exactive Focus
PRECURSOR_MZ=865.2948
COMPOUND_NAME=Norepanorin
ION_MODE=positive
FORMULA=C24H23NO6
63.037014 7882.836914 
66.271286 7704.495117 
75.149345 7819.562012 
86.061966 9322.149414 
156.614502 8613.041992 
227.540512 8570.458984 
263.908234 9320.988281 
287.069122 24430.654297 
319.812317 9307.547852 
331.057373 44326.621094 
444.142151 287418.8125 
525.738647 10256.40625 
596.746155 9835.577148 
898.954285 10524.509766 
END IONS

BEGIN IONS
RTINSECONDS=130.794006
CHARGE=1+
MSLEVEL=2
SMILES=Cc1cc(=O)c2c(cc3c(C(=CC(=O)C3=O)OC)c2OC)o1
INCHI=InChI=1S/C16H12O6/c1-7-4-9(17)14-12(22-7)5-8-13(16(14)21-3)11(20-2)6-10(18)15(8)19/h4-6H,1-3H3
INCHIKEY=GESAVORGYOGKOW-UHFFFAOYSA-N
CLASS=Quinones
ADDUCT=[M+H+CH3OH]+
INSTRUMENT=Thermo Q-Exactive Focus
PRECURSOR_MZ=333.0974
COMPOUND_NAME=Canarione dimethylether
ION_MODE=positive
FORMULA=C16H12O6
73.065529 740944.625 
75.044685 59102.035156 
90.204544 11450.03125 
91.964569 147159.375 
175.039124 1658090.75 
177.054794 754083.0 
187.038895 521318.15625 
205.049637 1402185.75 
233.044357 6559947.5 
245.043579 1662055.875 
246.015701 954339.4375 
261.039246 25898968.0 
273.074799 2824536.0 
301.070007 1691499.0 
END IONS

BEGIN IONS
RTINSECONDS=163.520996
CHARGE=1+
MSLEVEL=2
SMILES=Oc1c(C(=O)Oc2c(OC)cc(c(C(=O)O)c2O)CCC)c(CCC)cc(OC)c1
INCHI=InChI=1S/C22H26O8/c1-5-7-12-9-14(28-3)11-15(23)17(12)22(27)30-20-16(29-4)10-13(8-6-2)18(19(20)24)21(25)26/h9-11,23-24H,5-8H2,1-4H3,(H,25,26)
INCHIKEY=CPHXGYQLOSNELY-UHFFFAOYSA-N
CLASS=Depsides (Didepsides)
ADDUCT=[M+Na]+
INSTRUMENT=Waters Q-ToF Xevo G2-XS
PRECURSOR_MZ=441.1525
COMPOUND_NAME=Sekikaic acid
ION_MODE=positive
FORMULA=C22H26O8
55.13287 20.0 
69.073463 24.0 
79.054527 34.0 
105.025253 33.0 
126.921349 34.0 
131.007446 33.0 
143.084946 31.0 
158.884186 36.0 
215.033554 157.548218 
215.069305 7243.066406 
231.064255 5332.289062 
233.079636 161.0 
249.03476 147.178101 
249.074783 2922.236328 
308.809326 57.0 
321.450928 61.0 
327.879395 47.0 
339.083191 69.0 
370.25293 45.0 
378.922119 44.0 
379.051636 61.0 
388.491333 44.0 
423.406769 64.0 
516.320435 23.0 
519.657104 30.0 
530.977783 34.0 
531.88385 20.0 
559.260193 92.0 
571.214966 25.0 
587.802917 30.0 
588.596985 30.0 
601.264404 33.0 
END IONS

BEGIN IONS
RTINSECONDS=159.753998
CHARGE=1+
MSLEVEL=2
SMILES=CC1C(OC2(C(C3C(C(=O)C2(C(=O)O3)C)C)C)C(C1OC(=O)C)C)C
INCHI=InChI=1S/C19H28O6/c1-8-12(5)25-19(10(3)14(8)23-13(6)20)11(4)15-9(2)16(21)18(19,7)17(22)24-15/h8-12,14-15H,1-7H3
INCHIKEY=CMTSHPFXBUQFIX-UHFFFAOYSA-N
CLASS=Aliphatic and Cycloaliphatic Compounds
ADDUCT=[M+Na]+
INSTRUMENT=Waters Q-ToF Xevo G2-XS
PRECURSOR_MZ=375.1784
COMPOUND_NAME=Acetylportentol
ION_MODE=positive
FORMULA=C19H28O6
83.012878 379.0 
107.075737 136.0 
125.097916 139.108521 
135.118332 135.0 
153.12822 476.0 
163.035797 155.0 
173.133469 115.0 
201.1689 88.0 
229.209198 125.0 
253.03447 59.0 
271.170135 60.0 
293.112732 81.0 
293.173248 95.0 
315.157898 1534.136719 
315.185608 158.952637 
453.771423 19.0 
455.172729 31.0 
456.130585 25.0 
484.091248 33.0 
489.09671 39.0 
578.6297 18.0 
792.38855 18.0 
END IONS

BEGIN IONS
RTINSECONDS=189.966003
CHARGE=1+
MSLEVEL=2
SMILES=COc1ccc(C2=C(O)/C(=C(\C(=O)OC)/c3ccccc3)/OC2=O)cc1
INCHI=InChI=1S/C20H16O6/c1-24-14-10-8-13(9-11-14)15-17(21)18(26-20(15)23)16(19(22)25-2)12-6-4-3-5-7-12/h3-11,21H,1-2H3/b18-16+
INCHIKEY=KXQKSBAGVQMQSN-FBMGVBCBSA-N
CLASS=Pulvinic Acid Derivatives
ADDUCT=[M+H]+
INSTRUMENT=Waters Q-ToF Xevo G2-XS
PRECURSOR_MZ=353.1025
COMPOUND_NAME=Pinastric acid
ION_MODE=positive
FORMULA=C20H16O6
77.039665 2059.091797 
89.039711 23332.109375 
91.055183 19029.625 
135.044724 15345.59375 
165.070755 26119.59375 
166.078644 32883.34375 
178.078674 16467.1875 
194.073288 101856.25 
209.096741 48050.75 
237.092316 603884.5 
237.247971 17770.953125 
265.087219 139948.125 
293.082336 667369.0 
293.159973 10042.210938 
293.255219 19378.0 
293.392365 9582.53125 
321.076843 372502.5 
413.807892 168.0 
425.769562 77.0 
425.831055 81.0 
427.758972 130.0 
441.501282 67.0 
476.932709 67.0 
477.750061 110.0 
481.312561 58.0 
482.938843 67.0 
483.022614 58.0 
488.450989 50.0 
500.486816 83.0 
501.211273 76.0 
552.304321 56.0 
555.233276 90.0 
563.433228 73.0 
575.804993 97.0 
580.128174 53.0 
634.145325 86.0 
636.762512 84.0 
640.629761 58.0 
642.275269 140.0 
650.318115 70.0 
650.477783 84.0 
667.646545 82.0 
701.178223 66.0 
712.070129 75.0 
712.705811 75.0 
713.213867 56.0 
716.75061 112.0 
726.528503 49.0 
770.702026 56.0 
773.731873 48.0 
784.875122 48.0 
785.95752 57.0 
786.53894 57.0 
787.177246 59.0 
790.182129 68.0 
796.876343 57.0 
END IONS

BEGIN IONS
RTINSECONDS=185.807999
CHARGE=1+
MSLEVEL=2
SMILES=Oc1cc(OC(=O)c2c(O)cc(O)cc2CC(=O)CCCCC)cc(CCCCC)c1C(=O)O
INCHI=InChI=1S/C26H32O8/c1-3-5-7-9-16-13-20(15-22(30)23(16)25(31)32)34-26(33)24-17(12-19(28)14-21(24)29)11-18(27)10-8-6-4-2/h12-15,28-30H,3-11H2,1-2H3,(H,31,32)
INCHIKEY=VZPLPGICHZXOCQ-UHFFFAOYSA-N
CLASS=Depsides (Didepsides)
ADDUCT=[M+Na+CH3CN]+
INSTRUMENT=Waters Q-ToF Xevo G2-XS
PRECURSOR_MZ=536.226
COMPOUND_NAME=Olivetoric acid
ION_MODE=positive
FORMULA=C26H32O8
84.107002 96.0 
85.645157 56.0 
87.273232 59.0 
87.526276 86.0 
88.107239 46.0 
141.149872 51.0 
169.866348 67.0 
187.002319 177.0 
187.790298 80.0 
189.062225 66.0 
200.009796 117.650574 
245.11496 30461.65625 
271.021393 975.580566 
271.095001 94336.75 
271.156616 756.909668 
289.043274 614.835938 
289.105469 74738.0625 
365.589325 84.0 
379.551514 280.0 
413.346893 85.0 
430.27594 107.0 
435.223999 88.0 
445.424072 81.0 
457.157532 117.0 
588.446228 57.0 
621.61908 115.0 
630.046448 57.0 
644.664001 38.0 
650.89209 54.0 
655.069824 45.0 
692.980835 36.0 
699.28125 60.0 
722.403259 33.0 
726.255432 42.0 
769.573853 40.0 
777.86853 43.0 
792.069336 34.0 
794.794006 68.0 
796.811523 24.0 
END IONS

BEGIN IONS
RTINSECONDS=126.334999
CHARGE=1+
MSLEVEL=2
SMILES=O=C(C)O[C@@H]1[C@@H](O)[C@H](O)[C@@H](COC(=O)C)O[C@H]1Oc1cc2oc(C)cc(=O)c2c(O)c1C
INCHI=InChI=1S/C21H24O11/c1-8-5-12(24)16-14(29-8)6-13(9(2)17(16)25)31-21-20(30-11(4)23)19(27)18(26)15(32-21)7-28-10(3)22/h5-6,15,18-21,25-27H,7H2,1-4H3/t15-,18-,19+,20-,21-/m1/s1
INCHIKEY=AFCAWRFTSGVRQA-CMWLGVBASA-N
CLASS=Chromanes and Chromones
ADDUCT=[M+H]+
INSTRUMENT=Waters Q-ToF Xevo G2-XS
PRECURSOR_MZ=453.1397
COMPOUND_NAME=Roccellin
ION_MODE=positive
FORMULA=C21H24O11
69.03466 1961.800781 
81.034538 11344.398438 
85.029305 3214.964844 
97.029488 3481.125 
99.04509 17602.21875 
109.029205 19214.625 
127.039619 108374.0 
151.042572 17890.84375 
187.060791 36998.6875 
205.04985 58886.4375 
207.067657 1133000.0 
207.211517 68168.125 
229.070724 55794.375 
247.082336 101359.4375 
291.041534 130.0 
291.085052 896.321289 
340.007324 270.162354 
358.018463 190.242188 
366.990906 160.338867 
367.997437 230.0 
375.104736 301.0 
411.998322 923.832031 
503.414673 209.0 
513.143127 102.0 
532.178223 54.91806 
537.230591 54.0 
546.854309 67.0 
564.644043 61.0 
593.519043 44.0 
608.307678 70.72876 
619.05426 34.0 
650.484924 27.0 
653.727661 21.0 
675.52594 27.0 
691.327515 21.0 
700.465881 29.0 
701.358032 22.0 
746.372742 26.0 
759.887329 33.0 
774.516785 32.0 
775.750793 31.343369 
785.849915 28.0 
797.122314 57.0 
END IONS

BEGIN IONS
RTINSECONDS=138.740005
CHARGE=1+
MSLEVEL=2
SMILES=O=C1c2c(C)cc(O)c(C=O)c2Oc2c(O1)c(c(cc2C(=O)O)OC)C
INCHI=InChI=1S/C18H14O8/c1-7-4-11(20)10(6-19)15-13(7)18(23)26-14-8(2)12(24-3)5-9(17(21)22)16(14)25-15/h4-6,20H,1-3H3,(H,21,22)
INCHIKEY=FUCWJKJZOHOLEO-UHFFFAOYSA-N
CLASS=Depsidones
ADDUCT=[M+H]+
INSTRUMENT=Waters Q-ToF Xevo G2-XS
PRECURSOR_MZ=359.0767
COMPOUND_NAME=Psoromic acid
ION_MODE=positive
FORMULA=C18H14O8
77.038979 1512.331055 
83.040848 1765.931641 
128.062347 6983.324219 
177.019073 16433.125 
179.033951 13207.695312 
214.062531 29252.46875 
217.085678 33996.28125 
242.057434 73047.4375 
243.06604 38588.90625 
270.053101 82580.8125 
273.076569 126395.875 
285.07666 184134.625 
313.071716 380437.0 
315.087433 441281.0 
341.065643 518546.0 
412.380035 55.0 
413.351471 56.0 
422.660492 109.0 
423.288544 73.0 
443.645844 55.162598 
483.953125 46.0 
497.397491 33.0 
529.51239 34.0 
539.620789 31.0 
549.9328 62.0 
558.04364 33.0 
567.593628 35.0 
594.102295 53.0 
679.311951 63.0 
690.231628 37.0 
707.269897 51.0 
741.0979 57.0 
749.497559 75.0 
770.206238 42.0 
781.138794 89.0 
783.075623 39.0 
END IONS

BEGIN IONS
RTINSECONDS=192.876999
CHARGE=1+
MSLEVEL=2
SMILES=CC(=O)CCCCCCCCCCCCC[C@H]1OC(=O)C(=C1C(=O)O)C
INCHI=InChI=1S/C21H34O5/c1-16(22)14-12-10-8-6-4-3-5-7-9-11-13-15-18-19(20(23)24)17(2)21(25)26-18/h18H,3-15H2,1-2H3,(H,23,24)/t18-/m1/s1
INCHIKEY=KYSXDEQQOVVLIN-GOSISDBHSA-N
CLASS=Paraconic acids
ADDUCT=[M+H]+
INSTRUMENT=Waters Q-ToF Xevo G2-XS
PRECURSOR_MZ=367.2484
COMPOUND_NAME=Isomuronic acid
ION_MODE=positive
FORMULA=C21H34O5
79.055351 40257.03125 
81.070641 49460.59375 
91.054955 48165.34375 
93.070473 45349.3125 
95.08477 73338.5625 
121.076363 60970.09375 
145.098816 20048.796875 
175.134048 13665.046875 
217.192413 9239.984375 
231.143661 10432.4375 
235.204865 15389.375 
253.21405 115639.0625 
271.225098 59985.71875 
275.229279 53157.15625 
303.232574 265310.75 
331.227875 138260.375 
349.237335 451662.5 
433.043365 70.0 
440.342804 60.0 
460.322266 57.0 
460.618469 61.20517 
465.972321 59.0 
488.862122 58.0 
490.976166 51.0 
533.249512 57.0 
552.104431 49.0 
559.016846 54.190186 
574.593811 58.0 
637.452209 69.0 
649.416077 51.0 
695.715942 41.0 
729.844788 47.0 
757.425354 80.0 
761.492493 53.0 
777.395142 45.0 
786.395752 65.0 
790.348755 45.0 
792.398254 43.0 
END IONS

BEGIN IONS
RTINSECONDS=115.458
CHARGE=1+
MSLEVEL=2
SMILES=O=C1C=C(OC)C(=O)c2c1c(c1c(c2O)C[C@H](C)OC1=O)O
INCHI=InChI=1S/C15H12O7/c1-5-3-6-9(15(20)22-5)14(19)10-7(16)4-8(21-2)13(18)11(10)12(6)17/h4-5,17,19H,3H2,1-2H3/t5-/m0/s1
INCHIKEY=VZSFONBSZGFZNH-YFKPBYRVSA-N
CLASS=Quinones
ADDUCT=[M+H+HCOOH]+
INSTRUMENT=Waters Q-ToF Xevo G2-XS
PRECURSOR_MZ=351.0716
COMPOUND_NAME=Haemoventosine
ION_MODE=positive
FORMULA=C15H12O7
90.045212 88.0 
118.04306 149.0 
174.031693 538.865723 
192.04126 913.572754 
202.026169 616.083984 
217.050232 1539.398438 
220.039047 821.884277 
245.045609 5090.277344 
263.056152 19565.65625 
273.040955 1121.30957 
291.051086 10172.5625 
301.034546 4644.816406 
319.045624 8323.4375 
333.063568 337.928955 
409.273834 31.0 
420.513977 40.0 
438.833679 29.0 
454.472748 129.0 
475.865662 20.0 
485.888306 25.0 
488.835236 32.0 
488.931946 18.0 
508.353638 20.0 
514.893127 18.0 
525.925049 20.0 
535.729675 20.0 
555.195251 18.0 
572.72113 19.0 
618.402649 49.0 
626.381836 21.0 
634.610168 23.0 
648.052856 29.0 
701.009216 20.0 
708.169189 24.0 
718.885681 18.0 
725.346436 29.0 
732.954285 20.0 
765.488831 40.0 
785.619629 21.0 
END IONS

BEGIN IONS
RTINSECONDS=171.813004
CHARGE=1+
MSLEVEL=2
SMILES=Oc1cc(OC)cc(CCCCC)c1C(=O)O
INCHI=InChI=1S/C13H18O4/c1-3-4-5-6-9-7-10(17-2)8-11(14)12(9)13(15)16/h7-8,14H,3-6H2,1-2H3,(H,15,16)
INCHIKEY=JWSADSZPLGCVPA-UHFFFAOYSA-N
CLASS=Cleavage Products of Depsides and Depsidones
ADDUCT=[M+H]+
INSTRUMENT=Waters Q-ToF Xevo G2-XS
PRECURSOR_MZ=239.1283
COMPOUND_NAME=4-O-methylolivetolcarboxylic acid
ION_MODE=positive
FORMULA=C13H18O4
77.039711 31729.875 
79.055145 12905.804688 
91.055069 14700.90625 
109.064713 21138.109375 
137.05986 158802.5 
163.039993 57897.40625 
163.072754 68397.5 
165.055786 69673.125 
174.067703 63072.5 
203.10701 117884.375 
221.117874 751350.0 
300.730133 45.0 
304.525024 45.0 
329.416016 72.0 
340.528381 41.0 
343.473114 50.0 
356.817322 39.0 
366.888611 61.0 
393.839081 35.0 
413.206238 40.0 
419.788177 31.443665 
446.440613 49.0 
462.010559 30.0 
481.073944 32.0 
486.356201 28.0 
502.03299 27.0 
504.455902 28.0 
519.622375 36.0 
535.383301 89.0 
558.02594 25.0 
577.439453 41.0 
586.119568 30.0 
598.254028 27.0 
619.174316 26.0 
639.355774 60.0 
652.312012 20.0 
688.14209 28.0 
720.467712 26.0 
END IONS

BEGIN IONS
RTINSECONDS=192.080994
CHARGE=1+
MSLEVEL=2
SMILES=Oc1cc(OC(=O)c2c(O)cc(OC)cc2CCC(=O)CC)cc(CCCCC)c1C(=O)O
INCHI=InChI=1S/C25H30O8/c1-4-6-7-8-15-12-19(14-20(27)22(15)24(29)30)33-25(31)23-16(9-10-17(26)5-2)11-18(32-3)13-21(23)28/h11-14,27-28H,4-10H2,1-3H3,(H,29,30)
INCHIKEY=UCYIOAVHQGSYLP-UHFFFAOYSA-N
CLASS=Depsides (Didepsides)
ADDUCT=[M+Na]+
INSTRUMENT=Waters Q-ToF Xevo G2-XS
PRECURSOR_MZ=481.1838
COMPOUND_NAME=Miriquidic acid
ION_MODE=positive
FORMULA=C25H30O8
52.698647 123.0 
69.24884 41.0 
70.373451 55.0 
78.349022 47.0 
80.148743 118.0 
94.603394 83.0 
139.717834 80.0 
152.890533 69.0 
162.503967 109.0 
191.106781 225.578491 
213.089172 49842.5 
229.083206 8253.476562 
247.095184 11440.453125 
257.079407 271014.5 
257.241425 2944.505859 
275.089874 35314.5 
345.579376 136.0 
363.783295 86.0 
371.91864 93.0 
381.367767 90.0 
463.171967 3001.966797 
539.223022 89.0 
545.99707 80.0 
614.955505 69.0 
620.369385 135.0 
627.506042 59.0 
632.628418 61.0 
633.373779 59.0 
647.517029 160.0 
653.410095 111.0 
674.321167 49.0 
704.52948 46.0 
729.612915 86.0 
738.654968 49.0 
745.802795 82.0 
753.930725 63.0 
762.698914 45.0 
779.728516 28.0 
END IONS

BEGIN IONS
RTINSECONDS=180.542999
CHARGE=1+
MSLEVEL=2
SMILES=Cc1cc(OC)cc2c1c(=O)c1c(cc(O)c(Cl)c1O)o2
INCHI=InChI=1S/C15H11ClO5/c1-6-3-7(20-2)4-9-11(6)14(18)12-10(21-9)5-8(17)13(16)15(12)19/h3-5,17,19H,1-2H3
INCHIKEY=VZYXHXRKFKLWJI-UHFFFAOYSA-N
CLASS=Xanthones and bis-Xanthones
ADDUCT=[M+2Na-H]+
INSTRUMENT=Waters Q-ToF Xevo G2-XS
PRECURSOR_MZ=351.0012
COMPOUND_NAME=2-Chloro-6-O-methylnorlichexanthone
ION_MODE=positive
FORMULA=C15H11ClO5
84.056595 27.0 
84.834145 25.0 
106.076294 28.0 
115.05706 31.0 
131.051758 30.0 
155.050339 119.0 
175.083237 70.914673 
183.042816 74.0 
212.449478 56.0 
215.071655 65.0 
261.961975 109.684692 
272.069122 494.657227 
276.988464 566.489258 
280.985596 100.0 
306.961487 3236.263672 
307.968689 1515.694336 
442.102539 30.0 
446.750488 20.0 
471.381958 21.0 
472.485413 20.0 
482.92041 24.0 
617.261902 42.0 
617.31842 27.0 
686.552734 20.0 
721.357788 21.0 
END IONS

BEGIN IONS
RTINSECONDS=118.399002
CHARGE=1+
MSLEVEL=2
SMILES=Cc1cc(=O)c2c(cc3c(C(=CC(=O)C3=O)OC)c2OC)o1
INCHI=InChI=1S/C16H12O6/c1-7-4-9(17)14-12(22-7)5-8-13(16(14)21-3)11(20-2)6-10(18)15(8)19/h4-6H,1-3H3
INCHIKEY=GESAVORGYOGKOW-UHFFFAOYSA-N
CLASS=Quinones
ADDUCT=[M+H+CH3OH]+
INSTRUMENT=Waters Q-ToF Xevo G2-XS
PRECURSOR_MZ=333.0974
COMPOUND_NAME=Canarione dimethylether
ION_MODE=positive
FORMULA=C16H12O6
91.055023 779.0 
134.031662 2327.947266 
162.03064 3464.193359 
175.038101 3927.669922 
189.017883 5232.0 
200.042206 5087.703125 
205.049194 6747.910156 
233.044601 25821.21875 
245.044998 6727.375 
246.017334 5926.296875 
261.040314 148169.125 
273.077026 44910.375 
301.068939 26008.71875 
399.395325 106.0 
399.664886 63.0 
420.332825 40.0 
428.876587 52.0 
437.211212 40.0 
493.740814 46.0 
494.080963 42.0 
494.546387 47.0 
503.096375 48.0 
507.971497 49.0 
529.933838 49.0 
544.438416 58.0 
556.144531 36.0 
585.051819 43.0 
588.590881 49.0 
590.696533 47.0 
594.544128 42.0 
626.600037 114.0 
661.931763 48.0 
674.27478 41.0 
674.704529 38.0 
675.841064 38.0 
717.709656 42.0 
728.894714 33.0 
748.205994 35.0 
753.244385 37.0 
767.707947 44.0 
775.984192 34.0 
786.679565 30.0 
END IONS

BEGIN IONS
RTINSECONDS=149.112
CHARGE=1+
MSLEVEL=2
SMILES=Cc1cc(=O)c2c(o1)c(c(cc2O)O[C@H]1[C@@H]([C@H]([C@@H]([C@H](O1)COC(=O)C)O)OC(=O)C)OC(=O)C)C
INCHI=InChI=1S/C23H26O12/c1-9-6-14(27)18-15(28)7-16(10(2)20(18)31-9)34-23-22(33-13(5)26)21(32-12(4)25)19(29)17(35-23)8-30-11(3)24/h6-7,17,19,21-23,28-29H,8H2,1-5H3/t17-,19-,21+,22-,23-/m1/s1
INCHIKEY=HXFPGPYWXWMQDG-FVEADEHFSA-N
CLASS=Chromanes and Chromones
ADDUCT=[M+Na]+
INSTRUMENT=Waters Q-ToF Xevo G2-XS
PRECURSOR_MZ=517.1322
COMPOUND_NAME=Lobodirin
ION_MODE=positive
FORMULA=C23H26O12
72.422203 24.0 
81.034195 35.0 
101.666397 28.0 
109.029533 66.697449 
125.021461 139.0 
127.036003 61.17337 
187.058029 73.0 
191.031174 83.0 
228.038345 135.0 
229.050201 1326.268555 
251.052307 589.0 
273.078156 82.30426 
295.057709 82.157898 
311.072723 873.901367 
337.064575 141.0 
346.054382 66.0 
349.942932 62.0 
351.107025 75.0 
397.086365 266.572998 
415.097137 130.0 
431.955811 135.0 
457.065704 85.0 
457.113434 1683.603516 
457.200226 137.0 
580.809082 36.0 
606.647522 43.0 
629.487305 36.0 
635.747437 24.0 
648.593506 67.0 
672.285889 20.0 
689.117798 28.0 
704.158752 18.0 
724.720154 19.0 
745.71698 21.0 
748.5802 28.0 
749.874146 20.0 
774.4021 20.0 
END IONS

BEGIN IONS
RTINSECONDS=285.621002
CHARGE=1+
MSLEVEL=2
SMILES=nan
INCHI=nan
CLASS=Quinones
ADDUCT=[M+H+CH3CN]+
INSTRUMENT=Waters Q-ToF Xevo G2-XS
PRECURSOR_MZ=580.1244
COMPOUND_NAME=Isoskyrin
ION_MODE=positive
83.791924 19.0 
84.380646 18.0 
99.374474 131.0 
115.064606 39.0 
117.085838 21.0 
135.00058 46.0 
150.047821 29.0 
176.078873 20.0 
203.066986 18.0 
233.140167 22.0 
237.088257 19.0 
265.67041 23.0 
300.164703 19.0 
309.982086 20.0 
310.303223 22.0 
316.181732 19.0 
339.243347 27.0 
341.227539 24.0 
367.18335 25.0 
371.257202 29.0 
381.275696 27.0 
403.994385 27.0 
405.95575 25.0 
413.0466 27.0 
431.108521 31.0 
443.687866 54.0 
469.328064 27.0 
471.323792 26.0 
482.301331 26.0 
484.898804 71.0 
559.630127 99.0 
649.19635 40.0 
651.478577 22.0 
658.91925 48.0 
670.617432 41.0 
688.935364 27.0 
695.41156 28.0 
726.995483 19.0 
764.656738 19.0 
793.562744 18.0 
END IONS

BEGIN IONS
RTINSECONDS=176.975998
CHARGE=1+
MSLEVEL=2
SMILES=O=C1Oc2c(c(CCCCC)c(C(=O)O)c(O)c2)Oc2c1c(cc(c2)OC)CCCCC
INCHI=InChI=1S/C25H30O7/c1-4-6-8-10-15-12-16(30-3)13-19-21(15)25(29)32-20-14-18(26)22(24(27)28)17(23(20)31-19)11-9-7-5-2/h12-14,26H,4-11H2,1-3H3,(H,27,28)
INCHIKEY=RWVJYKHAFMWADK-UHFFFAOYSA-N
CLASS=Depsidones
ADDUCT=[M+NH4]+
INSTRUMENT=Waters Q-ToF Xevo G2-XS
PRECURSOR_MZ=460.2335
COMPOUND_NAME=Colensoic acid
ION_MODE=positive
FORMULA=C25H30O7
163.045349 2389.0 
177.054459 2180.103516 
177.086975 2934.066406 
191.103287 4713.660156 
219.098282 3026.458984 
243.078415 4355.28125 
269.072296 3164.248047 
271.106476 4281.300781 
299.123291 6127.277344 
326.113098 17105.953125 
327.194824 5379.640625 
355.1745 7320.371094 
381.167297 86256.75 
383.180725 7520.691406 
397.198944 20351.3125 
399.17807 85453.5 
415.208069 21300.34375 
423.17746 35060.1875 
441.189331 119005.375 
514.769897 62.0 
537.347839 70.0 
543.37738 55.0 
578.586365 50.0 
580.404053 47.0 
586.612976 50.0 
608.744507 78.0 
635.538391 48.0 
636.638794 42.0 
650.541016 103.0 
652.578003 68.0 
686.802124 50.0 
712.625916 133.0 
724.229614 65.0 
743.117981 75.0 
760.941345 45.0 
775.48114 64.0 
777.427246 49.0 
789.54541 45.0 
END IONS

BEGIN IONS
RTINSECONDS=152.964005
CHARGE=1+
MSLEVEL=2
SMILES=O=C(O)c1c(CCC)c(Cl)c(OC)cc1O
INCHI=InChI=1S/C11H13ClO4/c1-3-4-6-9(11(14)15)7(13)5-8(16-2)10(6)12/h5,13H,3-4H2,1-2H3,(H,14,15)
INCHIKEY=JRBWSDAHJPBRDM-UHFFFAOYSA-N
CLASS=Cleavage Products of Depsides and Depsidones
ADDUCT=[M+H]+
INSTRUMENT=Waters Q-ToF Xevo G2-XS
PRECURSOR_MZ=245.0581
COMPOUND_NAME=5-Chlorodivaricatinic acid
ION_MODE=positive
FORMULA=C11H13ClO4
77.03965 9863.679688 
103.054733 20683.171875 
131.049438 30901.3125 
174.06778 78436.625 
177.05452 100296.3125 
192.078461 129579.375 
209.036621 43788.96875 
227.047546 379703.0 
325.170685 27.0 
396.032776 23.0 
451.681732 37.0 
456.493134 26.0 
524.813599 28.0 
782.660706 33.0 
END IONS

BEGIN IONS
RTINSECONDS=188.070999
CHARGE=1+
MSLEVEL=2
SMILES=Cc1c(c(C(=O)C)c(c2c1OC1=CC(=C(C(=O)C21C)C(=O)C)O)O)O
INCHI=InChI=1S/C18H16O7/c1-6-14(22)12(8(3)20)15(23)13-16(6)25-10-5-9(21)11(7(2)19)17(24)18(10,13)4/h5,21-23H,1-4H3
INCHIKEY=GRIDHCOCFJSWSY-UHFFFAOYSA-N
CLASS=Dibenzofuranes
ADDUCT=[M+H+CH3OH]+
INSTRUMENT=Waters Q-ToF Xevo G2-XS
PRECURSOR_MZ=377.1236
COMPOUND_NAME=Isousnic acid
ION_MODE=positive
FORMULA=C18H16O7
71.013016 40.0 
83.014633 51.0 
85.029488 52.691589 
91.05394 81.789978 
181.052979 928.0 
196.073853 459.560303 
215.071655 1521.959961 
219.066528 581.001465 
233.082062 2742.617188 
243.067612 448.22583 
261.07663 1343.373047 
285.076477 342.748047 
303.087067 1020.033203 
317.102905 554.312988 
327.089508 1241.120117 
335.112366 855.138184 
345.097931 8180.382812 
359.113861 1038.341797 
404.641052 107.0 
446.432617 23.0 
446.456299 28.0 
452.69046 28.0 
452.730988 30.0 
463.308868 28.0 
499.209229 24.0 
511.440002 40.0 
522.272766 28.0 
554.652466 45.0 
568.887634 24.0 
587.757874 22.0 
594.671387 29.0 
598.945312 27.0 
656.841797 28.0 
660.296753 26.0 
709.51178 21.0 
715.029968 20.0 
736.252258 25.0 
766.920044 20.0 
766.98468 25.0 
END IONS

BEGIN IONS
RTINSECONDS=136.673004
CHARGE=1+
MSLEVEL=2
SMILES=Cc1cc(=O)c2c(o1)c(c(c(c2O)C)O)Cl
INCHI=InChI=1S/C11H9ClO4/c1-4-3-6(13)7-9(14)5(2)10(15)8(12)11(7)16-4/h3,14-15H,1-2H3
INCHIKEY=OFIWISPGMYFUGQ-UHFFFAOYSA-N
CLASS=Chromanes and Chromones
ADDUCT=[M+H]+
INSTRUMENT=Waters Q-ToF Xevo G2-XS
PRECURSOR_MZ=241.0268
COMPOUND_NAME=Rupicolin (sordidone)
ION_MODE=positive
FORMULA=C11H9ClO4
72.985443 35051.21875 
77.039207 36604.25 
99.000473 134495.625 
103.002243 40793.53125 
103.025902 34952.6875 
154.989929 124131.875 
198.97934 225228.25 
200.995789 247321.0 
205.049911 157986.375 
325.172089 78.0 
328.524811 96.0 
338.813385 86.742493 
346.096649 78.0 
367.461761 86.0 
369.898743 75.0 
394.919312 72.0 
404.34964 182.0 
428.783813 53.0 
448.217499 62.0 
452.174042 88.0 
454.562958 59.0 
478.156342 51.0 
479.279022 47.0 
501.519135 60.0 
531.188232 50.0 
543.481567 74.0 
553.388123 57.0 
566.462219 76.997498 
583.570007 67.0 
609.002869 116.0 
616.296082 69.0 
631.691772 114.0 
636.457825 40.0 
648.335083 64.0 
689.383057 40.0 
722.976135 46.0 
768.924866 46.0 
END IONS

BEGIN IONS
RTINSECONDS=210.076004
CHARGE=1+
MSLEVEL=2
SMILES=Cc1c(c(C(=O)C)c(c2c1OC1=CC(=C(C(=O)C21C)C(=O)C)O)O)O
INCHI=InChI=1S/C18H16O7/c1-6-14(22)12(8(3)20)15(23)13-16(6)25-10-5-9(21)11(7(2)19)17(24)18(10,13)4/h5,21-23H,1-4H3
INCHIKEY=GRIDHCOCFJSWSY-UHFFFAOYSA-N
CLASS=Dibenzofuranes
ADDUCT=[M+H]+
INSTRUMENT=Waters Q-ToF Xevo G2-XS
PRECURSOR_MZ=345.0974
COMPOUND_NAME=Isousnic acid
ION_MODE=positive
FORMULA=C18H16O7
91.054199 656.336426 
115.054901 1022.0 
159.072464 1794.329102 
178.077972 2022.831055 
179.084076 1839.9375 
187.074081 3110.167969 
215.07103 12182.320312 
233.082214 17325.1875 
261.076477 11269.65625 
297.040924 12320.859375 
303.087189 21434.71875 
309.076691 30810.890625 
327.087463 218097.75 
442.456299 36.0 
455.31485 22.0 
506.996277 43.0 
571.986511 28.0 
676.10321 23.0 
686.196777 27.0 
793.339539 19.0 
795.883362 34.0 
END IONS

BEGIN IONS
RTINSECONDS=223.694
CHARGE=1+
MSLEVEL=2
SMILES=CCCCCCCCCCCCC[C@@H]1OC(=O)C(=C)[C@@H]1C(=O)O
INCHI=InChI=1S/C19H32O4/c1-3-4-5-6-7-8-9-10-11-12-13-14-16-17(18(20)21)15(2)19(22)23-16/h16-17H,2-14H2,1H3,(H,20,21)/t16-,17-/m0/s1
INCHIKEY=WZYZDHVPSZCEEP-IRXDYDNUSA-N
CLASS=Paraconic acids
ADDUCT=[M+H]+
INSTRUMENT=Waters Q-ToF Xevo G2-XS
PRECURSOR_MZ=325.2379
COMPOUND_NAME=allo-Protolichesterinic acid
ION_MODE=positive
FORMULA=C19H32O4
77.039665 3008.818359 
79.055077 2324.773438 
91.05497 4472.105469 
93.069824 3538.996094 
97.096664 3050.189453 
107.077965 3648.736328 
141.055511 5901.417969 
167.075729 2777.083984 
177.109634 2065.408203 
185.174179 5866.640625 
233.218613 2678.398438 
243.208923 1647.422852 
243.88533 1978.382812 
261.220093 4804.578125 
279.230743 6825.207031 
289.215057 18970.34375 
307.22702 38488.875 
343.247894 421.0 
387.911041 59.0 
392.979218 71.0 
436.736603 99.0 
439.925262 56.0 
482.421234 56.0 
491.580292 57.0 
493.689911 61.0 
503.155151 42.0 
535.747009 46.0 
541.085693 61.0 
554.094971 43.0 
560.608032 47.0 
568.585999 44.0 
570.80011 46.0 
575.186218 49.0 
624.169189 40.0 
638.009827 36.0 
643.261536 56.0 
649.481689 69.0 
649.706299 44.0 
706.127197 47.0 
714.440491 60.0 
714.76532 72.0 
723.980103 51.0 
733.091003 44.0 
756.365051 31.0 
763.228149 30.0 
778.115479 30.0 
780.148376 30.0 
781.45636 29.0 
787.831055 31.0 
789.835815 60.0 
791.400574 26.0 
END IONS

BEGIN IONS
RTINSECONDS=160.820999
CHARGE=1+
MSLEVEL=2
SMILES=O=C(OC)/C(=C\1/OC(=O)C(=C1O)c1ccccc1)/c1c(OC)cccc1
INCHI=InChI=1S/C20H16O6/c1-24-14-11-7-6-10-13(14)16(19(22)25-2)18-17(21)15(20(23)26-18)12-8-4-3-5-9-12/h3-11,21H,1-2H3/b18-16+
INCHIKEY=IWYVMUDIEOXASM-FBMGVBCBSA-N
CLASS=Pulvinic Acid Derivatives
ADDUCT=[M+H+CH3OH]+
INSTRUMENT=Waters Q-ToF Xevo G2-XS
PRECURSOR_MZ=385.1287
COMPOUND_NAME=Leprapinic acid
ION_MODE=positive
FORMULA=C20H16O6
91.054214 63.0 
105.072891 56.0 
119.050621 106.221497 
147.047012 215.0 
149.059586 157.0 
151.075684 166.678589 
175.042404 295.751465 
179.071762 1088.293945 
207.066376 362.0 
235.037811 65.561707 
235.060501 2331.416016 
237.092361 170.383423 
265.090302 296.033203 
293.082214 358.014648 
294.090027 114.403503 
309.108276 684.0 
321.077637 237.526855 
353.101044 4044.689453 
442.73291 26.0 
518.725281 22.0 
546.848572 37.0 
765.775757 20.0 
END IONS

BEGIN IONS
RTINSECONDS=198.084
CHARGE=1+
MSLEVEL=2
SMILES=Oc1c2c(oc3c(c(C)cc(O)c3Cl)c2=O)c(Cl)c(OC)c1Cl
INCHI=InChI=1S/C15H9Cl3O5/c1-4-3-5(19)8(16)13-6(4)11(20)7-12(21)9(17)15(22-2)10(18)14(7)23-13/h3,19,21H,1-2H3
INCHIKEY=SWYXXNJANIXCRQ-UHFFFAOYSA-N
CLASS=Xanthones and bis-Xanthones
ADDUCT=[M+H]+
INSTRUMENT=Waters Q-ToF Xevo G2-XS
PRECURSOR_MZ=374.9594
COMPOUND_NAME=Thuringione
ION_MODE=positive
FORMULA=C15H9Cl3O5
77.039368 118.249329 
107.050133 107.0 
149.015167 627.872559 
177.010406 886.996094 
205.005432 3862.013672 
232.99971 6607.789062 
236.996033 3767.871094 
267.969055 12151.335938 
286.942963 20059.671875 
296.973114 43626.4375 
330.933777 72930.5 
331.940552 26929.328125 
457.436493 34.0 
463.392029 35.003052 
END IONS

BEGIN IONS
RTINSECONDS=184.212997
CHARGE=1+
MSLEVEL=2
SMILES=O=C1c2c(CC(=O)CCCCC)cc(OC)c(O)c2Oc2c(O1)cc(c(c2CCCCC)C(=O)O)O
INCHI=InChI=1S/C27H32O9/c1-4-6-8-10-16(28)12-15-13-19(34-3)23(30)25-21(15)27(33)35-20-14-18(29)22(26(31)32)17(24(20)36-25)11-9-7-5-2/h13-14,29-30H,4-12H2,1-3H3,(H,31,32)
INCHIKEY=YFNNJORBJZUGCV-UHFFFAOYSA-N
CLASS=Depsidones
ADDUCT=[M+H]+
INSTRUMENT=Waters Q-ToF Xevo G2-XS
PRECURSOR_MZ=501.2125
COMPOUND_NAME=Lividic acid
ION_MODE=positive
FORMULA=C27H32O9
71.085754 74.0 
91.057762 96.0 
93.071075 96.0 
95.085609 122.0 
99.081444 136.0 
107.085823 116.0 
123.046394 98.567322 
134.036652 122.0 
163.039673 150.301392 
177.091766 295.0 
193.05304 425.0 
233.082047 2588.705078 
271.093719 1742.084961 
277.10907 923.229492 
287.059204 895.079102 
289.071899 774.554199 
331.152405 2417.171875 
342.110748 3809.277344 
343.11795 1587.849609 
387.142578 3249.197266 
387.2164 1297.138672 
413.125702 7686.847656 
415.212158 5405.429688 
441.135498 751.115723 
441.192719 41749.34375 
457.223419 6049.730469 
483.201416 4400.035156 
556.896057 43.0 
559.084351 32.0 
570.562439 33.0 
571.692566 34.0 
575.106628 34.0 
576.565063 47.0 
589.763367 33.0 
630.627014 25.0 
635.932068 39.0 
671.528015 24.0 
680.530579 21.0 
693.651917 25.0 
719.497253 22.0 
736.528198 82.0 
745.425964 22.0 
756.440613 30.0 
762.575684 24.0 
786.130005 39.0 
791.883667 27.0 
799.124268 60.0 
END IONS

BEGIN IONS
RTINSECONDS=123.111
CHARGE=1+
MSLEVEL=2
SMILES=Cc1cc(c2c(c1)C(=O)c1c(C2=O)c(ccc1)O)O
INCHI=InChI=1S/C15H10O4/c1-7-5-9-13(11(17)6-7)15(19)12-8(14(9)18)3-2-4-10(12)16/h2-6,16-17H,1H3
INCHIKEY=LQGUBLBATBMXHT-UHFFFAOYSA-N
CLASS=Quinones
ADDUCT=[M+H+HCOOH]+
INSTRUMENT=Waters Q-ToF Xevo G2-XS
PRECURSOR_MZ=301.0712
COMPOUND_NAME=Chrysophanol
ION_MODE=positive
FORMULA=C15H10O4
72.953003 31.0 
75.026459 33.0 
103.056122 51.0 
115.057777 135.942261 
144.056839 281.81958 
145.023697 75.0 
187.039413 500.092773 
200.04866 242.507202 
201.054535 409.799072 
228.044342 289.305176 
229.047531 1132.835938 
258.051422 328.0 
271.063141 259.0 
273.077728 1697.300781 
355.224487 24.0 
356.829498 18.0 
388.138092 18.0 
429.881409 73.0 
443.128265 24.0 
506.337982 24.0 
544.622803 20.0 
571.586487 20.0 
573.570374 31.0 
713.986816 25.0 
END IONS

BEGIN IONS
RTINSECONDS=209.563995
CHARGE=1+
MSLEVEL=2
SMILES=OC(=O)c1c(OC)cc(cc1CCCCC)OC(=O)c1c(CCCCC)cc(OC)cc1OC
INCHI=InChI=1S/C27H36O7/c1-6-8-10-12-18-15-21(17-22(32-4)24(18)26(28)29)34-27(30)25-19(13-11-9-7-2)14-20(31-3)16-23(25)33-5/h14-17H,6-13H2,1-5H3,(H,28,29)
INCHIKEY=FNJKTDQIJKLZGZ-UHFFFAOYSA-N
CLASS=Depsides (Didepsides)
ADDUCT=[M+Na]+
INSTRUMENT=Waters Q-ToF Xevo G2-XS
PRECURSOR_MZ=495.2359
COMPOUND_NAME=Planaic acid
ION_MODE=positive
FORMULA=C27H36O7
60.53091 71.0 
64.334671 47.0 
73.99881 46.0 
105.068886 65.0 
151.074936 658.219727 
177.092468 645.702637 
192.078781 659.0 
193.087296 592.0 
217.123032 715.080566 
235.133408 8452.828125 
243.09845 4919.878906 
275.129395 152.0 
291.860443 69.0 
300.154877 72.0 
327.168274 57.0 
346.695251 101.0 
347.502136 72.0 
362.579224 56.0 
368.602081 58.0 
378.977905 57.0 
397.167847 66.0 
427.869965 73.0 
432.551819 78.0 
513.246948 35368.78125 
594.361511 43.0 
594.888306 50.0 
625.112915 26.0 
628.885315 26.0 
634.409363 35.0 
676.927002 26.0 
677.643433 55.0 
694.01001 62.0 
695.832153 39.0 
712.133362 24.0 
726.583252 35.0 
775.298523 21.0 
785.962952 38.0 
796.216125 45.0 
797.415527 28.0 
799.164124 35.0 
END IONS

BEGIN IONS
RTINSECONDS=184.770004
CHARGE=1+
MSLEVEL=2
SMILES=O=C1Oc2c(c(CC(=O)CCCCC)c(C(=O)O)c(O)c2)Oc2c1c(cc(c2)O)CC(=O)CCCCC
INCHI=InChI=1S/C28H32O9/c1-3-5-7-9-17(29)11-16-12-19(31)14-22-24(16)28(35)37-23-15-21(32)25(27(33)34)20(26(23)36-22)13-18(30)10-8-6-4-2/h12,14-15,31-32H,3-11,13H2,1-2H3,(H,33,34)
INCHIKEY=ZDIOCINAHISORH-UHFFFAOYSA-N
CLASS=Depsidones
ADDUCT=[M+Na]+
INSTRUMENT=Waters Q-ToF Xevo G2-XS
PRECURSOR_MZ=535.1944
COMPOUND_NAME=Alpha-Alectoronic acid
ION_MODE=positive
FORMULA=C28H32O9
67.497314 25.0 
70.300362 43.0 
71.08416 26.0 
82.758873 48.0 
125.130615 36.0 
126.259842 37.0 
135.860214 63.0 
139.006104 34.0 
141.497192 59.0 
193.915436 64.0 
194.010056 78.0 
199.032715 46.0 
243.103271 65.0 
266.053253 57.0 
268.325165 83.0 
270.087982 1351.241211 
280.810852 65.0 
324.137573 244.0 
331.75885 98.0 
335.90506 128.0 
336.1315 157.0 
392.122345 762.45459 
393.129883 1654.52832 
419.110535 8211.015625 
449.188354 2000.345703 
491.204193 50504.25 
517.182739 4964.75 
595.174561 52.0 
618.132446 36.0 
645.042114 74.0 
668.434021 27.0 
669.204163 33.0 
674.0448 53.0 
683.118347 27.0 
692.236145 27.0 
693.64386 30.0 
707.126892 27.0 
712.995605 27.0 
732.657776 29.0 
755.31366 31.0 
770.534973 44.0 
784.287476 40.0 
790.271484 81.0 
END IONS

BEGIN IONS
RTINSECONDS=182.427994
CHARGE=1+
MSLEVEL=2
SMILES=Oc1cc(OC(=O)c2c(O)cc(O)cc2CC(=O)CCCCC)cc(CCCCC)c1C(=O)O
INCHI=InChI=1S/C26H32O8/c1-3-5-7-9-16-13-20(15-22(30)23(16)25(31)32)34-26(33)24-17(12-19(28)14-21(24)29)11-18(27)10-8-6-4-2/h12-15,28-30H,3-11H2,1-2H3,(H,31,32)
INCHIKEY=VZPLPGICHZXOCQ-UHFFFAOYSA-N
CLASS=Depsides (Didepsides)
ADDUCT=[M+Na]+
INSTRUMENT=Waters Q-ToF Xevo G2-XS
PRECURSOR_MZ=495.1995
COMPOUND_NAME=Olivetoric acid
ION_MODE=positive
FORMULA=C26H32O8
51.899773 74.0 
61.208145 53.0 
63.840549 82.0 
76.942184 42.0 
81.074791 48.0 
94.894073 49.0 
135.039337 89.0 
150.030823 511.931641 
163.039749 100.0 
191.03244 103.605652 
192.043976 449.877441 
229.084763 3068.291016 
247.094833 2982.533203 
271.026672 724.84375 
271.095245 102407.875 
271.158752 1056.681641 
289.105042 1483.260742 
329.093933 80.0 
351.119415 147.0 
378.380219 73.0 
381.133728 64.0 
382.523132 72.0 
393.107727 73.0 
425.136597 131.0 
477.193512 443.140137 
513.208374 822.995605 
555.649658 72.0 
557.754333 72.0 
589.53894 64.0 
592.302612 39.0 
649.687134 25.0 
651.698425 29.0 
656.513062 34.0 
678.645203 30.0 
683.565735 32.0 
704.318115 35.0 
727.956604 31.0 
737.866882 39.0 
745.984375 35.0 
775.295898 18.0 
793.512451 37.0 
END IONS

BEGIN IONS
RTINSECONDS=107.792999
CHARGE=1+
MSLEVEL=2
SMILES=O=C(C)O[C@@H]1[C@@H](O)[C@H](O)[C@@H](COC(=O)C)O[C@H]1Oc1cc2oc(C)cc(=O)c2c(O)c1C
INCHI=InChI=1S/C21H24O11/c1-8-5-12(24)16-14(29-8)6-13(9(2)17(16)25)31-21-20(30-11(4)23)19(27)18(26)15(32-21)7-28-10(3)22/h5-6,15,18-21,25-27H,7H2,1-4H3/t15-,18-,19+,20-,21-/m1/s1
INCHIKEY=AFCAWRFTSGVRQA-CMWLGVBASA-N
CLASS=Chromanes and Chromones
ADDUCT=[M+K]+
INSTRUMENT=Waters Q-ToF Xevo G2-XS
PRECURSOR_MZ=491.0956
COMPOUND_NAME=Roccellin
ION_MODE=positive
FORMULA=C21H24O11
53.728447 30.0 
71.05098 50.0 
99.046539 22.0 
109.062744 52.0 
109.903061 45.0 
127.049431 44.0 
175.283539 25.0 
185.040924 38.0 
227.031281 2715.412109 
244.03624 69.0 
245.044235 420.437988 
259.323181 58.0 
269.062408 1200.594727 
318.797729 54.0 
322.288391 49.0 
340.87439 37.0 
381.240692 50.0 
408.786743 54.0 
419.0849 36.0 
420.404419 44.0 
425.082733 36.0 
426.8302 63.0 
473.108185 151.0 
549.164307 19.0 
664.306213 18.0 
END IONS

BEGIN IONS
RTINSECONDS=113.178001
CHARGE=1+
MSLEVEL=2
SMILES=O=C1c2cc(O)cc(O)c2C(=O)c2c1cc(C(=O)O)cc2O
INCHI=InChI=1S/C15H8O7/c16-6-3-8-12(10(18)4-6)14(20)11-7(13(8)19)1-5(15(21)22)2-9(11)17/h1-4,16-18H,(H,21,22)
INCHIKEY=ZJXVNNSMRGTDBI-UHFFFAOYSA-N
CLASS=Quinones
ADDUCT=[M+H]+
INSTRUMENT=Waters Q-ToF Xevo G2-XS
PRECURSOR_MZ=301.0348
COMPOUND_NAME=Emodic acid
ION_MODE=positive
FORMULA=C15H8O7
68.999069 1316.163086 
77.039215 2078.814453 
91.054184 5273.9375 
115.055176 22632.875 
165.018814 9262.585938 
171.044571 36461.25 
175.039627 12134.546875 
199.039307 65987.3125 
203.034653 28676.75 
227.034378 59074.96875 
255.030548 24900.859375 
257.046295 35041.21875 
259.024506 45986.5 
283.024536 22854.453125 
410.619568 47.0 
428.437622 33.0 
439.567291 26.0 
610.126282 25.0 
656.741211 42.0 
END IONS

BEGIN IONS
RTINSECONDS=191.462997
CHARGE=1+
MSLEVEL=2
SMILES=CC1=C(C(=O)O)[C@@H](CCCCCCCCCCCCC(C)CO)OC1=O
INCHI=InChI=1S/C21H36O5/c1-16(15-22)13-11-9-7-5-3-4-6-8-10-12-14-18-19(20(23)24)17(2)21(25)26-18/h16,18,22H,3-15H2,1-2H3,(H,23,24)/t16?,18-/m1/s1
INCHIKEY=FEGXSCTZZUZMJG-UHUGOGIASA-N
CLASS=Paraconic acids
ADDUCT=[M+H]+
INSTRUMENT=Waters Q-ToF Xevo G2-XS
PRECURSOR_MZ=369.2641
COMPOUND_NAME=Isomurolic acid
ION_MODE=positive
FORMULA=C21H36O5
67.055862 1203.993164 
79.055199 1045.600586 
81.070908 2869.878906 
93.071785 1124.0 
95.086258 3682.736328 
109.099625 1444.012695 
135.117493 844.502441 
163.147934 777.253906 
189.163849 300.479492 
223.170486 444.704102 
259.243469 376.943848 
261.255615 446.120605 
277.253479 3486.228516 
287.236725 2190.017578 
305.248535 10572.710938 
315.231415 819.385742 
333.242889 2688.775391 
351.252686 11184.03125 
443.90271 77.0 
451.539062 41.0 
454.693329 36.0 
461.858582 31.0 
473.009033 54.0 
499.156097 44.0 
508.137878 27.0 
524.04657 25.0 
556.017334 26.0 
560.917358 18.0 
598.303284 20.0 
612.141968 20.0 
614.579407 23.0 
614.635376 52.0 
623.099426 38.0 
652.406677 54.0 
669.618103 31.0 
675.16156 21.0 
681.457764 44.0 
683.576294 42.0 
695.408936 25.0 
716.147278 25.0 
732.946228 22.0 
744.57959 39.0 
790.485168 40.0 
795.973877 25.0 
797.533325 21.0 
END IONS

BEGIN IONS
RTINSECONDS=112.468002
CHARGE=1+
MSLEVEL=2
SMILES=O=C1C=C(OC)C(=O)c2c1c(c1c(c2O)C[C@H](C)OC1=O)O
INCHI=InChI=1S/C15H12O7/c1-5-3-6-9(15(20)22-5)14(19)10-7(16)4-8(21-2)13(18)11(10)12(6)17/h4-5,17,19H,3H2,1-2H3/t5-/m0/s1
INCHIKEY=VZSFONBSZGFZNH-YFKPBYRVSA-N
CLASS=Quinones
ADDUCT=[M+2Na-H]+
INSTRUMENT=Waters Q-ToF Xevo G2-XS
PRECURSOR_MZ=349.03
COMPOUND_NAME=Haemoventosine
ION_MODE=positive
FORMULA=C15H12O7
87.024719 28.0 
106.042374 51.0 
108.011673 38.0 
134.038345 42.0 
135.046219 46.0 
147.003098 54.582458 
149.059265 58.0 
162.034042 206.0 
190.026398 632.276367 
191.033798 112.820923 
218.019043 211.28833 
219.030807 115.654907 
246.019409 180.0 
257.007629 100.0 
261.041321 1903.555664 
289.033081 1040.637695 
302.009979 89.0 
317.032959 608.620605 
411.076508 33.0 
END IONS

BEGIN IONS
RTINSECONDS=181.949997
CHARGE=1+
MSLEVEL=2
SMILES=CC(CC)C(C(=O)NC(C(C)C)COC(=O)c1ccccc1)NC(=O)c1ccccc1
INCHI=InChI=1S/C25H32N2O4/c1-5-18(4)22(27-23(28)19-12-8-6-9-13-19)24(29)26-21(17(2)3)16-31-25(30)20-14-10-7-11-15-20/h6-15,17-18,21-22H,5,16H2,1-4H3,(H,26,29)(H,27,28)
INCHIKEY=CYKHBJCXJDXSPW-UHFFFAOYSA-N
CLASS=N-Containing Compounds
ADDUCT=[M+K]+
INSTRUMENT=Waters Q-ToF Xevo G2-XS
PRECURSOR_MZ=463.1999
COMPOUND_NAME=Isoarthonin
ION_MODE=positive
FORMULA=C25H32N2O4
56.814358 90.0 
69.071243 44.0 
77.041473 40.0 
105.035606 110.0 
123.033569 42.0 
129.102798 61.500671 
141.102264 281.243896 
156.101456 36.0 
191.113556 70.0 
197.164032 177.51416 
217.108521 44.0 
219.146851 281.0 
230.116394 60.0 
247.008163 98.0 
289.804779 57.0 
290.439728 67.0 
301.289246 61.0 
319.203827 1539.866211 
340.15387 2678.140625 
341.178802 990.250977 
342.181335 63.0 
343.20462 60.001038 
401.986206 37.0 
404.819427 41.0 
525.460205 20.0 
536.865784 28.0 
548.751831 20.0 
550.800659 20.0 
563.698792 19.0 
603.220581 19.0 
610.334717 26.0 
615.721802 21.0 
622.014465 35.0 
624.746094 18.0 
652.031128 21.0 
658.801392 21.0 
764.740417 18.0 
END IONS

BEGIN IONS
RTINSECONDS=156.197998
CHARGE=1+
MSLEVEL=2
SMILES=COc1cc(c2c(c1)C(=O)c1cc(cc(c1C2=O)O)C=O)O
INCHI=InChI=1S/C16H10O6/c1-22-8-4-10-14(12(19)5-8)16(21)13-9(15(10)20)2-7(6-17)3-11(13)18/h2-6,18-19H,1H3
INCHIKEY=MCPKJGRRWINKOH-UHFFFAOYSA-N
CLASS=Quinones
ADDUCT=[M+H+CH3OH]+
INSTRUMENT=Waters Q-ToF Xevo G2-XS
PRECURSOR_MZ=331.0818
COMPOUND_NAME=Fallacinal
ION_MODE=positive
FORMULA=C16H10O6
59.964283 47.0 
77.039482 58.0 
121.027153 120.0 
141.071289 145.0 
154.043381 170.475464 
169.066299 271.076172 
183.04628 269.219727 
197.061279 944.915527 
228.043411 534.0 
238.025574 571.0 
253.050491 1147.94043 
256.039398 564.897461 
271.060822 1863.385742 
299.055542 12509.765625 
382.504425 37.0 
398.901764 34.0 
402.132324 26.0 
403.152344 29.0 
426.389099 34.0 
441.213745 35.0 
471.682129 22.0 
497.725739 20.0 
498.417206 28.0 
503.779999 25.0 
513.011902 19.0 
561.637695 21.0 
600.928101 24.0 
618.884583 30.0 
630.805481 21.0 
646.403198 26.0 
658.801941 30.0 
661.587524 51.0 
667.542847 22.0 
713.163147 20.0 
786.253845 26.0 
END IONS

BEGIN IONS
RTINSECONDS=150.798004
CHARGE=1+
MSLEVEL=2
SMILES=Cc1cc(c2c(c1)C(=O)c1c(C2=O)c(cc(c1O)OC)O)O
INCHI=InChI=1S/C16H12O6/c1-6-3-7-11(8(17)4-6)16(21)12-9(18)5-10(22-2)15(20)13(12)14(7)19/h3-5,17-18,20H,1-2H3
INCHIKEY=GLLRIXZGBQOFLM-UHFFFAOYSA-N
CLASS=Quinones
ADDUCT=[M+H]+
INSTRUMENT=Waters Q-ToF Xevo G2-XS
PRECURSOR_MZ=301.0712
COMPOUND_NAME=Xanthorin
ION_MODE=positive
FORMULA=C16H12O6
55.232529 31.0 
65.04023 42.0 
77.036751 65.787964 
89.039101 63.0 
92.025986 79.0 
128.063446 570.416504 
155.0504 181.0 
156.056717 244.0 
184.053192 336.070557 
199.075516 202.161743 
212.046234 175.387329 
227.070831 664.834961 
255.066071 2240.896484 
258.054169 292.926025 
271.058777 1011.962891 
283.061401 644.0 
394.747528 21.0 
422.952423 21.0 
425.665466 22.0 
457.76532 36.0 
469.614746 41.0 
477.759674 33.0 
486.648926 21.0 
502.632324 25.0 
653.674622 43.0 
735.531982 19.0 
737.316772 22.0 
END IONS

BEGIN IONS
RTINSECONDS=175.501999
CHARGE=1+
MSLEVEL=2
SMILES=Oc1c2c(oc3c(c(C)cc(O)c3Cl)c2=O)cc(OC)c1
INCHI=InChI=1S/C15H11ClO5/c1-6-3-9(18)13(16)15-11(6)14(19)12-8(17)4-7(20-2)5-10(12)21-15/h3-5,17-18H,1-2H3
INCHIKEY=CCCPQTCGPQONAG-UHFFFAOYSA-N
CLASS=Xanthones and bis-Xanthones
ADDUCT=[M+H]+
INSTRUMENT=Waters Q-ToF Xevo G2-XS
PRECURSOR_MZ=307.0373
COMPOUND_NAME=Vinetorin
ION_MODE=positive
FORMULA=C15H11ClO5
77.040306 416.0 
115.05497 1436.112305 
127.05513 2642.0 
145.063751 2476.277344 
155.048752 7585.09375 
243.066422 144386.625 
246.008743 106498.1875 
264.019287 149181.0 
271.06073 45100.0625 
272.068878 120765.4375 
359.155548 49.0 
405.954865 21.0 
532.050415 20.0 
614.49115 33.0 
655.023987 22.0 
678.503662 21.0 
697.617554 23.0 
702.700623 26.0 
715.074585 24.0 
734.909729 21.0 
END IONS

BEGIN IONS
RTINSECONDS=111.022003
CHARGE=1+
MSLEVEL=2
SMILES=[C@@H]1(CC(=O)N2[C@H](C(=O)N[C@H](CC(=O)N3[C@@H](C(=O)N1)CCC3)c1ccccc1)CCC2)c1ccccc1
INCHI=InChI=1S/C28H32N4O4/c33-25-17-21(19-9-3-1-4-10-19)29-27(35)23-13-7-16-32(23)26(34)18-22(20-11-5-2-6-12-20)30-28(36)24-14-8-15-31(24)25/h1-6,9-12,21-24H,7-8,13-18H2,(H,29,35)(H,30,36)/t21-,22-,23-,24+/m1/s1
INCHIKEY=PDLPVRYEPINIBU-YCAMKHIRSA-N
CLASS=N-Containing Compounds
ADDUCT=[M+H+CH3OH]+
INSTRUMENT=Waters Q-ToF Xevo G2-XS
PRECURSOR_MZ=521.2764
COMPOUND_NAME=Roccanin
ION_MODE=positive
FORMULA=C28H32N4O4
70.068008 352.052734 
103.055511 255.664307 
106.065193 788.79541 
112.076469 214.291504 
131.050125 2337.0 
140.070572 575.750977 
200.107086 933.129395 
228.102676 2765.751953 
245.129379 1372.349609 
260.09314 695.468262 
277.121857 283.0 
287.142242 1049.703125 
333.156464 106.0 
350.180542 142.00293 
355.173706 146.975708 
373.186554 317.434814 
375.170776 612.055664 
388.184174 142.80835 
407.166809 192.0 
416.184998 311.026855 
424.18866 84.0 
476.218079 261.905029 
503.215759 237.0 
504.215454 219.0 
573.570251 27.0 
595.034668 22.0 
637.655701 25.0 
638.23645 26.0 
642.338379 26.0 
658.837952 20.0 
687.89801 23.0 
706.978882 20.0 
779.542297 26.0 
END IONS

BEGIN IONS
RTINSECONDS=191.563995
CHARGE=1+
MSLEVEL=2
SMILES=CC(=O)CCCCCCCCCCCCC[C@@H]1C(C(C)C(=O)O1)C(=O)O
INCHI=InChI=1S/C21H36O5/c1-16(22)14-12-10-8-6-4-3-5-7-9-11-13-15-18-19(20(23)24)17(2)21(25)26-18/h17-19H,3-15H2,1-2H3,(H,23,24)/t17?,18-,19?/m1/s1
INCHIKEY=SPGPUDJMXMJNCU-JLAWEPINSA-N
CLASS=Paraconic acids
ADDUCT=[M+H]+
INSTRUMENT=Waters Q-ToF Xevo G2-XS
PRECURSOR_MZ=369.2641
COMPOUND_NAME=Dihydromuronic acid
ION_MODE=positive
FORMULA=C21H36O5
81.069534 222.0 
95.08725 289.0 
109.103104 218.0 
111.11364 147.0 
119.087173 154.0 
163.149124 136.388062 
239.178543 78.0 
261.251556 98.0 
277.25708 465.608398 
287.235626 187.372192 
305.24823 1648.654297 
315.234039 325.0 
351.251862 1067.782227 
499.909698 33.0 
531.811035 25.0 
780.57428 19.0 
END IONS

BEGIN IONS
RTINSECONDS=158.216995
CHARGE=1+
MSLEVEL=2
SMILES=O=C(OC)c1c(C)cc(O)c(C=O)c1O
INCHI=InChI=1S/C10H10O5/c1-5-3-7(12)6(4-11)9(13)8(5)10(14)15-2/h3-4,12-13H,1-2H3
INCHIKEY=PXFMUVDLJWXOQM-UHFFFAOYSA-N
CLASS=Cleavage Products of Depsides and Depsidones
ADDUCT=[2M+Na+CH3OH]+
INSTRUMENT=Waters Q-ToF Xevo G2-XS
PRECURSOR_MZ=475.1216
COMPOUND_NAME=Methyl Haematommate
ION_MODE=positive
FORMULA=C10H10O5
55.093967 20.0 
55.367264 37.0 
67.446991 30.0 
88.459663 41.0 
113.804077 33.0 
117.554558 30.0 
181.978867 115.409546 
229.965851 475.622803 
250.964371 608.0 
251.985413 427.562256 
269.997864 2035.595703 
279.979492 955.385742 
297.991913 1541.737305 
307.978363 1061.351562 
325.986115 812.0 
335.971436 1409.241211 
363.967102 35872.59375 
381.978149 58893.40625 
399.983765 1415.614258 
409.972565 104719.0625 
410.05307 804.833984 
441.998657 38517.15625 
547.153198 26.0 
558.821594 43.0 
568.012512 54.0 
616.21283 29.0 
617.374023 28.0 
617.939758 67.0 
619.166077 45.0 
633.360962 28.0 
634.123474 24.0 
634.439392 30.0 
668.494507 23.0 
705.260559 21.0 
717.623901 40.0 
730.102905 19.0 
735.197754 18.0 
758.286133 18.0 
766.522644 23.0 
768.930908 18.0 
END IONS

BEGIN IONS
RTINSECONDS=146.048996
CHARGE=1+
MSLEVEL=2
SMILES=O=C1c2c(C)cc(O)c(C=O)c2Oc2c(O1)c(c(c1c2C(O)OC1=O)O)C
INCHI=InChI=1S/C18H12O9/c1-5-3-8(20)7(4-19)14-9(5)16(22)26-13-6(2)12(21)10-11(15(13)25-14)18(24)27-17(10)23/h3-4,18,20-21,24H,1-2H3
INCHIKEY=IEVVSJFLBYOUCJ-UHFFFAOYSA-N
CLASS=Depsidones
ADDUCT=[M+H]+
INSTRUMENT=Waters Q-ToF Xevo G2-XS
PRECURSOR_MZ=373.056
COMPOUND_NAME=Norstictic acid
ION_MODE=positive
FORMULA=C18H12O9
83.013748 1002.507812 
105.067581 2460.839844 
115.053841 2567.771484 
128.062363 2125.257812 
131.051346 3390.0 
161.058334 5001.71875 
187.040878 12845.023438 
189.054947 10593.203125 
215.03447 24042.875 
217.049438 33537.6875 
243.035553 18403.078125 
245.044724 40635.03125 
269.044342 13888.890625 
299.022003 64389.625 
301.070923 15517.085938 
311.054749 70468.5 
325.034027 21035.734375 
327.049438 131753.625 
355.043823 80485.0625 
436.077789 39.0 
439.745636 90.0 
448.388855 92.0 
452.255829 39.0 
457.029388 44.0 
461.733948 40.0 
492.588837 53.0 
508.373688 38.0 
521.724243 47.0 
546.235718 39.0 
569.875916 59.0 
581.49884 49.0 
593.920593 36.0 
602.871643 44.0 
629.555298 34.0 
637.71582 31.0 
647.099854 58.0 
650.430603 31.0 
652.519409 89.0 
666.282166 36.0 
700.550659 40.0 
707.004272 55.0 
708.925842 51.0 
715.747009 35.0 
729.364624 53.0 
778.778687 32.0 
780.148621 39.0 
781.736572 26.0 
787.541687 25.0 
787.631042 30.0 
END IONS

BEGIN IONS
RTINSECONDS=159.873001
CHARGE=1+
MSLEVEL=2
SMILES=O=C1c2c(C(=O)CCCC)cc(OC)cc2Oc2c(O1)cc(c(c2CCCCC)C(=O)O)O
INCHI=InChI=1S/C25H28O8/c1-4-6-8-9-15-21(24(28)29)18(27)13-20-23(15)32-19-12-14(31-3)11-16(17(26)10-7-5-2)22(19)25(30)33-20/h11-13,27H,4-10H2,1-3H3,(H,28,29)
INCHIKEY=JHEWMLHQNRHTQX-UHFFFAOYSA-N
CLASS=Depsidones
ADDUCT=[M+NH4]+
INSTRUMENT=Waters Q-ToF Xevo G2-XS
PRECURSOR_MZ=474.2128
COMPOUND_NAME=Lobaric acid
ION_MODE=positive
FORMULA=C25H28O8
103.058472 86.0 
105.068665 132.716064 
129.069336 130.720215 
151.037964 201.0 
161.058151 140.0 
179.03334 505.017334 
193.049957 212.521851 
203.070496 214.953857 
217.08519 231.921143 
235.095261 802.144531 
269.114441 161.0 
284.027863 173.0 
287.130585 340.904297 
341.177368 579.102539 
357.134979 828.999023 
371.183014 1497.40918 
393.165985 1521.253906 
397.164307 6031.234375 
411.179626 2120.015625 
413.194275 5270.933594 
455.169159 8708.195312 
457.185852 12848.320312 
529.641296 28.0 
543.761108 30.0 
577.448547 23.0 
600.12384 39.0 
624.580444 28.0 
651.12439 47.0 
653.370056 39.0 
654.027283 22.0 
657.534485 55.0 
708.246765 135.0 
743.883728 34.0 
750.578186 35.0 
757.215576 28.0 
780.845886 56.0 
784.912659 66.0 
791.617676 22.0 
END IONS

BEGIN IONS
RTINSECONDS=170.212006
CHARGE=1+
MSLEVEL=2
SMILES=CCCCCC1=CC(=O)C=C(OC)C21C(=O)Oc1c2c(c(c(c1)O)C(=O)O)CCCCC
INCHI=InChI=1S/C25H30O7/c1-4-6-8-10-15-12-16(26)13-20(31-3)25(15)22-17(11-9-7-5-2)21(23(28)29)18(27)14-19(22)32-24(25)30/h12-14,27H,4-11H2,1-3H3,(H,28,29)
INCHIKEY=LOGCRVAWKCZXQM-UHFFFAOYSA-N
CLASS=Depsones
ADDUCT=[M+H+CH3OH]+
INSTRUMENT=Waters Q-ToF Xevo G2-XS
PRECURSOR_MZ=475.2332
COMPOUND_NAME=Picrolichenic acid
ION_MODE=positive
FORMULA=C25H30O7
79.055511 175.0 
91.055359 245.0 
137.059357 897.0 
139.075821 739.261719 
151.075607 1462.883789 
152.083481 2121.464844 
207.137482 800.11084 
208.144714 913.159668 
209.155334 1598.490234 
217.082626 1156.226562 
245.081223 970.0 
273.109894 893.290527 
301.142487 1318.662109 
310.124542 688.0 
311.13092 1137.65625 
327.124573 880.757812 
343.15274 7808.628906 
366.182709 2420.267578 
381.205109 3632.177734 
399.216949 2376.466797 
413.232208 57049.65625 
425.194244 3200.695312 
443.207123 1706.850586 
457.220276 16353.046875 
567.444092 29.0 
573.061829 54.0 
602.839172 42.0 
623.893616 52.0 
627.278076 34.0 
644.296021 46.0 
664.448608 35.0 
665.625732 46.0 
676.863586 59.0 
699.890808 29.0 
710.444214 33.0 
728.822083 27.0 
747.90332 37.0 
773.515076 38.0 
776.061218 25.0 
END IONS

BEGIN IONS
RTINSECONDS=100.385002
CHARGE=1+
MSLEVEL=2
SMILES=Cc1cc(=O)c2c(o1)cc1c(c2O)C(=CC(=O)C1=O)O
INCHI=InChI=1S/C14H8O6/c1-5-2-7(15)12-10(20-5)3-6-11(14(12)19)8(16)4-9(17)13(6)18/h2-4,16,19H,1H3
INCHIKEY=NPUXQAACUNUHIX-UHFFFAOYSA-N
CLASS=Quinones
ADDUCT=[M+H]+
INSTRUMENT=Waters Q-ToF Xevo G2-XS
PRECURSOR_MZ=273.0399
COMPOUND_NAME=Canarione
ION_MODE=positive
FORMULA=C14H8O6
68.998764 10311.65625 
75.023964 7027.523438 
79.020287 13344.96875 
103.023499 13981.21875 
107.013863 221669.375 
121.030289 15074.734375 
131.013947 70815.875 
135.008835 17152.0 
163.002884 80884.9375 
175.039871 43690.6875 
187.003433 34787.34375 
203.034897 583929.0 
205.013367 146783.75 
245.046112 1062656.0 
346.193115 81.0 
366.529846 66.0 
368.098694 109.0 
372.6203 76.0 
399.264893 57.0 
410.487427 90.0 
454.985413 69.0 
463.623474 39.0 
529.069702 162.0 
533.914307 83.0 
540.247009 56.0 
553.446411 53.078003 
557.087952 54.211182 
591.683533 46.0 
601.441101 51.0 
602.933533 121.0 
639.318481 46.0 
646.392883 53.0 
654.912842 45.0 
656.708496 88.0 
673.637817 78.0 
674.303345 42.0 
712.749573 41.0 
733.758667 84.0 
756.772461 35.0 
794.232056 97.0 
END IONS

BEGIN IONS
RTINSECONDS=123.391998
CHARGE=1+
MSLEVEL=2
SMILES=O=C1C=C(OC)C(=O)c2c1c(c1c(c2O)C[C@H](C)OC1=O)O
INCHI=InChI=1S/C15H12O7/c1-5-3-6-9(15(20)22-5)14(19)10-7(16)4-8(21-2)13(18)11(10)12(6)17/h4-5,17,19H,3H2,1-2H3/t5-/m0/s1
INCHIKEY=VZSFONBSZGFZNH-YFKPBYRVSA-N
CLASS=Quinones
ADDUCT=[M+Na]+
INSTRUMENT=Waters Q-ToF Xevo G2-XS
PRECURSOR_MZ=327.0481
COMPOUND_NAME=Haemoventosine
ION_MODE=positive
FORMULA=C15H12O7
115.964943 20.0 
140.03215 18.0 
171.857147 33.0 
189.868073 51.0 
198.02771 46.0 
217.872681 45.0 
245.879486 71.763977 
267.903198 68.0 
299.039917 173.921265 
345.056427 180.0 
END IONS

BEGIN IONS
RTINSECONDS=298.136993
CHARGE=1+
MSLEVEL=2
SMILES=c1ccc(cc1)C1=C(C(=O)C(=C(C1=O)O)c1ccccc1)O
INCHI=InChI=1S/C18H12O4/c19-15-13(11-7-3-1-4-8-11)16(20)18(22)14(17(15)21)12-9-5-2-6-10-12/h1-10,19,22H
INCHIKEY=HZKFHDXTSAYOSN-UHFFFAOYSA-N
CLASS=Quinones
ADDUCT=[2M+H+CH3CN]+
INSTRUMENT=Waters Q-ToF Xevo G2-XS
PRECURSOR_MZ=626.1815
COMPOUND_NAME=Polyporic acid
ION_MODE=positive
FORMULA=C18H12O4
55.612537 32.0 
62.148533 24.0 
62.255066 18.0 
64.204536 22.0 
73.047951 817.11084 
89.041405 72.0 
147.067215 263.066162 
149.046249 272.308105 
150.977478 30.0 
163.062057 312.0 
205.047699 107.0 
207.074356 99.921265 
221.086365 925.930664 
237.081329 1440.0 
266.99939 1451.266602 
281.052124 1349.591797 
285.012421 476.493896 
299.063202 451.491699 
326.965668 231.618042 
355.024536 218.853882 
355.069855 9675.148438 
371.060852 368.626221 
400.981842 666.75 
415.036041 483.286133 
415.062836 98.0 
418.99173 96.459045 
429.093231 65.0 
488.684113 51.0 
489.054932 118.692017 
489.086029 52.0 
503.040344 33.0 
503.11145 61.319794 
503.681458 33.0 
511.832062 33.0 
577.123413 854.301758 
593.113708 786.0 
609.15094 316.368652 
690.524353 20.0 
690.581421 25.0 
793.523315 21.0 
END IONS

BEGIN IONS
RTINSECONDS=158.016998
CHARGE=1+
MSLEVEL=2
SMILES=O=c1oc(CCCCC)cc2c1c(cc(c2)OC)Oc1c(CC(=O)CCCCC)c(C(=O)O)c(O)cc1O
INCHI=InChI=1S/C29H34O9/c1-4-6-8-10-18(30)14-21-26(28(33)34)22(31)16-23(32)27(21)38-24-15-20(36-3)13-17-12-19(11-9-7-5-2)37-29(35)25(17)24/h12-13,15-16,31-32H,4-11,14H2,1-3H3,(H,33,34)
INCHIKEY=NDOGMEJTCDSZAS-UHFFFAOYSA-N
CLASS=Diphenylethers
ADDUCT=[M+NH4]+
INSTRUMENT=Waters Q-ToF Xevo G2-XS
PRECURSOR_MZ=544.2547
COMPOUND_NAME=Beta-Collatolic acid
ION_MODE=positive
FORMULA=C29H34O9
81.072983 38.0 
99.0811 55.0 
123.046097 411.98584 
150.032654 555.033203 
177.057114 739.785645 
192.042709 543.76416 
193.049759 1171.644531 
206.058258 3297.146484 
221.049118 382.0 
247.098038 310.828613 
248.105103 315.587402 
311.061371 188.640381 
365.135925 242.446289 
367.118011 3103.458984 
381.134064 494.0 
409.132599 508.32251 
411.144623 345.728271 
423.145691 1487.132812 
453.156067 797.136719 
465.188599 2572.359375 
481.223816 1039.481445 
499.236664 1824.641602 
507.200378 8299.492188 
525.212524 13979.859375 
616.682129 28.0 
623.515076 20.0 
642.568909 20.0 
657.559265 18.0 
677.154541 18.0 
688.759827 25.0 
701.435364 24.0 
706.263306 21.0 
716.528687 18.0 
735.334595 20.0 
751.068237 28.0 
766.139893 24.0 
END IONS

BEGIN IONS
RTINSECONDS=123.646004
CHARGE=1+
MSLEVEL=2
SMILES=O=C1C=C(OC)C(=O)c2c1c(c1c(c2O)C[C@H](C)OC1=O)O
INCHI=InChI=1S/C15H12O7/c1-5-3-6-9(15(20)22-5)14(19)10-7(16)4-8(21-2)13(18)11(10)12(6)17/h4-5,17,19H,3H2,1-2H3/t5-/m0/s1
INCHIKEY=VZSFONBSZGFZNH-YFKPBYRVSA-N
CLASS=Quinones
ADDUCT=[2M+Na]+
INSTRUMENT=Waters Q-ToF Xevo G2-XS
PRECURSOR_MZ=631.1064
COMPOUND_NAME=Haemoventosine
ION_MODE=positive
FORMULA=C15H12O7
50.279743 18.0 
51.145992 43.0 
73.901161 43.0 
92.500069 56.0 
94.236549 28.0 
97.94796 31.0 
109.21328 41.0 
109.967514 35.0 
163.790024 68.0 
172.841064 57.0 
182.920059 54.0 
184.618011 57.0 
198.587585 58.0 
218.075806 89.0 
230.641129 82.0 
234.471924 60.0 
256.475922 45.0 
326.950439 673.038574 
326.991821 970.610352 
327.048737 249965.75 
327.122986 1103.364258 
327.232056 1347.0 
345.05658 425.434082 
399.821838 49.0 
435.119843 47.0 
436.44696 53.0 
457.708496 49.0 
461.358765 73.0 
464.64389 50.0 
478.073792 50.0 
478.565796 85.0 
487.055176 39.0 
543.547424 30.0 
546.695679 30.0 
557.05658 31.0 
570.973999 34.0 
684.104065 25.0 
691.201233 57.0 
710.168274 36.0 
739.488464 24.0 
741.446045 24.0 
744.947693 24.0 
750.204529 20.0 
753.216064 20.0 
768.687378 25.0 
769.733948 21.0 
771.715332 18.0 
END IONS

BEGIN IONS
RTINSECONDS=171.763
CHARGE=1+
MSLEVEL=2
SMILES=CC[C@@H](C)[C@H](NC(=O)c1ccccc1)C(=O)OC[C@@H](NC(=O)c1ccccc1)C(C)C
INCHI=InChI=1S/C25H32N2O4/c1-5-18(4)22(27-24(29)20-14-10-7-11-15-20)25(30)31-16-21(17(2)3)26-23(28)19-12-8-6-9-13-19/h6-15,17-18,21-22H,5,16H2,1-4H3,(H,26,28)(H,27,29)/t18-,21-,22+/m1/s1
INCHIKEY=YYJRAGPDSYXARF-QIJUGHKUSA-N
CLASS=N-Containing Compounds
ADDUCT=[M+Na]+
INSTRUMENT=Waters Q-ToF Xevo G2-XS
PRECURSOR_MZ=447.226
COMPOUND_NAME=Arthonin
ION_MODE=positive
FORMULA=C25H32N2O4
77.03933 3095.208984 
104.048943 564.0 
105.034058 38971.78125 
108.078568 913.0 
122.059814 1291.444336 
145.027084 1408.631836 
190.122543 99089.1875 
190.169342 381.84668 
191.12561 747.84082 
212.10405 1268.583008 
258.026154 1234.235352 
258.110901 309928.5 
258.177307 1833.473633 
258.273041 4574.484375 
259.113495 849.856934 
311.897369 169.0 
354.322357 88.0 
355.686035 123.0 
366.881042 76.0 
381.999146 105.0 
515.216675 144.431396 
551.125061 64.0 
555.561768 68.0 
584.789978 58.0 
618.054871 41.0 
636.428284 114.0 
685.39502 121.0 
700.60437 143.0 
704.181396 107.0 
704.326477 1664.293945 
705.331421 327.0 
766.059387 30.0 
772.328003 113.0 
776.703674 29.0 
END IONS

BEGIN IONS
RTINSECONDS=144.186996
CHARGE=1+
MSLEVEL=2
SMILES=CC1C(OC2(C(C1O)C)C(C1C(C(=O)C2(C(=O)O1)C)C)C)C
INCHI=InChI=1S/C17H26O5/c1-7-11(5)22-17(9(3)12(7)18)10(4)13-8(2)14(19)16(17,6)15(20)21-13/h7-13,18H,1-6H3
INCHIKEY=CVPVGRDVSAJUQS-UHFFFAOYSA-N
CLASS=Aliphatic and Cycloaliphatic Compounds
ADDUCT=[M+Na]+
INSTRUMENT=Waters Q-ToF Xevo G2-XS
PRECURSOR_MZ=333.1678
COMPOUND_NAME=Portentol
ION_MODE=positive
FORMULA=C17H26O5
83.013809 383.0 
88.18969 141.0 
95.085754 75.0 
151.111633 97.0 
153.09256 138.0 
153.123337 211.0 
163.03833 1429.0 
191.066483 141.0 
221.110458 212.0 
225.491806 188.0 
233.150833 179.428101 
277.104492 36411.75 
278.110382 598.575195 
289.142151 7854.132812 
315.155701 30436.921875 
393.0849 60.0 
399.29129 50.0 
409.680145 47.0 
418.735291 49.0 
422.784821 69.0 
441.266113 49.0 
455.336884 40.0 
469.072754 74.0 
482.029144 39.0 
493.016846 33.0 
495.623199 39.0 
497.664795 71.0 
501.267853 33.0 
546.057495 28.0 
549.592285 31.0 
551.950439 36.0 
564.282471 31.0 
566.721863 33.0 
579.226807 24.0 
601.018372 33.0 
607.683167 43.0 
633.632568 76.0 
636.18335 56.0 
650.890564 106.0 
668.63385 60.0 
694.112305 47.0 
718.745178 44.0 
723.707703 50.0 
732.901245 40.0 
747.347839 82.0 
750.181702 71.0 
773.503662 50.0 
788.467346 84.0 
790.32074 40.0 
795.386047 53.0 
END IONS

BEGIN IONS
RTINSECONDS=281.834991
CHARGE=1+
MSLEVEL=2
SMILES=nan
INCHI=nan
CLASS=Quinones
ADDUCT=[M+2Na-H]+
INSTRUMENT=Waters Q-ToF Xevo G2-XS
PRECURSOR_MZ=583.0617
COMPOUND_NAME=Isoskyrin
ION_MODE=positive
61.677589 65.0 
75.867683 25.0 
99.374474 131.0 
101.063148 45.0 
104.223824 30.0 
115.064606 39.0 
135.00058 46.0 
156.123154 52.0 
163.6698 32.0 
172.023544 35.0 
203.039185 33.0 
214.139099 39.0 
215.03186 77.0 
219.308121 28.0 
269.04303 112.0 
281.041687 56.0 
282.068451 62.0 
283.059723 202.060303 
295.082245 83.0 
309.042999 97.0 
327.7005 41.0 
360.380035 35.0 
365.076019 40.0 
375.055542 38.0 
383.234833 39.0 
383.27948 112.0 
427.078888 224.356445 
427.110565 71.523193 
465.089844 164.0 
481.098022 564.0 
483.096985 73.0 
484.898804 71.0 
505.097565 175.0 
533.080811 719.024414 
641.958191 43.0 
649.19635 40.0 
658.91925 48.0 
670.617432 41.0 
688.935364 27.0 
695.41156 28.0 
728.995056 48.0 
758.009888 36.0 
758.528809 40.0 
764.807434 37.0 
769.838013 99.0 
770.15332 85.0 
779.047974 30.0 
END IONS

BEGIN IONS
RTINSECONDS=155.753998
CHARGE=1+
MSLEVEL=2
SMILES=O=c1c2c(oc3c1c(C)cc(O)c3Cl)cc(O)c(Cl)c2O
INCHI=InChI=1S/C14H8Cl2O5/c1-4-2-5(17)11(16)14-8(4)12(19)9-7(21-14)3-6(18)10(15)13(9)20/h2-3,17-18,20H,1H3
INCHIKEY=GKSZPGKBFDLXNF-UHFFFAOYSA-N
CLASS=Xanthones and bis-Xanthones
ADDUCT=[2M+Na+CH3OH]+
INSTRUMENT=Waters Q-ToF Xevo G2-XS
PRECURSOR_MZ=706.9657
COMPOUND_NAME="2,5-Dichloronorlichexanthone"
ION_MODE=positive
FORMULA=C14H8Cl2O5
50.22467 29.0 
56.898952 33.0 
64.397728 19.0 
105.463394 29.0 
108.180305 24.0 
132.165161 18.0 
138.70166 21.0 
186.993362 22.0 
203.842484 24.0 
204.533066 19.0 
209.134033 21.0 
234.010757 36.541809 
238.054276 37.0 
261.998322 315.012695 
264.000397 113.154785 
289.998657 392.0 
291.993988 348.0 
323.957123 901.157715 
324.968231 100.423828 
325.955536 462.573242 
379.878418 75.0 
381.887207 97.338013 
398.915619 60.0 
399.907379 70.0 
400.909515 59.926178 
416.856659 63.0 
459.879639 100.0 
468.617767 37.0 
476.663696 51.0 
476.948975 47.0 
509.617676 45.0 
533.995605 51.0 
543.922058 41.0 
552.216248 48.0 
562.989197 49.761108 
575.752563 44.0 
634.90509 77.0 
641.880005 56.0 
643.892761 189.0 
672.891602 540.166504 
767.198792 80.0 
792.253235 18.0 
799.764832 20.0 
END IONS

BEGIN IONS
RTINSECONDS=167.695007
CHARGE=1+
MSLEVEL=2
SMILES=O=C1C(=C(O)/C(=C(/c2ccccc2)\C(=O)O)/O1)c1ccccc1
INCHI=InChI=1S/C18H12O5/c19-15-13(11-7-3-1-4-8-11)18(22)23-16(15)14(17(20)21)12-9-5-2-6-10-12/h1-10,19H,(H,20,21)/b16-14+
INCHIKEY=CMFBGFRHPQTELQ-JQIJEIRASA-N
CLASS=Pulvinic Acid Derivatives
ADDUCT=[M+H]+
INSTRUMENT=Waters Q-ToF Xevo G2-XS
PRECURSOR_MZ=309.0763
COMPOUND_NAME=Pulvinic acid
ION_MODE=positive
FORMULA=C18H12O5
77.040985 115.0 
89.039612 1443.427734 
117.034302 434.0 
145.028656 471.0 
178.078217 10866.617188 
179.085526 2127.478516 
207.080887 14228.742188 
217.065979 451.934326 
235.075623 6691.246094 
263.070251 14657.289062 
291.067474 12277.96875 
346.774109 39.0 
350.568237 39.0 
405.057861 36.0 
407.018158 43.0 
407.157776 27.0 
421.17099 25.0 
457.738953 32.0 
482.285339 32.0 
487.304535 33.0 
496.890594 62.0 
532.081604 46.0 
542.404907 26.0 
544.749084 43.0 
566.182495 26.0 
586.022888 41.0 
603.310303 64.0 
608.016724 46.0 
619.098083 22.0 
634.753479 27.0 
657.247498 23.0 
669.374939 30.0 
679.510254 23.0 
680.151611 29.0 
687.928345 42.0 
702.771606 23.0 
728.227234 21.0 
737.914551 21.0 
743.636536 20.0 
754.085083 24.0 
766.396973 28.0 
771.832153 24.0 
END IONS

BEGIN IONS
RTINSECONDS=147.440994
CHARGE=1+
MSLEVEL=2
SMILES=O=C1c2c(C)cc(OC)c(C)c2Oc2c(O1)cc(c(c2C)C(=O)O)O
INCHI=InChI=1S/C18H16O7/c1-7-5-11(23-4)8(2)16-13(7)18(22)24-12-6-10(19)14(17(20)21)9(3)15(12)25-16/h5-6,19H,1-4H3,(H,20,21)
INCHIKEY=IXEVSIMCIWOSQO-UHFFFAOYSA-N
CLASS=Depsidones
ADDUCT=[M+H]+
INSTRUMENT=Waters Q-ToF Xevo G2-XS
PRECURSOR_MZ=345.0974
COMPOUND_NAME=Notatic acid
ION_MODE=positive
FORMULA=C18H16O7
91.055115 25510.515625 
115.054779 74693.4375 
128.062668 109957.875 
129.070404 96132.3125 
130.078247 103717.25 
158.072723 293354.5 
159.079559 118723.25 
173.095032 256220.0 
186.0681 224439.125 
201.089996 281742.0 
229.086929 355336.25 
231.105301 729884.0 
257.08255 249113.375 
259.096619 181886.0 
271.060516 984014.0 
285.078339 1207159.0 
327.086426 345943.5 
414.360321 97.0 
422.682129 84.0 
450.766449 108.0 
460.272461 83.809265 
462.836487 97.0 
480.37439 77.0 
480.973267 77.0 
511.939209 104.0 
512.986145 102.732239 
521.54126 69.0 
538.729431 76.0 
540.448181 106.0 
583.426025 111.0 
602.997253 80.0 
608.188721 71.0 
616.461426 78.0 
633.637207 82.0 
661.523621 71.0 
684.169312 82.0 
690.220459 93.0 
731.774902 64.0 
738.152344 92.0 
783.285706 110.0 
END IONS

BEGIN IONS
RTINSECONDS=161.268005
CHARGE=1+
MSLEVEL=2
SMILES=Cc1c(c(O)cc(O)c1)C(=O)Oc1cc(OC)c(C(=O)Oc2cc(O)c(C(=O)O)c(C)c2)c(C)c1
INCHI=InChI=1S/C25H22O10/c1-11-5-14(26)8-17(27)21(11)24(31)35-16-7-13(3)22(19(10-16)33-4)25(32)34-15-6-12(2)20(23(29)30)18(28)9-15/h5-10,26-28H,1-4H3,(H,29,30)
INCHIKEY=BXLGBRLDRRZQKR-UHFFFAOYSA-N
CLASS=Depsides (Tridepsides)
ADDUCT=[M+H]+
INSTRUMENT=Waters Q-ToF Xevo G2-XS
PRECURSOR_MZ=483.1291
COMPOUND_NAME=Ovoic acid
ION_MODE=positive
FORMULA=C25H22O10
79.056084 83.0 
81.071381 73.0 
94.04232 94.0 
107.050644 302.0 
109.067528 86.0 
122.037743 489.0 
150.032333 268.0 
165.017227 113.430847 
165.055191 19966.40625 
165.100296 106.0 
191.402924 59.0 
265.000397 24.0 
270.798767 25.0 
291.691498 51.0 
315.083221 142.0 
316.094055 47.0 
325.325287 40.0 
333.303986 54.0 
340.02359 62.0 
373.81076 40.0 
375.676392 47.0 
387.679901 49.0 
423.792023 39.0 
442.170166 72.0 
442.227692 66.0 
455.26178 34.0 
511.125305 39.0 
534.858704 26.0 
535.94342 26.0 
542.629822 18.0 
566.308289 28.0 
594.466553 18.0 
608.051697 20.0 
609.982239 27.0 
619.117737 28.0 
623.106873 23.0 
630.828491 20.0 
660.042358 27.0 
686.556519 26.0 
699.485046 19.0 
703.332458 41.0 
783.03064 19.0 
END IONS

BEGIN IONS
RTINSECONDS=196.384003
CHARGE=1+
MSLEVEL=2
SMILES=Cc1cc(c(c(c1OC(=O)c1c(c(c(cc1C)OC)C(=O)O)O)O)C=O)O
INCHI=InChI=1S/C18H16O9/c1-7-5-11(26-3)13(17(23)24)15(22)12(7)18(25)27-16-8(2)4-10(20)9(6-19)14(16)21/h4-6,20-22H,1-3H3,(H,23,24)
INCHIKEY=JQHGZAGUFPJYDL-UHFFFAOYSA-N
CLASS=Depsides (Didepsides)
ADDUCT=[M+2Na-H]+
INSTRUMENT=Waters Q-ToF Xevo G2-XS
PRECURSOR_MZ=421.0511
COMPOUND_NAME=Decarboxythamnolic acid
ION_MODE=positive
FORMULA=C18H16O9
57.009705 33.0 
57.864986 28.0 
73.580353 20.0 
112.996407 35.0 
113.965652 28.0 
115.968491 28.0 
120.968636 43.0 
127.002419 21.0 
141.085037 71.0 
146.982147 461.344727 
191.034592 55.0 
203.041992 98.0 
209.037659 60.0 
221.004547 39.0 
221.05658 236.529419 
242.008621 60.0 
275.908691 30.0 
277.108765 42.0 
280.59845 47.0 
321.142883 1690.733398 
334.03775 41.0 
357.171173 34.0 
362.486877 44.0 
479.660065 42.0 
487.297028 18.0 
505.14975 21.0 
639.320129 44.0 
661.683655 21.0 
716.18457 24.0 
END IONS

BEGIN IONS
RTINSECONDS=262.247009
CHARGE=1+
MSLEVEL=2
SMILES=Cc1cc(OC)cc2c1c(=O)c1c(cc(OC)c(Cl)c1O)o2
INCHI=InChI=1S/C16H13ClO5/c1-7-4-8(20-2)5-9-12(7)15(18)13-10(22-9)6-11(21-3)14(17)16(13)19/h4-6,19H,1-3H3
INCHIKEY=MDGIQNQUOXZRIT-UHFFFAOYSA-N
CLASS=Xanthones and bis-Xanthones
ADDUCT=[M+H]+
INSTRUMENT=Waters Q-ToF Xevo G2-XS
PRECURSOR_MZ=321.053
COMPOUND_NAME=2-Chlorolichexanthone
ION_MODE=positive
FORMULA=C16H13ClO5
83.086082 174.0 
93.072624 87.0 
97.102089 244.441895 
109.101608 242.0 
121.104385 84.996277 
123.116882 169.0 
135.121017 77.863892 
165.166458 46.0 
177.163071 61.0 
207.214478 60.0 
221.22493 34.0 
237.222275 51.0 
252.878448 38.0 
281.053253 139.332397 
303.295685 172.212036 
433.023529 28.0 
624.64917 20.0 
END IONS

BEGIN IONS
RTINSECONDS=161.427002
CHARGE=1+
MSLEVEL=2
SMILES=O=C(OC)/C(=C\1/OC(=O)C(=C1OC)c1ccccc1)/c1c(OC)cccc1
INCHI=InChI=1S/C21H18O6/c1-24-15-12-8-7-11-14(15)17(20(22)26-3)19-18(25-2)16(21(23)27-19)13-9-5-4-6-10-13/h4-12H,1-3H3/b19-17+
INCHIKEY=WGZKMINRLLRJPF-HTXNQAPBSA-N
CLASS=Pulvinic Acid Derivatives
ADDUCT=[M+H+CH3CN]+
INSTRUMENT=Waters Q-ToF Xevo G2-XS
PRECURSOR_MZ=408.1447
COMPOUND_NAME=Leprapinic acid methyl ether
ION_MODE=positive
FORMULA=C21H18O6
89.039612 1066.758789 
91.055367 759.0 
115.054878 1485.0 
118.042633 949.451172 
145.029968 888.697754 
161.061386 3148.666016 
189.055649 8973.21875 
221.066864 941.42627 
235.076157 8197.453125 
249.091888 1904.186523 
250.097214 1118.0 
263.07428 5447.21875 
278.095245 1357.529297 
293.118195 98074.4375 
321.112701 48733.96875 
335.091919 5802.320312 
349.107574 9035.601562 
377.012634 605.843262 
377.102722 125368.8125 
377.176422 1034.137695 
433.590698 116.0 
468.268555 52.0 
475.222717 45.0 
491.742981 43.0 
491.879608 41.0 
492.554565 56.0 
541.933777 34.0 
568.546997 40.0 
572.888611 38.0 
582.646851 35.0 
589.528198 41.0 
592.835266 37.0 
600.353821 52.0 
656.989502 43.0 
657.494263 35.0 
674.742065 38.0 
695.804199 55.0 
707.961304 49.0 
737.100586 87.0 
739.985596 38.0 
742.194946 65.0 
752.159851 35.0 
785.337524 41.0 
798.36731 32.0 
END IONS

BEGIN IONS
RTINSECONDS=19.079
CHARGE=1+
MSLEVEL=2
SMILES=COC1=C(NC(CO)CO)C[C@](CO)(O)CC1=O
INCHI=InChI=1S/C11H19NO6/c1-18-10-8(12-7(4-13)5-14)2-11(17,6-15)3-9(10)16/h7,12-15,17H,2-6H2,1H3/t11-/m0/s1
INCHIKEY=VVTDHOIRNPCGTH-NSHDSACASA-N
CLASS=Mycosporines
ADDUCT=[M+H]+
INSTRUMENT=Waters Q-ToF Xevo G2-XS
PRECURSOR_MZ=262.1291
COMPOUND_NAME=Mycosporine serinol
ION_MODE=positive
FORMULA=C11H19NO6
80.05069 42446.28125 
110.060715 73827.25 
125.04985 66436.0625 
126.05658 78346.5625 
138.057632 93222.0625 
152.071518 162708.375 
170.082016 99037.0 
180.066757 131308.75 
194.081924 111499.75 
216.100418 327895.75 
244.11879 96007.5 
335.217926 69.715149 
347.916748 57.0 
352.580658 112.420044 
364.127289 45.0 
364.329926 47.0 
370.157867 47.0 
407.274994 41.0 
418.127716 36.0 
428.826935 31.0 
445.572784 64.0 
447.151489 35.0 
485.870087 26.0 
489.637573 43.0 
518.064575 25.0 
576.782227 94.0 
577.708496 24.0 
612.79303 24.0 
653.095032 61.0 
661.332336 35.0 
689.413086 36.425323 
747.184387 37.0 
794.970215 51.0 
END IONS

BEGIN IONS
RTINSECONDS=160.026993
CHARGE=1+
MSLEVEL=2
SMILES=O=c1c2c(oc3c1c(C)cc(O)c3)c(Cl)c(O)c(Cl)c2O
INCHI=InChI=1S/C14H8Cl2O5/c1-4-2-5(17)3-6-7(4)11(18)8-12(19)9(15)13(20)10(16)14(8)21-6/h2-3,17,19-20H,1H3
INCHIKEY=JPFFMNSHZHZAND-UHFFFAOYSA-N
CLASS=Xanthones and bis-Xanthones
ADDUCT=[M+H]+
INSTRUMENT=Waters Q-ToF Xevo G2-XS
PRECURSOR_MZ=326.9827
COMPOUND_NAME="2,4-Dichloronorlichexanthone"
ION_MODE=positive
FORMULA=C14H8Cl2O5
77.038658 7057.449219 
115.054504 10882.726562 
155.049103 14222.710938 
162.024002 39674.78125 
179.026031 14758.695312 
190.018204 13121.664062 
218.013397 18488.28125 
235.016602 94264.4375 
252.983017 282194.25 
263.010712 39238.96875 
292.013947 145331.625 
404.587341 33.0 
416.391571 28.0 
428.732483 29.0 
429.784698 22.0 
512.274536 36.0 
539.795349 28.0 
647.382996 18.0 
651.853333 25.0 
695.290405 23.0 
710.14856 26.0 
722.380615 44.0 
732.674194 30.0 
END IONS

BEGIN IONS
RTINSECONDS=183.830002
CHARGE=1+
MSLEVEL=2
SMILES=Cc1cc(c2c(c1)C(=O)c1c(c(cc(c1C2=O)O)O)c1c2c(c(cc1O)O)C(=O)c1c(cc(cc1C2=O)C)O)O
INCHI=InChI=1S/C30H18O10/c1-9-3-11-19(13(31)5-9)29(39)23-17(35)7-15(33)21(25(23)27(11)37)22-16(34)8-18(36)24-26(22)28(38)12-4-10(2)6-14(32)20(12)30(24)40/h3-8,31-36H,1-2H3
INCHIKEY=MQSXZQXHIJMNAF-UHFFFAOYSA-N
CLASS=Quinones
ADDUCT=[M+H+CH3CN]+
INSTRUMENT=Waters Q-ToF Xevo G2-XS
PRECURSOR_MZ=580.1244
COMPOUND_NAME=Skyrin
ION_MODE=positive
FORMULA=C30H18O10
66.318062 21.0 
67.365875 25.0 
97.103394 24.0 
109.802711 30.0 
129.071686 32.0 
135.049362 56.0 
155.108368 34.0 
159.041641 42.0 
177.052521 44.0 
213.051529 128.0 
229.046005 42.0 
232.871658 65.0 
241.051956 165.0 
283.06308 109.296326 
297.037598 119.527039 
307.061676 68.0 
312.72171 46.0 
333.036957 47.0 
362.519165 38.0 
369.796295 42.0 
389.026855 43.0 
416.320862 103.0 
475.073853 132.8396 
479.075256 201.682495 
479.110748 144.0 
493.089966 600.046387 
517.09259 505.55127 
545.087463 358.0 
546.08313 211.0 
563.10083 3978.822266 
664.682373 27.0 
685.486572 21.0 
784.059509 31.0 
798.262146 22.0 
END IONS

BEGIN IONS
RTINSECONDS=149.485992
CHARGE=1+
MSLEVEL=2
SMILES=O=C1c2c(CC(=O)CCCCC)cc(O)c(O)c2Oc2c(O1)cc(c(c2CCCCC)C(=O)O)O
INCHI=InChI=1S/C26H30O9/c1-3-5-7-9-15(27)11-14-12-18(29)22(30)24-20(14)26(33)34-19-13-17(28)21(25(31)32)16(23(19)35-24)10-8-6-4-2/h12-13,28-30H,3-11H2,1-2H3,(H,31,32)
INCHIKEY=BQHHNAPTXQOPBW-UHFFFAOYSA-N
CLASS=Depsidones
ADDUCT=[M+NH4]+
INSTRUMENT=Waters Q-ToF Xevo G2-XS
PRECURSOR_MZ=504.2234
COMPOUND_NAME=3-Hydroxyphysodic acid
ION_MODE=positive
FORMULA=C26H30O9
95.085289 23.0 
105.070549 33.0 
119.049232 40.217255 
139.074707 32.0 
149.020584 39.0 
165.02298 41.0 
175.074982 47.0 
197.045959 63.0 
203.069733 62.0 
205.084549 91.0 
221.082153 67.0 
263.089996 502.0 
264.098907 46.0 
265.102142 51.0 
271.101685 65.880859 
322.096558 53.0 
323.099487 62.0 
325.11145 117.0 
327.080963 74.0 
369.098938 95.193542 
371.179138 179.149658 
399.113525 197.330566 
399.174286 319.999268 
423.17099 513.147949 
425.155975 388.529297 
441.183502 417.538574 
467.166931 367.5896 
485.177429 1038.128906 
END IONS

BEGIN IONS
RTINSECONDS=198.906006
CHARGE=1+
MSLEVEL=2
SMILES=CCCCCc1cc(cc(c1C(=O)O)OC)OC(=O)c1c(cc(cc1CC(=O)CCCCC)OC)O
INCHI=InChI=1S/C28H36O8/c1-5-7-9-11-18-14-22(17-24(35-4)26(18)27(31)32)36-28(33)25-19(13-20(29)12-10-8-6-2)15-21(34-3)16-23(25)30/h14-17,30H,5-13H2,1-4H3,(H,31,32)
INCHIKEY=UANVCGQMNRTKGM-UHFFFAOYSA-N
CLASS=Depsides (Didepsides)
ADDUCT=[M+Na]+
INSTRUMENT=Waters Q-ToF Xevo G2-XS
PRECURSOR_MZ=523.2308
COMPOUND_NAME=Confluentic acid
ION_MODE=positive
FORMULA=C28H36O8
53.199303 24.0 
58.104897 22.0 
73.803894 36.0 
77.039948 32.0 
81.071869 42.0 
137.063431 135.310425 
163.076492 201.0 
166.039078 114.0 
174.069595 139.133301 
179.071701 130.0 
221.117798 3587.566406 
243.05368 352.803711 
243.099442 50046.15625 
259.131744 9894.75 
261.109772 8151.078125 
285.110077 42368.875 
303.120056 15569.132812 
303.206055 170.0 
344.221954 88.0 
367.570801 46.0 
382.430176 44.0 
400.33606 38.0 
407.391541 31.0 
459.085236 34.0 
470.658661 35.0 
541.241577 1437.0 
583.020935 50.0 
619.990723 22.0 
631.111023 24.0 
633.44397 34.0 
637.097656 25.0 
657.680908 44.0 
680.085815 33.0 
690.926514 29.0 
694.634644 30.0 
699.105103 21.0 
709.573608 19.0 
729.651978 21.0 
740.015442 20.0 
741.037292 19.0 
784.174011 18.0 
END IONS

BEGIN IONS
RTINSECONDS=100.318001
CHARGE=1+
MSLEVEL=2
SMILES=Cc1cc(=O)c2c(cc3c(C(=CC(=O)C3=O)OC)c2OC)o1
INCHI=InChI=1S/C16H12O6/c1-7-4-9(17)14-12(22-7)5-8-13(16(14)21-3)11(20-2)6-10(18)15(8)19/h4-6H,1-3H3
INCHIKEY=GESAVORGYOGKOW-UHFFFAOYSA-N
CLASS=Quinones
ADDUCT=[M+H]+
INSTRUMENT=Waters Q-ToF Xevo G2-XS
PRECURSOR_MZ=301.0712
COMPOUND_NAME=Canarione dimethylether
ION_MODE=positive
FORMULA=C16H12O6
76.032272 3875.914062 
115.055206 33494.09375 
132.025558 18402.390625 
144.056396 95676.625 
187.040283 256724.75 
200.04776 158070.0 
201.05513 263198.5 
229.050735 730726.5 
258.053162 220547.5 
273.07663 261761.125 
361.24408 43.0 
381.019897 134.0 
388.680389 34.0 
401.529755 48.0 
427.227814 37.0 
444.431854 39.0 
460.924591 35.0 
477.13147 40.967804 
481.54303 56.0 
497.419464 49.0 
499.496338 25.0 
513.843811 25.0 
522.942444 24.0 
544.273071 35.397614 
577.217468 27.0 
600.256592 37.0 
623.12738 45.0 
667.162415 36.0 
678.853455 24.0 
690.312134 53.317596 
747.183594 24.0 
776.33252 48.0 
END IONS

BEGIN IONS
RTINSECONDS=125.596001
CHARGE=1+
MSLEVEL=2
SMILES=Cc1cc(=O)c2c(c(C)c(O)cc2O)o1
INCHI=InChI=1S/C11H10O4/c1-5-3-8(13)10-9(14)4-7(12)6(2)11(10)15-5/h3-4,12,14H,1-2H3
INCHIKEY=XSSGQRFNGHRFBC-UHFFFAOYSA-N
CLASS=Chromanes and Chromones
ADDUCT=[M+H]+
INSTRUMENT=Waters Q-ToF Xevo G2-XS
PRECURSOR_MZ=207.0657
COMPOUND_NAME=Isoeugenitol
ION_MODE=positive
FORMULA=C11H10O4
77.039383 261.0 
84.959938 147.824463 
98.963768 155.0 
105.032387 152.0 
125.985123 178.178711 
141.052216 165.0 
165.991806 463.558105 
167.031876 515.652832 
278.695557 27.0 
284.323761 18.0 
294.919617 18.0 
330.855286 22.0 
389.507446 27.0 
390.422241 23.0 
466.672058 26.0 
537.814026 23.0 
540.498352 40.0 
753.450989 18.0 
END IONS

BEGIN IONS
RTINSECONDS=265.649994
CHARGE=1+
MSLEVEL=2
SMILES=CC(C)(C)CCCCCCCCCC1C(C(=O)O)C(C(=O)O1)C
INCHI=InChI=1S/C19H34O4/c1-14-16(17(20)21)15(23-18(14)22)12-10-8-6-5-7-9-11-13-19(2,3)4/h14-16H,5-13H2,1-4H3,(H,20,21)
INCHIKEY=NRFWTRPHJATQOB-UHFFFAOYSA-N
CLASS=Paraconic acids
ADDUCT=[2M+H+HCOOH]+
INSTRUMENT=Waters Q-ToF Xevo G2-XS
PRECURSOR_MZ=699.5047
COMPOUND_NAME=Neodihydroprotolichesterinic acid
ION_MODE=positive
FORMULA=C19H34O4
55.578796 38.0 
61.504345 42.0 
64.721558 36.0 
73.047729 634.108398 
89.045952 54.0 
133.051147 98.0 
147.067551 517.0 
149.047195 602.810547 
163.060455 1043.288086 
207.037704 328.587646 
221.086075 1510.639648 
225.042633 325.28418 
237.080826 14340.734375 
267.000275 618.854492 
281.052002 1207.375977 
295.104584 334.204834 
311.100708 370.490967 
341.01947 6735.074219 
355.071716 6065.8125 
359.028717 1286.394531 
371.07019 327.244385 
400.986176 692.528809 
429.041901 219.25647 
429.09021 12017.039062 
429.170471 254.533691 
445.087128 761.055176 
475.004364 721.647461 
489.052094 261.752197 
505.051483 58.0 
533.488403 81.0 
558.299988 60.0 
563.068542 147.29187 
564.776184 49.0 
568.311523 36.0 
593.347656 44.0 
651.149414 912.236816 
667.13739 1408.50293 
781.625977 30.0 
784.990234 18.0 
787.523804 51.0 
794.215027 20.0 
END IONS

BEGIN IONS
RTINSECONDS=112.776001
CHARGE=1+
MSLEVEL=2
SMILES=O=C1C=C(OC)C(=O)c2c1c(c1c(c2O)C[C@H](C)OC1=O)O
INCHI=InChI=1S/C15H12O7/c1-5-3-6-9(15(20)22-5)14(19)10-7(16)4-8(21-2)13(18)11(10)12(6)17/h4-5,17,19H,3H2,1-2H3/t5-/m0/s1
INCHIKEY=VZSFONBSZGFZNH-YFKPBYRVSA-N
CLASS=Quinones
ADDUCT=[M+H]+
INSTRUMENT=Waters Q-ToF Xevo G2-XS
PRECURSOR_MZ=305.0661
COMPOUND_NAME=Haemoventosine
ION_MODE=positive
FORMULA=C15H12O7
115.054771 5206.910156 
153.02002 7065.304688 
167.03421 14537.367188 
181.016357 20484.328125 
203.039001 13216.234375 
227.034164 28722.171875 
244.037567 24873.078125 
245.044678 42000.59375 
259.061523 61299.34375 
273.038849 32205.953125 
287.055878 185458.5 
366.778076 29.0 
374.898651 40.0 
414.893188 27.0 
571.957214 25.0 
608.120667 24.0 
686.8349 22.0 
763.510376 41.0 
END IONS

BEGIN IONS
RTINSECONDS=203.106995
CHARGE=1+
MSLEVEL=2
SMILES=c1ccc(cc1)C1=C(C(=C2c3ccccc3OC2=O)OC1=O)O
INCHI=InChI=1S/C18H10O5/c19-15-13(10-6-2-1-3-7-10)17(20)23-16(15)14-11-8-4-5-9-12(11)22-18(14)21/h1-9,19H
INCHIKEY=CGRCGRBHNKRILW-UHFFFAOYSA-N
CLASS=Pulvinic Acid Derivatives
ADDUCT=[M+H]+
INSTRUMENT=Waters Q-ToF Xevo G2-XS
PRECURSOR_MZ=307.0606
COMPOUND_NAME=Calycin
ION_MODE=positive
FORMULA=C18H10O5
77.039764 348.0 
89.039955 126.036072 
91.054436 103.0 
105.033394 404.0 
133.029663 464.372314 
161.023422 1962.391602 
167.084518 180.761719 
189.017593 382.763916 
207.081894 245.024414 
217.066284 149.246338 
223.075409 346.113525 
251.070267 112.0 
279.067078 238.202881 
387.991821 24.0 
435.089111 30.0 
448.769897 18.0 
465.157349 37.0 
488.658417 38.0 
588.7229 18.0 
670.826172 26.0 
766.974548 20.0 
END IONS

BEGIN IONS
RTINSECONDS=283.721985
CHARGE=1+
MSLEVEL=2
SMILES=nan
INCHI=nan
CLASS=Quinones
ADDUCT=[M+H]+
INSTRUMENT=Waters Q-ToF Xevo G2-XS
PRECURSOR_MZ=539.0978
COMPOUND_NAME=Isoskyrin
ION_MODE=positive
50.722683 29.0 
52.70628 28.0 
114.061562 31.0 
126.888908 26.0 
129.987732 28.0 
131.069214 29.0 
133.097656 27.0 
141.692245 52.0 
146.609253 27.0 
197.114868 24.0 
199.01088 23.0 
199.126297 21.0 
212.586823 27.0 
218.712234 24.0 
259.23526 37.0 
268.302155 38.0 
282.288879 42.0 
302.024445 37.0 
311.105438 97.0 
325.837921 56.0 
339.244781 49.0 
373.979401 39.0 
376.388489 57.0 
393.965576 79.0 
394.564789 80.0 
446.544952 39.0 
456.808655 60.0 
457.316315 42.0 
471.336212 66.041565 
521.08783 1220.140625 
601.535706 27.0 
630.140137 28.0 
635.164185 41.0 
654.429626 24.0 
675.516663 79.0 
707.452515 34.0 
709.940247 39.0 
711.139282 42.0 
711.430481 41.0 
711.812622 72.0 
774.93573 23.0 
785.697693 20.0 
END IONS

BEGIN IONS
RTINSECONDS=193.942001
CHARGE=1+
MSLEVEL=2
SMILES=CCCCCc1cc(cc(c1C(=O)O)OC)OC(=O)c1c(cc(cc1CC(=O)CCCCC)OC)O
INCHI=InChI=1S/C28H36O8/c1-5-7-9-11-18-14-22(17-24(35-4)26(18)27(31)32)36-28(33)25-19(13-20(29)12-10-8-6-2)15-21(34-3)16-23(25)30/h14-17,30H,5-13H2,1-4H3,(H,31,32)
INCHIKEY=UANVCGQMNRTKGM-UHFFFAOYSA-N
CLASS=Depsides (Didepsides)
ADDUCT=[M+Na+CH3CN]+
INSTRUMENT=Waters Q-ToF Xevo G2-XS
PRECURSOR_MZ=564.2573
COMPOUND_NAME=Confluentic acid
ION_MODE=positive
FORMULA=C28H36O8
56.130493 27.0 
57.388943 35.0 
60.411163 39.0 
76.123146 38.0 
117.051964 44.0 
117.827698 41.0 
141.017929 70.0 
163.082092 49.0 
195.300552 60.0 
196.340042 82.0 
201.928406 53.0 
217.085358 71.0 
259.130524 3038.042969 
285.110016 33557.28125 
303.04425 2119.957031 
303.120361 328162.0 
303.195007 2833.244141 
303.296326 5204.0 
362.868469 56.0 
363.48111 75.0 
408.747772 47.0 
411.913147 54.0 
418.765594 46.0 
433.177979 46.0 
433.671753 46.0 
441.533051 51.0 
456.299561 59.0 
475.136719 54.0 
488.011688 105.0 
488.293854 92.0 
512.701233 89.0 
617.362244 33.0 
635.184998 36.0 
649.137268 33.0 
675.932129 28.0 
678.987854 38.0 
712.31073 38.0 
723.16626 216.0 
726.249146 28.0 
729.742004 29.0 
734.348694 33.0 
739.817749 43.0 
756.463562 38.0 
780.74884 31.0 
784.787964 45.0 
784.927673 31.0 
793.922791 38.0 
795.877747 21.0 
END IONS

BEGIN IONS
RTINSECONDS=189.664993
CHARGE=1+
MSLEVEL=2
SMILES=O=c1c2c(oc3c1c(C)cc(OC)c3Cl)c(Cl)c(O)c(Cl)c2O
INCHI=InChI=1S/C15H9Cl3O5/c1-4-3-5(22-2)8(16)14-6(4)11(19)7-12(20)9(17)13(21)10(18)15(7)23-14/h3,20-21H,1-2H3
INCHIKEY=SMLUHOHPDVBXKH-UHFFFAOYSA-N
CLASS=Xanthones and bis-Xanthones
ADDUCT=[M+H]+
INSTRUMENT=Waters Q-ToF Xevo G2-XS
PRECURSOR_MZ=374.9594
COMPOUND_NAME=6-O-Methylarthothelin
ION_MODE=positive
FORMULA=C15H9Cl3O5
91.055771 92.0 
94.219414 81.0 
94.340973 71.0 
139.053848 174.0 
149.015533 307.746094 
205.006073 1485.349609 
222.971649 2673.652344 
234.009354 2272.958984 
295.965179 39219.25 
296.972168 55593.65625 
330.933929 222456.0 
331.941864 137277.0 
339.991058 74073.5 
438.446655 83.0 
462.962433 86.0 
481.526093 97.0 
488.380188 56.0 
521.141296 49.0 
522.153992 180.0 
534.187683 48.0 
556.727783 49.0 
565.518066 62.0 
576.277649 42.0 
592.760376 52.0 
596.121765 64.0 
626.449768 49.0 
643.670837 37.0 
650.885437 47.0 
664.833984 48.0 
666.711731 45.0 
690.372986 47.0 
714.683289 58.0 
728.219543 75.0 
748.365112 44.0 
761.379211 79.0 
783.556213 75.0 
788.921692 53.0 
789.654602 68.0 
797.083313 44.0 
END IONS

BEGIN IONS
RTINSECONDS=170.776001
CHARGE=1+
MSLEVEL=2
SMILES=O=C(OC)/C(=C\1/OC(=O)C(=C1OC)c1ccccc1)/c1c(OC)cccc1
INCHI=InChI=1S/C21H18O6/c1-24-15-12-8-7-11-14(15)17(20(22)26-3)19-18(25-2)16(21(23)27-19)13-9-5-4-6-10-13/h4-12H,1-3H3/b19-17+
INCHIKEY=WGZKMINRLLRJPF-HTXNQAPBSA-N
CLASS=Pulvinic Acid Derivatives
ADDUCT=[M+H]+
INSTRUMENT=Waters Q-ToF Xevo G2-XS
PRECURSOR_MZ=367.1182
COMPOUND_NAME=Leprapinic acid methyl ether
ION_MODE=positive
FORMULA=C21H18O6
89.039055 5164.234375 
91.055145 3783.447266 
103.055084 3045.876953 
115.055344 6885.15625 
118.041245 4996.652344 
131.049606 4630.0625 
161.059448 42967.5 
189.055161 95166.9375 
207.080475 33215.6875 
208.088684 10836.078125 
221.06282 5979.5625 
235.07518 8450.757812 
251.10675 247082.5 
279.101685 237723.0 
292.072418 5378.457031 
307.096436 75239.1875 
335.091095 386410.0 
335.173523 3310.470703 
335.276184 7633.976562 
426.77713 71.0 
444.460083 60.0 
471.10611 38.0 
497.539185 54.0 
502.480438 43.0 
502.795532 119.0 
525.523376 56.0 
536.52478 70.0 
565.589294 69.0 
576.31012 50.0 
594.698242 49.0 
597.070801 63.0 
617.367004 50.0 
630.056824 84.0 
658.993652 97.0 
690.19458 41.0 
694.064514 45.0 
726.679138 37.0 
750.328796 49.0 
750.870789 46.0 
753.783264 35.0 
768.882751 33.0 
781.320984 49.0 
794.02887 53.0 
END IONS

BEGIN IONS
RTINSECONDS=188.119995
CHARGE=1+
MSLEVEL=2
SMILES=CC12C(=O)C(=C(C=C1Oc1c2c(O)c(C)c(O)c1C(=O)C)O)C(=O)C
INCHI=InChI=1S/C18H16O7/c1-6-14(22)12(8(3)20)16-13(15(6)23)18(4)10(25-16)5-9(21)11(7(2)19)17(18)24/h5,21-23H,1-4H3
INCHIKEY=WEYVVCKOOFYHRW-UHFFFAOYSA-N
CLASS=Dibenzofuranes
ADDUCT=[M+H+CH3OH]+
INSTRUMENT=Waters Q-ToF Xevo G2-XS
PRECURSOR_MZ=377.1236
COMPOUND_NAME=Usnic acid
ION_MODE=positive
FORMULA=C18H16O7
85.030006 158.814453 
121.066109 109.0 
181.050201 1049.0 
195.06456 431.0 
196.072891 594.895508 
215.073471 2304.076172 
219.066513 625.571777 
233.082062 3422.816406 
251.089081 434.174316 
261.075195 1248.03418 
285.073517 476.484131 
303.086273 1247.938477 
317.104218 927.301758 
327.08728 1241.298828 
335.113983 944.279297 
345.097565 9500.21875 
359.113312 1292.788086 
437.763245 163.0 
443.874725 58.0 
447.640686 39.0 
479.195251 39.0 
504.734039 34.0 
510.51239 21.0 
515.445007 20.0 
547.679138 24.0 
557.236267 20.0 
586.148071 28.0 
621.943115 24.0 
671.615173 47.0 
673.105896 20.0 
675.984314 21.0 
704.177734 18.0 
707.824951 33.0 
755.916992 30.0 
771.597839 24.0 
774.866638 30.0 
END IONS

BEGIN IONS
RTINSECONDS=185.837006
CHARGE=1+
MSLEVEL=2
SMILES=CC(=O)CCCCCCCCCCCCCC1C(C(=C)C(=O)O1)C(=O)O
INCHI=InChI=1S/C21H34O5/c1-16(22)14-12-10-8-6-4-3-5-7-9-11-13-15-18-19(20(23)24)17(2)21(25)26-18/h18-19H,2-15H2,1H3,(H,23,24)
INCHIKEY=SKQHRBRVCRUFSX-UHFFFAOYSA-N
CLASS=Paraconic acids
ADDUCT=[M+H]+
INSTRUMENT=Waters Q-ToF Xevo G2-XS
PRECURSOR_MZ=367.2484
COMPOUND_NAME=Pertusaric acid
ION_MODE=positive
FORMULA=C21H34O5
79.055428 34350.5 
81.070824 43662.0625 
91.055054 39524.96875 
93.070564 36578.6875 
95.084892 61954.09375 
121.072853 67251.875 
145.098587 15555.0625 
163.09317 14052.851562 
217.161652 7323.730469 
231.143829 7507.914062 
235.192474 11401.828125 
253.213196 88187.5625 
255.229309 18910.375 
271.223022 46093.375 
275.23114 39737.5625 
303.233063 205642.75 
321.242096 62049.5625 
331.228058 110848.375 
349.237915 300010.0 
423.608185 135.0 
430.748657 145.78894 
450.403992 77.666016 
478.295898 63.0 
488.467682 88.0 
504.196411 56.0 
512.388428 38.0 
530.302856 61.0 
539.363953 38.0 
586.439941 45.0 
669.818054 41.0 
707.133362 77.0 
746.401123 38.0 
757.429443 43.0 
768.170654 73.0 
775.203674 43.0 
777.414062 42.0 
790.427612 38.0 
793.757385 82.0 
799.220337 49.0 
END IONS

BEGIN IONS
RTINSECONDS=126.670998
CHARGE=1+
MSLEVEL=2
SMILES=c1c(cc2c(c1O)C(=O)c1c(cc(cc1C2=O)O)O)CO
INCHI=InChI=1S/C15H10O6/c16-5-6-1-8-12(10(18)2-6)15(21)13-9(14(8)20)3-7(17)4-11(13)19/h1-4,16-19H,5H2
INCHIKEY=YQHZABGPIPECSQ-UHFFFAOYSA-N
CLASS=Quinones
ADDUCT=[M+H]+
INSTRUMENT=Waters Q-ToF Xevo G2-XS
PRECURSOR_MZ=287.0556
COMPOUND_NAME=Citreorosein
ION_MODE=positive
FORMULA=C15H10O6
68.998459 1368.90918 
77.039696 2365.814453 
115.054802 19800.53125 
128.062347 29956.96875 
139.054596 43755.28125 
157.065109 24004.125 
185.060013 18824.09375 
199.039337 36081.15625 
213.054413 64647.90625 
215.033981 21293.796875 
241.050339 155107.875 
257.045868 51655.0 
269.044403 54251.03125 
344.807922 45.0 
354.194214 46.0 
356.561615 46.0 
388.465515 39.0 
418.216553 41.0 
422.299103 47.0 
445.184387 24.0 
453.897705 26.0 
478.451477 30.0 
534.341125 34.0 
550.711975 26.0 
567.613403 38.0 
597.071594 23.0 
612.11438 83.0 
626.039124 20.0 
642.251404 25.0 
655.804688 22.0 
678.520508 24.0 
776.517456 31.0 
END IONS

BEGIN IONS
RTINSECONDS=146.343002
CHARGE=1+
MSLEVEL=2
SMILES=O=c1c2c(oc3c1c(C)cc(O)c3)cc(O)cc2O
INCHI=InChI=1S/C14H10O5/c1-6-2-7(15)4-10-12(6)14(18)13-9(17)3-8(16)5-11(13)19-10/h2-5,15-17H,1H3
INCHIKEY=AQZHBCDRWFMXIN-UHFFFAOYSA-N
CLASS=Xanthones and bis-Xanthones
ADDUCT=[M+2Na-H]+
INSTRUMENT=Waters Q-ToF Xevo G2-XS
PRECURSOR_MZ=303.0245
COMPOUND_NAME=Norlichexanthone
ION_MODE=positive
FORMULA=C14H10O5
77.039757 1023.880859 
92.999275 2334.695312 
115.055 3667.986328 
133.064804 8350.203125 
145.06514 9746.382812 
151.03949 48121.5625 
173.060165 4709.289062 
201.055634 39443.4375 
217.049973 30039.03125 
229.050339 4831.960938 
243.029663 30695.984375 
285.040771 397315.0 
285.21106 9334.0 
368.691437 36.0 
377.761047 32.0 
386.529144 116.0 
401.430298 38.0 
403.053558 27.0 
715.675781 22.0 
END IONS

BEGIN IONS
RTINSECONDS=199.179001
CHARGE=1+
MSLEVEL=2
SMILES=O=c1c2c(oc3c1c(C)cc(OC)c3)cc(OC)cc2O
INCHI=InChI=1S/C16H14O5/c1-8-4-9(19-2)6-12-14(8)16(18)15-11(17)5-10(20-3)7-13(15)21-12/h4-7,17H,1-3H3
INCHIKEY=QDLAGTHXVHQKRE-UHFFFAOYSA-N
CLASS=Xanthones and bis-Xanthones
ADDUCT=[M+H]+
INSTRUMENT=Waters Q-ToF Xevo G2-XS
PRECURSOR_MZ=287.0919
COMPOUND_NAME=Lichexanthone
ION_MODE=positive
FORMULA=C16H14O5
77.04026 1961.0 
115.054283 9071.703125 
145.064575 19053.296875 
155.04924 33308.09375 
200.046921 153482.375 
215.068817 116920.5625 
226.063034 288083.0 
229.050201 122454.0 
243.065903 958993.0 
244.073807 1020325.0 
364.790344 54.0 
373.944672 50.0 
388.066925 59.0 
408.392731 41.0 
452.999908 40.0 
473.394196 77.0 
478.339142 43.0 
483.192474 41.0 
485.651459 53.0 
492.970978 47.0 
547.374939 41.0 
554.355835 57.0 
563.84436 45.0 
580.766541 56.0 
588.046143 68.0 
616.901672 45.0 
640.832581 64.0 
659.962097 43.726227 
661.276123 61.0 
665.80835 81.0 
684.050842 48.0 
713.027588 69.0 
724.885376 43.0 
741.245605 44.0 
761.547241 78.0 
END IONS

BEGIN IONS
RTINSECONDS=113.521004
CHARGE=1+
MSLEVEL=2
SMILES=O=C1c2c(C)cc(O)cc2Oc2c(O1)cc1c(c2O)C(=O)OC1
INCHI=InChI=1S/C16H10O7/c1-6-2-8(17)4-9-11(6)16(20)23-10-3-7-5-21-15(19)12(7)13(18)14(10)22-9/h2-4,17-18H,5H2,1H3
INCHIKEY=LPUOVEFMUOQBFV-UHFFFAOYSA-N
CLASS=Depsidones
ADDUCT=[M+H]+
INSTRUMENT=Waters Q-ToF Xevo G2-XS
PRECURSOR_MZ=315.0505
COMPOUND_NAME=Variolaric acid
ION_MODE=positive
FORMULA=C16H10O7
77.039391 8827.476562 
83.013924 45243.8125 
115.055199 18408.640625 
128.06279 26903.84375 
135.0439 19496.546875 
151.006699 68785.5625 
185.059814 57191.3125 
191.0327 45032.46875 
201.055038 93031.0 
213.055023 66405.5 
241.049835 87921.5 
269.044617 120009.125 
271.060455 542818.5 
297.040375 326456.0 
373.059448 79.0 
388.142212 57.0 
390.555237 39.0 
445.186676 28.0 
465.962341 61.0 
594.799622 44.0 
END IONS

BEGIN IONS
RTINSECONDS=191.925995
CHARGE=1+
MSLEVEL=2
SMILES=Cc1c2c(Oc3c(OC2=O)c(c(c(c3C)Cl)OC)C)c(C=O)c(O)c1Cl
INCHI=InChI=1S/C18H14Cl2O6/c1-6-10-17(9(5-21)13(22)11(6)19)25-15-7(2)12(20)14(24-4)8(3)16(15)26-18(10)23/h5,22H,1-4H3
INCHIKEY=SNNDIPJEAQAKTJ-UHFFFAOYSA-N
CLASS=Depsidones
ADDUCT=[M+H+CH3OH]+
INSTRUMENT=Waters Q-ToF Xevo G2-XS
PRECURSOR_MZ=429.0508
COMPOUND_NAME=Argopsin
ION_MODE=positive
FORMULA=C18H14Cl2O6
67.019981 120.0 
77.040298 348.518311 
79.055573 347.334473 
91.055939 543.0 
135.044601 573.0 
155.025497 1161.568359 
157.042221 635.176758 
185.036728 7787.664062 
186.043823 633.0 
210.979919 789.580078 
212.996353 650.233398 
237.033218 1311.84668 
277.062683 564.567871 
291.005493 1323.158203 
305.059448 1026.585938 
333.053558 1809.831055 
351.019348 4957.734375 
369.029266 3423.25 
379.011688 13106.820312 
397.024353 24765.34375 
411.040192 13600.851562 
491.020203 66.0 
498.566345 34.0 
520.498413 66.0 
537.003662 146.0 
544.723816 67.0 
554.240906 51.0 
564.413574 47.0 
569.330566 59.0 
576.02887 31.0 
640.427063 35.0 
663.565247 30.0 
665.132385 63.0 
686.915039 36.0 
694.850159 30.0 
707.77417 37.0 
717.635864 50.0 
722.488647 35.0 
754.987244 28.0 
757.297241 28.0 
781.665649 40.0 
783.446777 40.0 
788.010132 62.0 
END IONS

BEGIN IONS
RTINSECONDS=188.212006
CHARGE=1+
MSLEVEL=2
SMILES=Cc1cc(c2c(c1)C(=O)c1c(c(cc(c1C2=O)O)O)c1c2c(c(cc1O)O)C(=O)c1c(cc(cc1C2=O)C)O)O
INCHI=InChI=1S/C30H18O10/c1-9-3-11-19(13(31)5-9)29(39)23-17(35)7-15(33)21(25(23)27(11)37)22-16(34)8-18(36)24-26(22)28(38)12-4-10(2)6-14(32)20(12)30(24)40/h3-8,31-36H,1-2H3
INCHIKEY=MQSXZQXHIJMNAF-UHFFFAOYSA-N
CLASS=Quinones
ADDUCT=[M+H]+
INSTRUMENT=Waters Q-ToF Xevo G2-XS
PRECURSOR_MZ=539.0978
COMPOUND_NAME=Skyrin
ION_MODE=positive
FORMULA=C30H18O10
52.490788 31.0 
53.029232 49.0 
91.055786 88.0 
107.049591 70.0 
135.044968 499.0 
161.05748 183.0 
189.054184 613.988281 
201.055298 376.529053 
213.055206 695.773926 
217.049271 519.685547 
229.049973 766.716797 
241.049255 481.791016 
270.053009 2139.78125 
282.052765 465.963135 
283.058472 1710.942383 
295.061371 399.919189 
297.039612 1462.963867 
321.042419 408.568604 
335.056976 269.0 
349.042419 238.0 
399.086853 1096.775391 
423.08905 982.247559 
451.079102 2582.605469 
465.094757 2486.228516 
469.09201 5252.050781 
493.092743 3747.332031 
503.076569 3584.419922 
504.082672 7025.945312 
521.086365 22922.734375 
609.24646 46.0 
612.211548 61.0 
631.517334 37.0 
632.921387 36.0 
692.156006 47.0 
699.519043 67.0 
710.947205 38.0 
711.979248 31.0 
756.147766 34.0 
757.648804 35.0 
771.926025 42.0 
776.22937 28.0 
785.003723 25.0 
788.849548 27.0 
END IONS

BEGIN IONS
RTINSECONDS=121.321999
CHARGE=1+
MSLEVEL=2
SMILES=[C@@H]1(CC(=O)N2[C@H](C(=O)N[C@H](CC(=O)N3[C@@H](C(=O)N1)CCC3)c1ccccc1)CCC2)c1ccccc1
INCHI=InChI=1S/C28H32N4O4/c33-25-17-21(19-9-3-1-4-10-19)29-27(35)23-13-7-16-32(23)26(34)18-22(20-11-5-2-6-12-20)30-28(36)24-14-8-15-31(24)25/h1-6,9-12,21-24H,7-8,13-18H2,(H,29,35)(H,30,36)/t21-,22-,23-,24+/m1/s1
INCHIKEY=PDLPVRYEPINIBU-YCAMKHIRSA-N
CLASS=N-Containing Compounds
ADDUCT=[M+H+HCOOH]+
INSTRUMENT=Waters Q-ToF Xevo G2-XS
PRECURSOR_MZ=535.2557
COMPOUND_NAME=Roccanin
ION_MODE=positive
FORMULA=C28H32N4O4
70.065338 442.0 
106.066727 1004.0 
107.051056 301.0 
112.077087 559.0 
131.049698 4298.109375 
140.070694 1042.0 
185.10582 146.599121 
200.107895 1661.241211 
203.115768 234.81604 
228.103638 2820.080078 
245.12854 1382.75293 
262.156525 657.640625 
274.10553 729.22998 
287.137634 1013.885742 
291.135834 502.597168 
317.118256 177.284668 
350.184601 451.661865 
369.189026 187.963989 
375.169434 990.772949 
387.203949 1077.0 
388.187286 207.446655 
402.201477 285.14209 
421.174408 179.697388 
430.199493 678.083496 
439.187256 84.642151 
507.264252 932.706055 
518.230774 283.0 
599.274414 37.0 
603.076355 31.0 
610.369446 29.0 
634.585999 38.0 
737.261292 20.0 
749.555908 39.0 
END IONS

BEGIN IONS
RTINSECONDS=151.121994
CHARGE=1+
MSLEVEL=2
SMILES=c1ccc(cc1)C1=C(C(=C2c3ccccc3OC2=O)OC1=O)O
INCHI=InChI=1S/C18H10O5/c19-15-13(10-6-2-1-3-7-10)17(20)23-16(15)14-11-8-4-5-9-12(11)22-18(14)21/h1-9,19H
INCHIKEY=CGRCGRBHNKRILW-UHFFFAOYSA-N
CLASS=Pulvinic Acid Derivatives
ADDUCT=[M+NH4]+
INSTRUMENT=Waters Q-ToF Xevo G2-XS
PRECURSOR_MZ=324.0872
COMPOUND_NAME=Calycin
ION_MODE=positive
FORMULA=C18H10O5
55.431206 21.0 
77.038521 42.0 
89.039154 75.0 
114.950294 76.0 
133.029739 154.0 
152.0616 96.531555 
161.02446 816.450195 
167.086105 308.0 
178.082123 268.748535 
179.084732 254.0 
207.081543 176.0 
223.077896 396.061035 
251.071716 101.945984 
251.128372 115.0 
261.058014 100.0 
279.065552 251.601562 
307.064148 747.506836 
392.845154 21.0 
771.47229 24.0 
END IONS

BEGIN IONS
RTINSECONDS=153.412994
CHARGE=1+
MSLEVEL=2
SMILES=O=C1c2c(C)cc(O)c(C=O)c2Oc2c(O1)c(c(c1c2C(O)OC1=O)O)C
INCHI=InChI=1S/C18H12O9/c1-5-3-8(20)7(4-19)14-9(5)16(22)26-13-6(2)12(21)10-11(15(13)25-14)18(24)27-17(10)23/h3-4,18,20-21,24H,1-2H3
INCHIKEY=IEVVSJFLBYOUCJ-UHFFFAOYSA-N
CLASS=Depsidones
ADDUCT=[M+K]+
INSTRUMENT=Waters Q-ToF Xevo G2-XS
PRECURSOR_MZ=411.0118
COMPOUND_NAME=Norstictic acid
ION_MODE=positive
FORMULA=C18H12O9
63.023804 31.0 
63.611401 34.0 
90.98069 41.0 
99.00882 103.0 
99.05072 56.0 
117.07209 78.0 
131.047745 73.0 
154.162704 75.0 
177.017517 172.678223 
213.055344 201.0 
215.033905 1847.03418 
229.049713 633.40332 
241.049164 515.55127 
243.028824 746.395996 
281.044067 292.000488 
297.038757 1305.349609 
299.021851 2596.40625 
309.03714 272.05127 
325.034912 5676.769531 
353.02478 742.759277 
366.061737 215.326782 
368.07608 289.433594 
371.0383 5263.261719 
489.345978 18.0 
508.831818 19.0 
531.884705 18.0 
588.269104 20.0 
589.899353 18.0 
640.462463 18.0 
718.110229 18.0 
732.301331 18.0 
END IONS

BEGIN IONS
RTINSECONDS=228.100006
CHARGE=1+
MSLEVEL=2
SMILES=CCCCCCCCCCCCC[C@H]1C(=C(C(=O)O1)C)C(=O)O
INCHI=InChI=1S/C19H32O4/c1-3-4-5-6-7-8-9-10-11-12-13-14-16-17(18(20)21)15(2)19(22)23-16/h16H,3-14H2,1-2H3,(H,20,21)/t16-/m0/s1
INCHIKEY=SLQVVNFTCYVCPB-INIZCTEOSA-N
CLASS=Paraconic acids
ADDUCT=[M+H]+
INSTRUMENT=Waters Q-ToF Xevo G2-XS
PRECURSOR_MZ=325.2379
COMPOUND_NAME=Lichesterinic acid
ION_MODE=positive
FORMULA=C19H32O4
79.055237 2198.960938 
83.08712 2504.287109 
91.055328 3662.345703 
93.070915 2263.523438 
97.100273 3199.658203 
141.05542 4762.199219 
149.077606 2129.1875 
163.096924 2895.962891 
167.070801 2738.751953 
177.104492 2159.195312 
185.175781 4002.433594 
233.217133 1978.234375 
243.210587 1543.774414 
243.884521 2698.277344 
261.221924 3126.921875 
279.232941 5893.039062 
289.21579 15283.265625 
307.227264 32751.828125 
343.247437 334.989014 
366.262177 100.0 
399.777802 61.0 
401.066345 49.0 
401.818359 42.0 
466.432556 94.0 
478.696167 31.0 
486.325928 35.0 
497.565582 47.0 
530.997681 29.0 
538.464661 30.0 
541.411499 55.0 
549.441956 68.0 
551.940918 29.0 
592.291138 58.0 
610.954834 45.0 
625.292358 91.0 
626.253418 40.0 
647.872498 44.0 
664.824646 75.0 
677.209961 63.0 
701.890076 30.0 
716.646912 28.0 
719.768127 30.0 
732.805603 45.0 
756.296692 80.0 
756.653137 30.0 
761.493774 27.0 
770.312378 30.0 
776.694458 30.0 
786.819275 70.0 
END IONS

BEGIN IONS
RTINSECONDS=188.341003
CHARGE=1+
MSLEVEL=2
SMILES=O=C1c2c(C)c(Cl)c(OC)cc2Oc2c(O1)cc(c(c2C)Cl)OC
INCHI=InChI=1S/C17H14Cl2O5/c1-7-13-9(5-10(21-3)14(7)18)23-16-8(2)15(19)11(22-4)6-12(16)24-17(13)20/h5-6H,1-4H3
INCHIKEY=AYDBBWJGHVYDQE-UHFFFAOYSA-N
CLASS=Depsidones
ADDUCT=[M+H]+
INSTRUMENT=Waters Q-ToF Xevo G2-XS
PRECURSOR_MZ=369.0297
COMPOUND_NAME=Scensidin
ION_MODE=positive
FORMULA=C17H14Cl2O5
77.039528 3156.466797 
79.055832 846.059082 
105.034843 3090.675781 
199.062698 32784.125 
231.021637 42079.53125 
259.016541 89140.1875 
262.039764 60990.96875 
274.038879 51655.875 
277.06366 335711.0 
305.058502 314759.75 
311.996307 88706.25 
327.019165 153834.375 
333.053375 87109.75 
439.182007 43.0 
439.501953 71.424072 
445.332703 55.0 
454.274597 49.0 
459.97348 49.0 
620.290588 41.0 
623.235107 38.166168 
695.203918 43.0 
721.06842 38.0 
729.453857 41.0 
768.866028 46.0 
795.439514 34.0 
END IONS

BEGIN IONS
RTINSECONDS=192.492996
CHARGE=1+
MSLEVEL=2
SMILES=O=c1oc(CCCCC)cc2c1c(cc(c2)OC)Oc1c(CC(=O)CCCCC)c(C(=O)O)c(O)cc1O
INCHI=InChI=1S/C29H34O9/c1-4-6-8-10-18(30)14-21-26(28(33)34)22(31)16-23(32)27(21)38-24-15-20(36-3)13-17-12-19(11-9-7-5-2)37-29(35)25(17)24/h12-13,15-16,31-32H,4-11,14H2,1-3H3,(H,33,34)
INCHIKEY=NDOGMEJTCDSZAS-UHFFFAOYSA-N
CLASS=Diphenylethers
ADDUCT=[M+H]+
INSTRUMENT=Waters Q-ToF Xevo G2-XS
PRECURSOR_MZ=527.2281
COMPOUND_NAME=Beta-Collatolic acid
ION_MODE=positive
FORMULA=C29H34O9
81.070015 7303.5 
95.078789 2981.607422 
123.04525 99472.6875 
150.032379 113471.0 
164.047867 312713.0 
205.074951 876624.0 
206.058853 221297.0 
218.082413 163555.5 
261.137085 758301.0 
262.129669 257258.0 
263.129242 134483.75 
364.153046 24203.609375 
365.139923 71528.125 
383.149445 20888.796875 
391.150452 29414.1875 
411.145294 32115.21875 
483.239807 623240.0 
491.208191 162860.625 
508.234558 1016013.0 
509.220581 1484488.0 
600.322571 78.41394 
634.398438 76.0 
END IONS

BEGIN IONS
RTINSECONDS=193.358002
CHARGE=1+
MSLEVEL=2
SMILES=O=c1oc(CCCCC)cc2c1c(cc(c2)OC)Oc1c(CC(=O)CCCCC)c(C(=O)O)c(O)cc1O
INCHI=InChI=1S/C29H34O9/c1-4-6-8-10-18(30)14-21-26(28(33)34)22(31)16-23(32)27(21)38-24-15-20(36-3)13-17-12-19(11-9-7-5-2)37-29(35)25(17)24/h12-13,15-16,31-32H,4-11,14H2,1-3H3,(H,33,34)
INCHIKEY=NDOGMEJTCDSZAS-UHFFFAOYSA-N
CLASS=Diphenylethers
ADDUCT=[M+Na]+
INSTRUMENT=Waters Q-ToF Xevo G2-XS
PRECURSOR_MZ=549.2101
COMPOUND_NAME=Beta-Collatolic acid
ION_MODE=positive
FORMULA=C29H34O9
52.284969 30.0 
71.086159 43.0 
78.304962 90.0 
78.822136 43.0 
101.383591 67.0 
107.327332 56.0 
140.519577 93.0 
143.023514 58.0 
161.19902 78.0 
171.085739 73.0 
192.678085 94.0 
206.99585 102.0 
227.050919 460.303711 
255.099487 1187.335938 
270.087982 28926.15625 
283.094055 442.88916 
283.118347 25812.828125 
284.033569 342.92627 
284.104065 38359.4375 
338.579987 78.0 
342.270782 88.0 
350.152313 117.484985 
378.217773 135.0 
388.895966 136.0 
407.157471 116.0 
424.084167 88.0 
433.125214 254.9198 
505.220459 13500.296875 
530.215942 36806.8125 
531.20105 162296.375 
627.005127 106.0 
648.587585 35.0 
658.349915 51.0 
661.782532 42.0 
698.165588 59.0 
705.592773 37.0 
708.737427 50.0 
714.210327 36.0 
760.500427 31.0 
763.771667 33.0 
779.125244 93.0 
786.676086 34.0 
786.854553 68.0 
787.933411 31.0 
799.366638 29.0 
END IONS

BEGIN IONS
RTINSECONDS=178.264008
CHARGE=1+
MSLEVEL=2
SMILES=Cc1cc(OC)cc2c1c(=O)c1c(cc(O)c(Cl)c1O)o2
INCHI=InChI=1S/C15H11ClO5/c1-6-3-7(20-2)4-9-11(6)14(18)12-10(21-9)5-8(17)13(16)15(12)19/h3-5,17,19H,1-2H3
INCHIKEY=VZYXHXRKFKLWJI-UHFFFAOYSA-N
CLASS=Xanthones and bis-Xanthones
ADDUCT=[2M+Na+CH3OH]+
INSTRUMENT=Waters Q-ToF Xevo G2-XS
PRECURSOR_MZ=667.075
COMPOUND_NAME=2-Chloro-6-O-methylnorlichexanthone
ION_MODE=positive
FORMULA=C15H11ClO5
68.251106 19.0 
71.743637 18.0 
131.816864 20.0 
195.845718 23.0 
198.797806 21.0 
214.074493 20.0 
227.026398 45.0 
242.060287 131.0 
270.054504 118.318909 
271.061005 157.243774 
271.144226 131.0 
304.014343 532.526855 
331.957855 56.484802 
350.932861 78.0 
359.943604 41.0 
360.957825 53.0 
377.953918 66.0 
417.622833 28.0 
445.699463 34.0 
464.800995 37.0 
466.333588 29.0 
476.789429 29.0 
510.44751 37.0 
511.182922 45.0 
523.211914 62.0 
530.976807 33.0 
558.988586 110.0 
586.975464 77.0 
587.991211 879.69873 
588.026123 66.0 
622.950195 246.0 
723.998047 19.0 
740.299866 26.0 
757.628784 25.0 
END IONS

BEGIN IONS
RTINSECONDS=194.647995
CHARGE=1+
MSLEVEL=2
SMILES=O=C1c2c(CCCCC)cc(OC)c(O)c2Oc2c(O1)cc(c(c2CCCCC)C(=O)O)O
INCHI=InChI=1S/C25H30O8/c1-4-6-8-10-14-12-17(31-3)21(27)23-19(14)25(30)32-18-13-16(26)20(24(28)29)15(22(18)33-23)11-9-7-5-2/h12-13,26-27H,4-11H2,1-3H3,(H,28,29)
INCHIKEY=VZPSCITXDMDLDC-UHFFFAOYSA-N
CLASS=Depsidones
ADDUCT=[M+H]+
INSTRUMENT=Waters Q-ToF Xevo G2-XS
PRECURSOR_MZ=459.2019
COMPOUND_NAME=3-Hydroxycolensoic acid
ION_MODE=positive
FORMULA=C25H30O8
91.055656 83.800232 
105.069763 99.0 
133.069458 103.0 
137.06485 114.0 
153.054489 109.0 
181.050323 158.070068 
193.049973 222.883545 
221.117935 1262.237305 
233.08046 2144.375 
285.038635 1146.426758 
287.055054 757.352051 
289.14328 1651.592773 
299.039734 1228.354492 
327.086334 1488.401367 
345.132507 1356.901367 
345.205017 1299.138672 
371.11203 7142.632812 
373.199921 2902.134766 
399.180115 41495.34375 
415.210815 2576.042969 
441.189301 5773.261719 
535.542419 59.0 
550.815491 28.0 
552.579895 33.0 
601.577698 24.0 
618.394836 47.0 
626.157898 26.0 
644.112366 52.0 
650.600769 31.0 
651.142029 21.0 
683.494507 24.0 
726.730957 28.0 
727.493347 29.0 
734.103882 23.0 
744.957703 35.0 
758.219299 26.0 
END IONS

BEGIN IONS
RTINSECONDS=168.832993
CHARGE=1+
MSLEVEL=2
SMILES=C[C@@H]1CC(=O)C2=C(c3c(ccc(c3O)c3c(c4c(cc3)O[C@@]3([C@H]([C@@H](CC(=O)C3=C4O)C)O)C(=O)OC)O)O[C@@]2([C@H]1O)C(=O)OC)O
INCHI=InChI=1S/C32H30O14/c1-11-9-15(33)21-25(37)19-17(45-31(21,27(11)39)29(41)43-3)7-5-13(23(19)35)14-6-8-18-20(24(14)36)26(38)22-16(34)10-12(2)28(40)32(22,46-18)30(42)44-4/h5-8,11-12,27-28,35-40H,9-10H2,1-4H3/t11-,12-,27+,28+,31+,32+/m1/s1
INCHIKEY=NFZJAYYORNVZNI-ZKHWAINJSA-N
CLASS=Xanthones and bis-Xanthones
ADDUCT=[M+Na]+
INSTRUMENT=Waters Q-ToF Xevo G2-XS
PRECURSOR_MZ=661.1533
COMPOUND_NAME=Secalonic acid A
ION_MODE=positive
FORMULA=C32H30O14
55.540943 22.0 
59.510712 20.0 
61.051197 104.0 
62.71431 20.0 
63.772266 20.0 
80.709457 24.0 
85.170547 23.0 
93.402069 23.0 
98.409111 26.0 
151.800354 34.0 
165.942963 36.0 
171.932266 37.0 
173.035217 40.0 
205.04892 127.0 
219.026993 101.55249 
226.148911 42.0 
233.659531 54.0 
234.051498 83.0 
283.0625 46.0 
300.786163 33.0 
319.02652 40.0 
325.525848 102.0 
326.517609 49.0 
356.758301 100.0 
374.08136 60.0 
391.077698 938.55127 
432.083252 292.764648 
450.088409 140.0 
451.100616 719.0 
459.068787 141.0 
477.079346 195.482788 
500.788544 72.0 
523.985962 57.0 
532.429932 70.0 
583.121887 683.029785 
585.138855 223.792725 
601.13031 2496.314453 
643.143921 6276.246094 
719.920837 33.0 
733.494202 24.0 
738.343018 20.0 
738.423706 44.0 
755.717957 18.0 
757.65509 24.0 
762.758423 26.0 
END IONS

BEGIN IONS
RTINSECONDS=167.673996
CHARGE=1+
MSLEVEL=2
SMILES=Cc1cc(c(c2c1c(=O)c1c(o2)c(c(c(c1O)Cl)O)Cl)Cl)O
INCHI=InChI=1S/C14H7Cl3O5/c1-3-2-4(18)7(15)13-5(3)10(19)6-11(20)8(16)12(21)9(17)14(6)22-13/h2,18,20-21H,1H3
INCHIKEY=NTAXLEHKEDVPRK-UHFFFAOYSA-N
CLASS=Xanthones and bis-Xanthones
ADDUCT=[M+H+HCOOH]+
INSTRUMENT=Waters Q-ToF Xevo G2-XS
PRECURSOR_MZ=406.9492
COMPOUND_NAME=Arthothelin
ION_MODE=positive
FORMULA=C14H7Cl3O5
79.28373 18.0 
106.046272 25.0 
115.05542 52.971771 
146.035431 26.0 
149.018372 28.0 
160.011978 29.0 
166.666718 28.0 
173.029755 33.0 
197.019058 32.0 
203.032303 33.0 
262.010437 50.875732 
268.978149 44.0 
270.989319 52.0 
332.890808 265.0 
342.923615 241.603882 
343.925934 264.0 
371.921509 1052.941406 
570.343262 20.0 
603.71283 20.0 
650.624329 24.0 
END IONS

BEGIN IONS
RTINSECONDS=172.160995
CHARGE=1+
MSLEVEL=2
SMILES=O=C1Oc2c(c(CC(=O)CCCCC)c(C(=O)O)c(O)c2)Oc2c1c(cc(c2)O)CC(=O)CCCCC
INCHI=InChI=1S/C28H32O9/c1-3-5-7-9-17(29)11-16-12-19(31)14-22-24(16)28(35)37-23-15-21(32)25(27(33)34)20(26(23)36-22)13-18(30)10-8-6-4-2/h12,14-15,31-32H,3-11,13H2,1-2H3,(H,33,34)
INCHIKEY=ZDIOCINAHISORH-UHFFFAOYSA-N
CLASS=Depsidones
ADDUCT=[M+H]+
INSTRUMENT=Waters Q-ToF Xevo G2-XS
PRECURSOR_MZ=513.2125
COMPOUND_NAME=Alpha-Alectoronic acid
ION_MODE=positive
FORMULA=C28H32O9
71.086464 11608.304688 
79.055031 1073.264648 
81.071251 2903.443359 
99.081657 16068.9375 
123.044731 14026.3125 
150.031967 74011.75 
163.040512 19463.5625 
191.057327 33296.75 
192.042114 35401.0625 
215.070938 22632.890625 
221.116486 20941.0 
271.062836 34290.78125 
281.049713 22763.8125 
287.126831 22236.515625 
297.040039 44639.375 
299.057312 68277.875 
301.141968 31650.1875 
354.108917 52261.3125 
355.117706 131896.0 
369.133392 90098.25 
371.148926 184431.625 
379.118286 93345.125 
397.128754 896647.5 
427.212555 94927.1875 
451.210968 80761.125 
453.19104 715416.0 
469.223633 128127.875 
477.191345 154438.5 
495.202332 1136609.0 
568.302612 128.0 
586.297974 163.0 
600.28009 70.0 
END IONS

BEGIN IONS
RTINSECONDS=174.205994
CHARGE=1+
MSLEVEL=2
SMILES=COc1cc2c(c(=O)oc(CCCCC)c2)c(OC)c1
INCHI=InChI=1S/C16H20O4/c1-4-5-6-7-12-8-11-9-13(18-2)10-14(19-3)15(11)16(17)20-12/h8-10H,4-7H2,1-3H3
INCHIKEY=NKYAIPHVDQBFLF-UHFFFAOYSA-N
CLASS=Cleavage Products of Depsides and Depsidones
ADDUCT=[2M+Na]+
INSTRUMENT=Waters Q-ToF Xevo G2-XS
PRECURSOR_MZ=575.2621
COMPOUND_NAME="2,4-Di-O-methylolivetonide"
ION_MODE=positive
FORMULA=C16H20O4
57.842133 40.0 
85.49015 63.0 
86.195656 90.0 
86.515175 63.0 
86.90815 50.0 
90.364822 155.0 
110.340096 70.0 
126.865433 66.0 
139.120331 102.0 
160.853302 68.0 
179.403458 104.0 
198.388901 80.0 
200.420837 119.0 
203.181091 68.0 
215.68364 79.0 
299.059479 3054.294922 
299.126526 584412.0 
299.202545 6043.949219 
299.301208 16476.0 
299.439758 6248.0 
317.137573 1936.814453 
371.499054 60.0 
385.529205 152.0 
435.6875 87.0 
436.184692 482.348389 
436.68042 1196.538086 
436.709503 167.462036 
437.180023 285.119873 
437.68988 126.588257 
502.006195 58.0 
514.157104 118.0 
674.564026 54.0 
675.385193 132.0 
684.509766 77.0 
696.819763 47.0 
700.91748 82.0 
741.876221 47.0 
751.582825 42.0 
758.556091 42.0 
764.970398 60.0 
765.375122 37.0 
783.542908 38.0 
END IONS

BEGIN IONS
RTINSECONDS=181.522003
CHARGE=1+
MSLEVEL=2
SMILES=O=C1c2c(CCCCC)cc(OC)c(OC)c2Oc2c(O1)cc(c(c2CCCCC)C(=O)O)O
INCHI=InChI=1S/C26H32O8/c1-5-7-9-11-15-13-18(31-3)23(32-4)24-20(15)26(30)33-19-14-17(27)21(25(28)29)16(22(19)34-24)12-10-8-6-2/h13-14,27H,5-12H2,1-4H3,(H,28,29)
INCHIKEY=GHBZVNHEVHMKOB-UHFFFAOYSA-N
CLASS=Depsidones
ADDUCT=[M+H]+
INSTRUMENT=Waters Q-ToF Xevo G2-XS
PRECURSOR_MZ=473.2175
COMPOUND_NAME=3-Methoxycolensoic acid
ION_MODE=positive
FORMULA=C26H32O8
95.948296 25.0 
161.062286 29.0 
162.03215 32.0 
202.040497 41.0 
203.104126 29.0 
210.822586 39.0 
229.126129 34.0 
241.084167 32.0 
247.107361 32.0 
263.197723 34.0 
270.096954 31.0 
271.094116 33.0 
288.296997 30.0 
299.062103 33.0 
300.138123 87.0 
359.153503 85.0 
359.212799 78.0 
369.16748 176.906128 
385.126984 115.0 
387.217224 143.129883 
413.19809 1271.390625 
413.236908 159.780396 
455.182495 126.0 
455.210754 184.621338 
537.084778 20.0 
END IONS

BEGIN IONS
RTINSECONDS=170.167007
CHARGE=1+
MSLEVEL=2
SMILES=O=C1OC2=C(c3ccccc3)C(=O)OC2=C1c1ccccc1
INCHI=InChI=1S/C18H10O4/c19-17-13(11-7-3-1-4-8-11)15-16(22-17)14(18(20)21-15)12-9-5-2-6-10-12/h1-10H
INCHIKEY=KQTXUHHOWJUFOZ-UHFFFAOYSA-N
CLASS=Pulvinic Acid Derivatives
ADDUCT=[M+NH4]+
INSTRUMENT=Waters Q-ToF Xevo G2-XS
PRECURSOR_MZ=308.0923
COMPOUND_NAME=Pulvinic acid dilactone
ION_MODE=positive
FORMULA=C18H10O4
53.947788 49.0 
66.019867 58.0 
77.038948 104.153137 
89.039398 2763.644531 
105.034775 155.0 
117.034889 664.0 
129.0336 197.0 
145.028214 917.427246 
178.077744 15798.507812 
179.085968 2972.324219 
189.069199 683.740234 
207.080658 20588.796875 
208.086014 568.698242 
235.075394 5222.433594 
263.070251 11233.546875 
290.057343 646.0 
291.064575 18648.140625 
362.923553 24.0 
372.149261 25.0 
384.069702 40.0 
400.435303 48.0 
412.718201 32.0 
413.243073 27.0 
449.912262 26.0 
466.953339 19.0 
467.635864 26.0 
469.173492 26.0 
480.625397 28.0 
489.923828 29.0 
519.145752 20.0 
522.695496 18.0 
540.584534 18.0 
589.854614 20.0 
599.683167 33.0 
605.376648 42.0 
628.216553 23.0 
657.645691 23.0 
672.212158 19.0 
677.448059 113.0 
689.288757 18.0 
704.610779 33.0 
705.390869 30.0 
719.394104 19.0 
774.007019 21.0 
781.302002 19.0 
785.020447 31.0 
787.043152 18.0 
END IONS

BEGIN IONS
RTINSECONDS=185.742996
CHARGE=1+
MSLEVEL=2
SMILES=CC(=O)CCCCCCCCCCCCC[C@@H]1OC(=O)C(=C)[C@@H]1C(=O)O
INCHI=InChI=1S/C21H34O5/c1-16(22)14-12-10-8-6-4-3-5-7-9-11-13-15-18-19(20(23)24)17(2)21(25)26-18/h18-19H,2-15H2,1H3,(H,23,24)/t18-,19-/m0/s1
INCHIKEY=SKQHRBRVCRUFSX-OALUTQOASA-N
CLASS=Paraconic acids
ADDUCT=[M+H]+
INSTRUMENT=Waters Q-ToF Xevo G2-XS
PRECURSOR_MZ=367.2484
COMPOUND_NAME=allo-Pertusaric acid
ION_MODE=positive
FORMULA=C21H34O5
81.071022 48989.71875 
91.05529 47596.46875 
93.070755 43635.125 
95.08519 72780.625 
109.093315 54080.375 
121.073936 99422.875 
163.094574 20384.5 
175.132492 16719.578125 
231.144012 13480.367188 
235.191772 19180.484375 
253.214996 144623.75 
255.228607 34053.46875 
271.224335 73431.375 
275.230072 67759.5 
303.232971 324599.5 
321.24292 97215.875 
331.226898 171166.625 
349.238281 381739.0 
433.44519 89.0 
437.284424 93.0 
440.333832 76.0 
445.849854 74.0 
457.455963 147.0 
489.635162 83.762512 
495.861786 64.0 
504.645813 52.0 
508.336151 61.0 
568.15509 55.0 
582.658569 49.0 
674.502808 49.0 
730.807129 62.0 
733.268616 51.0 
758.717957 103.0 
787.430359 105.307556 
789.411499 102.570251 
789.50592 91.0 
790.614746 87.0 
END IONS

BEGIN IONS
RTINSECONDS=155.240997
CHARGE=1+
MSLEVEL=2
SMILES=O=c1c2c(oc3c1c(C)cc(O)c3Cl)cc(O)c(Cl)c2O
INCHI=InChI=1S/C14H8Cl2O5/c1-4-2-5(17)11(16)14-8(4)12(19)9-7(21-14)3-6(18)10(15)13(9)20/h2-3,17-18,20H,1H3
INCHIKEY=GKSZPGKBFDLXNF-UHFFFAOYSA-N
CLASS=Xanthones and bis-Xanthones
ADDUCT=[M+H]+
INSTRUMENT=Waters Q-ToF Xevo G2-XS
PRECURSOR_MZ=326.9827
COMPOUND_NAME="2,5-Dichloronorlichexanthone"
ION_MODE=positive
FORMULA=C14H8Cl2O5
77.040024 729.0 
115.053314 5277.097656 
126.046906 6691.058594 
155.049149 9022.476562 
161.017609 9159.804688 
162.023743 18787.703125 
189.011398 19986.75 
200.046646 12989.8125 
218.013489 28542.984375 
235.015884 20901.03125 
252.982452 141309.125 
263.010925 155829.0 
264.019653 44028.25 
291.006653 115813.75 
292.014282 575706.0 
393.665985 41.0 
403.252747 37.0 
429.641846 44.0 
433.137024 36.9328 
452.243744 64.0 
458.138977 56.0 
551.344299 48.0 
553.279053 25.0 
588.79718 30.0 
614.341187 29.0 
647.59967 28.0 
782.932495 87.0 
END IONS

BEGIN IONS
RTINSECONDS=240.369995
CHARGE=1+
MSLEVEL=2
SMILES=COc1cc(O)c2c(C(=O)c3c(C2=O)c(O)c(C(=O)CCCCC)c(O)c3)c1
INCHI=InChI=1S/C21H20O7/c1-3-4-5-6-13(22)18-15(24)9-12-17(21(18)27)20(26)16-11(19(12)25)7-10(28-2)8-14(16)23/h7-9,23-24,27H,3-6H2,1-2H3
INCHIKEY=MLTVHORGISIISB-UHFFFAOYSA-N
CLASS=Quinones
ADDUCT=[M+H]+
INSTRUMENT=Waters Q-ToF Xevo G2-XS
PRECURSOR_MZ=385.1287
COMPOUND_NAME=Solorinic acid
ION_MODE=positive
FORMULA=C21H20O7
77.040192 304.0 
79.054482 239.0 
81.071114 271.54248 
151.038834 1616.837891 
175.038147 587.747559 
187.072159 1031.931641 
243.06781 7498.085938 
245.044662 3259.796875 
253.05011 3288.359375 
271.061737 9944.070312 
282.052094 8528.5 
299.055328 130754.1875 
313.067017 5013.472656 
325.070892 42900.90625 
367.117767 86692.0625 
439.213531 217.0 
445.051514 39.0 
459.118561 41.0 
460.07666 36.0 
488.742706 74.0 
490.746002 30.0 
492.384644 31.0 
531.5047 29.0 
564.707825 51.0 
567.541504 31.0 
581.819763 39.0 
581.916443 58.0 
611.398865 33.0 
612.590149 32.0 
630.184998 33.0 
636.629944 40.0 
675.41687 35.0 
678.250549 57.0 
681.615112 44.0 
690.448242 37.0 
693.118469 33.0 
709.994019 36.0 
721.666443 35.0 
745.058777 63.0 
762.885925 35.0 
775.197144 34.0 
785.834656 62.0 
796.41333 31.0 
799.863342 45.0 
END IONS

BEGIN IONS
RTINSECONDS=157.037003
CHARGE=1+
MSLEVEL=2
SMILES=Cc1cc(=O)c2c(c(c(cc2o1)OC)C)O
INCHI=InChI=1S/C12H12O4/c1-6-4-8(13)11-10(16-6)5-9(15-3)7(2)12(11)14/h4-5,14H,1-3H3
INCHIKEY=RGTSAUBIQAKKLC-UHFFFAOYSA-N
CLASS=Chromanes and Chromones
ADDUCT=[M+H]+
INSTRUMENT=Waters Q-ToF Xevo G2-XS
PRECURSOR_MZ=221.0814
COMPOUND_NAME=Eugenitin
ION_MODE=positive
FORMULA=C12H12O4
67.019379 627.825684 
68.99868 1094.541992 
77.040596 1837.042969 
123.008461 4545.675781 
137.024673 4307.890625 
151.039261 12620.507812 
177.054764 23585.765625 
178.062881 8746.664062 
272.648499 93.823303 
287.629486 66.0 
317.863098 69.0 
324.771881 57.0 
353.071198 56.0 
354.5849 95.0 
354.812317 161.0 
364.431335 49.0 
433.968262 77.0 
442.802612 90.0 
454.120911 63.0 
454.339417 73.0 
457.636749 56.0 
473.115814 99.0 
508.795044 92.0 
514.190247 69.0 
522.989685 99.0 
550.116699 71.0 
600.173401 85.0 
602.910828 82.0 
605.43988 117.0 
621.052795 70.0 
639.582214 86.0 
645.967773 60.0 
679.437012 48.0 
710.133606 92.0 
713.453247 37.0 
731.9646 42.0 
733.931458 38.0 
741.302124 46.0 
751.111877 48.0 
773.939697 57.0 
791.437073 50.0 
793.409851 43.0 
794.386292 57.0 
798.437195 45.0 
END IONS

BEGIN IONS
RTINSECONDS=208.259003
CHARGE=1+
MSLEVEL=2
SMILES=O=c1c2c(C)cc(OC)c(Cl)c2oc2c(Cl)c(OC)c(Cl)c(OC)c12
INCHI=InChI=1S/C17H13Cl3O5/c1-6-5-7(22-2)10(18)15-8(6)13(21)9-14(23-3)11(19)17(24-4)12(20)16(9)25-15/h5H,1-4H3
INCHIKEY=WIWXESWGHSIZFN-UHFFFAOYSA-N
CLASS=Xanthones and bis-Xanthones
ADDUCT=[M+H]+
INSTRUMENT=Waters Q-ToF Xevo G2-XS
PRECURSOR_MZ=402.9907
COMPOUND_NAME=Tri-O-methylarthothelin
ION_MODE=positive
FORMULA=C17H13Cl3O5
49.984951 43.0 
52.756973 51.0 
83.014862 117.780945 
91.056358 554.0 
123.972221 211.0 
125.016777 329.0 
140.002365 631.712891 
198.013504 2576.751953 
233.033188 8416.484375 
266.99881 40383.3125 
301.931458 68941.4375 
310.989075 112884.5 
323.996521 139858.875 
325.004791 42445.125 
329.926422 116485.375 
344.94989 603315.0 
459.507629 50.0 
468.098785 64.0 
484.254974 49.0 
500.067322 51.0 
523.46344 57.073486 
560.171875 109.0 
582.33252 87.0 
604.629028 75.0 
621.290649 54.911591 
716.392029 74.0 
END IONS

BEGIN IONS
RTINSECONDS=105.776001
CHARGE=1+
MSLEVEL=2
SMILES=Cc1c(O)c(C(=O)O)c(C)cc1O
INCHI=InChI=1S/C9H10O4/c1-4-3-6(10)5(2)8(11)7(4)9(12)13/h3,10-11H,1-2H3,(H,12,13)
INCHIKEY=VHNLJRRECIZZPX-UHFFFAOYSA-N
CLASS=Cleavage Products of Depsides and Depsidones
ADDUCT=[M+H]+
INSTRUMENT=Waters Q-ToF Xevo G2-XS
PRECURSOR_MZ=183.0657
COMPOUND_NAME=b-Orcinolcarboxylic acid
ION_MODE=positive
FORMULA=C9H10O4
77.039642 6200.140625 
79.054771 18300.140625 
81.070419 9368.953125 
83.013725 18696.359375 
91.054947 10485.625 
109.064888 26644.21875 
137.060196 10303.5 
165.054657 474200.0 
165.115417 5961.453125 
165.184723 13955.0 
165.286591 5939.0 
283.69693 127.0 
288.997894 74.0 
289.261169 114.0 
296.623779 86.0 
307.867279 84.0 
351.501099 83.0 
357.07196 74.0 
369.309387 75.0 
397.874878 57.0 
414.668396 62.0 
421.381256 92.0 
453.549652 74.0 
459.018036 74.0 
473.728973 70.0 
475.272736 66.0 
509.715973 132.0 
519.674011 65.0 
528.669922 68.0 
570.944275 50.0 
573.738525 52.0 
580.233887 43.0 
610.691772 56.0 
647.931274 54.0 
658.314331 47.0 
665.845093 50.0 
669.053406 182.0 
671.08252 53.0 
717.375 85.0 
728.454163 41.0 
736.200745 43.0 
744.552979 43.0 
746.536377 40.0 
775.95752 43.0 
778.469666 36.0 
779.811279 88.0 
793.043274 40.0 
797.010498 34.0 
END IONS

BEGIN IONS
RTINSECONDS=158.425995
CHARGE=1+
MSLEVEL=2
SMILES=O=c1c2c(oc3c1c(C)cc(O)c3)cc(C)cc2O
INCHI=InChI=1S/C15H12O4/c1-7-3-10(17)14-11(4-7)19-12-6-9(16)5-8(2)13(12)15(14)18/h3-6,16-17H,1-2H3
INCHIKEY=PQFJZPPNZJSEGH-UHFFFAOYSA-N
CLASS=Xanthones and bis-Xanthones
ADDUCT=[M+H+HCOOH]+
INSTRUMENT=Waters Q-ToF Xevo G2-XS
PRECURSOR_MZ=303.0869
COMPOUND_NAME="1,6-Dihydroxy-3,8-dimethylxanthone"
ION_MODE=positive
FORMULA=C15H12O4
68.050865 24.0 
70.063736 73.0 
84.963554 33.0 
88.076691 230.0 
102.091339 53.0 
106.086861 79.0 
111.894127 33.0 
120.061241 36.0 
172.991074 40.0 
201.071152 33.0 
201.885925 59.0 
210.846359 40.0 
220.420135 42.0 
220.967377 77.0 
240.276291 77.0 
258.283813 90.0 
284.295471 492.532959 
354.105011 20.0 
367.057678 18.0 
369.532349 18.0 
419.681824 22.0 
434.401459 19.0 
438.18927 21.0 
648.824829 18.0 
659.458984 18.0 
703.179321 19.0 
774.940918 20.0 
777.071289 20.0 
778.191345 33.0 
END IONS

BEGIN IONS
RTINSECONDS=187.511993
CHARGE=1+
MSLEVEL=2
SMILES=O=C(Oc1c(O)cc(CCCCC)c(C(=O)O)c1O)c1c(CCC)cc(OC)cc1OC
INCHI=InChI=1S/C24H30O8/c1-5-7-8-10-15-12-17(25)22(21(26)20(15)23(27)28)32-24(29)19-14(9-6-2)11-16(30-3)13-18(19)31-4/h11-13,25-26H,5-10H2,1-4H3,(H,27,28)
INCHIKEY=AAKHGLJWUOZNTQ-UHFFFAOYSA-N
CLASS=Depsides (Didepsides)
ADDUCT=[M+K]+
INSTRUMENT=Waters Q-ToF Xevo G2-XS
PRECURSOR_MZ=485.1578
COMPOUND_NAME=Merochlorophaeic acid
ION_MODE=positive
FORMULA=C24H30O8
56.44194 36.0 
69.038467 21.0 
71.47966 20.0 
151.077301 46.0 
177.058365 65.0 
179.108231 98.0 
184.611343 55.0 
192.07341 51.988007 
207.061661 80.0 
207.10228 1954.0 
250.043396 40.0 
261.055206 173.66687 
263.024902 20.0 
263.067535 576.412109 
265.008179 31.0 
357.065277 34.0 
375.062897 48.0 
393.100739 36.0 
403.068542 73.020203 
408.498108 58.0 
467.083862 221.141602 
467.147095 9264.25 
467.178711 278.311523 
558.242188 28.0 
561.121094 39.0 
653.770264 46.0 
655.939514 20.0 
707.990967 109.0 
775.963318 43.0 
END IONS

BEGIN IONS
RTINSECONDS=132.966003
CHARGE=1+
MSLEVEL=2
SMILES=O=c1cc(C)oc2c1c(O)c(C)c(O)c2C
INCHI=InChI=1S/C12H12O4/c1-5-4-8(13)9-11(15)6(2)10(14)7(3)12(9)16-5/h4,14-15H,1-3H3
INCHIKEY=ODNMTIVRLHXQTE-UHFFFAOYSA-N
CLASS=Chromanes and Chromones
ADDUCT=[M+H]+
INSTRUMENT=Waters Q-ToF Xevo G2-XS
PRECURSOR_MZ=221.0814
COMPOUND_NAME="5,7-Dihydroxy-2,6,8-trimethylchromone"
ION_MODE=positive
FORMULA=C12H12O4
65.039841 1800.661133 
77.039482 14457.632812 
79.052193 4627.925781 
83.013802 5302.167969 
91.055397 7975.792969 
135.044449 14265.9375 
151.042191 6374.632812 
175.075073 9675.257812 
278.148682 76.0 
311.289429 60.0 
319.274414 56.0 
329.25589 165.0 
342.882172 66.0 
354.586029 76.0 
373.889313 72.0 
385.248199 70.0 
425.897461 105.0 
430.811859 60.0 
443.702606 61.0 
461.439697 85.0 
480.879181 77.0 
496.669708 97.0 
508.063538 115.0 
510.468262 108.0 
538.465942 83.0 
539.672974 108.0 
557.060608 81.0 
604.920471 69.0 
608.273315 48.0 
618.54126 53.0 
623.764587 58.0 
629.528809 60.0 
650.529297 71.0 
671.848694 67.0 
688.776001 70.0 
704.509827 77.0 
714.931824 79.0 
715.305725 123.0 
751.863159 66.0 
764.126953 63.0 
771.814453 43.0 
782.645874 78.0 
792.65863 49.0 
END IONS

BEGIN IONS
RTINSECONDS=164.580002
CHARGE=1+
MSLEVEL=2
SMILES=Cc1cc(=O)c2c(c(C)c(O[C@H]3[C@H](OC(=O)C)[C@@H](OC(=O)C)[C@H](OC(=O)C)[C@@H](COC(=O)C)O3)cc2O)o1
INCHI=InChI=1S/C25H28O13/c1-10-7-16(30)20-17(31)8-18(11(2)21(20)33-10)37-25-24(36-15(6)29)23(35-14(5)28)22(34-13(4)27)19(38-25)9-32-12(3)26/h7-8,19,22-25,31H,9H2,1-6H3/t19-,22-,23+,24-,25-/m1/s1
INCHIKEY=NWASWCGVBSEDJX-HYOIWIKGSA-N
CLASS=Chromanes and Chromones
ADDUCT=[M+H]+
INSTRUMENT=Waters Q-ToF Xevo G2-XS
PRECURSOR_MZ=537.1608
COMPOUND_NAME=Acetylloboridin
ION_MODE=positive
FORMULA=C25H28O13
81.034622 21081.71875 
97.029106 16776.140625 
99.044144 1340.0 
109.028908 192317.0 
127.039177 79004.625 
139.040146 12725.929688 
169.049988 193270.0 
207.066269 858272.5 
207.137497 19299.296875 
207.21701 34231.0 
207.326141 20848.671875 
211.059906 15161.546875 
269.081848 447.907227 
271.081635 56914.96875 
331.015656 931.933594 
331.102783 144710.125 
331.169189 827.016113 
357.098083 454.639404 
375.104706 431.0 
407.897217 206.0 
430.712341 183.0 
443.030853 170.0 
453.166779 171.0 
477.136658 482.177246 
592.428894 157.0 
599.994141 130.0 
602.5224 132.0 
605.629883 140.0 
610.252197 121.0 
661.896973 151.0 
673.478455 86.0 
686.765137 128.0 
711.087952 124.0 
732.482544 104.0 
748.794189 93.0 
767.004944 88.0 
775.083679 96.0 
781.124146 91.0 
795.411316 88.0 
798.264221 165.0 
END IONS

BEGIN IONS
RTINSECONDS=176.401001
CHARGE=1+
MSLEVEL=2
SMILES=CC(CC)C(C(=O)NC(C(C)C)COC(=O)c1ccccc1)NC(=O)c1ccccc1
INCHI=InChI=1S/C25H32N2O4/c1-5-18(4)22(27-23(28)19-12-8-6-9-13-19)24(29)26-21(17(2)3)16-31-25(30)20-14-10-7-11-15-20/h6-15,17-18,21-22H,5,16H2,1-4H3,(H,26,29)(H,27,28)
INCHIKEY=CYKHBJCXJDXSPW-UHFFFAOYSA-N
CLASS=N-Containing Compounds
ADDUCT=[M+H]+
INSTRUMENT=Waters Q-ToF Xevo G2-XS
PRECURSOR_MZ=425.244
COMPOUND_NAME=Isoarthonin
ION_MODE=positive
FORMULA=C25H32N2O4
69.070877 2100.716797 
77.039665 29652.359375 
86.097473 23857.1875 
105.034317 290902.0 
105.138084 5842.257812 
122.061264 1624.133789 
134.060577 1724.540039 
190.123047 240744.625 
191.107681 17245.59375 
208.133987 570668.0 
208.279785 16608.265625 
208.394516 8163.0 
218.118393 37340.3125 
285.195801 559.0 
302.327148 147.0 
303.140076 284.876709 
303.208191 36306.59375 
304.200745 141.630737 
307.082306 81.439148 
364.153076 255.0 
405.190308 1630.387695 
479.306213 27.0 
481.166687 101.423523 
487.228424 46.0 
502.053528 30.0 
533.864319 29.0 
574.724915 48.0 
577.293945 34.0 
602.217224 28.0 
641.106995 24.0 
642.802185 36.0 
646.715393 20.0 
727.292114 104.873962 
END IONS

BEGIN IONS
RTINSECONDS=174.774994
CHARGE=1+
MSLEVEL=2
SMILES=CCCCCCCCCC[C@H]1C[C@H]([C@@H](C(=O)O1)C)C(=O)O
INCHI=InChI=1S/C17H30O4/c1-3-4-5-6-7-8-9-10-11-14-12-15(16(18)19)13(2)17(20)21-14/h13-15H,3-12H2,1-2H3,(H,18,19)/t13-,14-,15+/m0/s1
INCHIKEY=SRMPRRDLILJEAW-SOUVJXGZSA-N
CLASS=Acids
ADDUCT=[M+H]+
INSTRUMENT=Waters Q-ToF Xevo G2-XS
PRECURSOR_MZ=299.2222
COMPOUND_NAME=Acaranoic acid
ION_MODE=positive
FORMULA=C17H30O4
79.058289 183.0 
81.071312 161.579956 
93.069397 153.614136 
95.087257 358.0 
119.086281 230.0 
133.101944 248.0 
147.118057 263.0 
155.071121 200.0 
189.163391 279.576416 
193.121201 163.20166 
217.196365 961.500488 
235.207703 374.918945 
245.192062 204.0 
263.200775 2980.076172 
281.213348 6361.140625 
388.953033 21.0 
457.974396 22.0 
544.560242 21.0 
583.705505 27.0 
606.906494 21.0 
705.214233 26.0 
END IONS

BEGIN IONS
RTINSECONDS=108.339996
CHARGE=1+
MSLEVEL=2
SMILES=CCCc1cc(cc(c1)O)O
INCHI=InChI=1S/C9H12O2/c1-2-3-7-4-8(10)6-9(11)5-7/h4-6,10-11H,2-3H2,1H3
INCHIKEY=FRNQLQRBNSSJBK-UHFFFAOYSA-N
CLASS=Cleavage Products of Depsides and Depsidones
ADDUCT=[M+H]+
INSTRUMENT=Waters Q-ToF Xevo G2-XS
PRECURSOR_MZ=153.0916
COMPOUND_NAME=Divarinol
ION_MODE=positive
FORMULA=C9H12O2
65.040421 3223.335938 
77.039787 725.466309 
93.034424 19676.671875 
109.064896 2213.166016 
111.044769 182515.75 
123.044998 2016.306641 
234.043198 152.0 
260.814941 59.0 
261.730713 74.0 
264.975098 46.0 
269.828308 75.0 
274.680847 60.0 
317.662811 86.0 
349.423309 81.0 
349.856659 56.0 
367.139404 68.0 
379.680908 45.0 
388.789948 51.0 
395.326721 42.0 
404.39502 35.0 
449.138519 43.0 
455.686432 34.0 
457.673737 36.0 
476.674347 33.0 
477.519897 50.0 
494.191589 46.0 
543.532959 25.0 
547.381042 23.0 
548.606018 22.0 
550.205139 26.0 
567.381531 89.0 
605.784241 63.0 
607.262024 84.0 
614.348022 31.0 
626.536987 56.0 
675.56189 80.0 
678.962769 33.0 
680.94574 33.0 
680.975281 23.0 
690.683289 20.0 
692.323975 21.0 
713.13324 34.0 
741.497009 24.0 
743.555725 25.0 
767.411011 23.0 
788.733154 21.0 
791.89502 27.0 
795.795776 24.0 
795.968628 24.0 
797.434509 33.0 
END IONS

BEGIN IONS
RTINSECONDS=164.932999
CHARGE=1+
MSLEVEL=2
SMILES=O=c1c2c(oc3c1c(C)cc(O)c3)c(Cl)c(O)c(Cl)c2O
INCHI=InChI=1S/C14H8Cl2O5/c1-4-2-5(17)3-6-7(4)11(18)8-12(19)9(15)13(20)10(16)14(8)21-6/h2-3,17,19-20H,1H3
INCHIKEY=JPFFMNSHZHZAND-UHFFFAOYSA-N
CLASS=Xanthones and bis-Xanthones
ADDUCT=[M+K]+
INSTRUMENT=Waters Q-ToF Xevo G2-XS
PRECURSOR_MZ=364.9386
COMPOUND_NAME="2,4-Dichloronorlichexanthone"
ION_MODE=positive
FORMULA=C14H8Cl2O5
77.042442 38.0 
78.046646 28.0 
105.035202 44.0 
115.055801 28.0 
135.119324 41.0 
143.051987 60.0 
171.03923 43.0 
206.421799 92.0 
237.017319 120.06604 
270.975983 136.0 
290.937439 601.409668 
298.968353 253.114746 
300.966644 294.0 
326.963043 395.785889 
327.9711 3535.357422 
329.968689 1272.570312 
423.250122 21.0 
434.15686 27.0 
444.963013 28.0 
459.420044 20.0 
475.382599 53.0 
596.708069 36.0 
670.439209 19.0 
719.684998 34.0 
764.946777 26.0 
784.33197 24.0 
END IONS

BEGIN IONS
RTINSECONDS=175.302002
CHARGE=1+
MSLEVEL=2
SMILES=Oc1c(C(=O)Oc2cc(O)c(C(=O)O)c(CC(=O)CCC)c2)c(CC(=O)CCC)cc(OC)c1
INCHI=InChI=1S/C25H28O9/c1-4-6-16(26)8-14-11-19(13-20(28)22(14)24(30)31)34-25(32)23-15(9-17(27)7-5-2)10-18(33-3)12-21(23)29/h10-13,28-29H,4-9H2,1-3H3,(H,30,31)
INCHIKEY=QZZMDINWSWWNKM-UHFFFAOYSA-N
CLASS=Depsides (Didepsides)
ADDUCT=[M+Na]+
INSTRUMENT=Waters Q-ToF Xevo G2-XS
PRECURSOR_MZ=495.1631
COMPOUND_NAME=Glomellic acid
ION_MODE=positive
FORMULA=C25H28O9
52.383778 72.0 
53.738327 54.0 
62.777428 64.0 
85.106636 83.0 
85.543495 83.0 
114.645943 71.0 
126.0868 76.0 
143.085373 84.0 
145.564514 81.0 
217.084503 65418.03125 
231.099411 25453.9375 
243.062912 29982.234375 
257.078674 309155.75 
261.073639 106523.875 
275.088165 37986.15625 
336.665161 94.0 
355.215637 91.0 
376.06308 88.0 
377.616943 97.0 
389.579071 79.0 
390.480499 80.0 
419.054779 104.0 
420.015839 91.0 
591.982971 57.0 
613.396973 80.0 
636.234192 63.0 
640.000732 54.0 
647.283508 54.0 
660.91925 75.0 
666.328979 93.0 
702.097534 49.0 
718.107117 58.0 
729.794495 52.0 
754.207275 61.0 
756.467529 67.0 
757.269104 54.0 
779.320984 60.0 
END IONS

BEGIN IONS
RTINSECONDS=221.309998
CHARGE=1+
MSLEVEL=2
SMILES=O=C1Oc2c(c(CCCCC)c(C(=O)O)c(O)c2)Oc2c1c(cc(c2)OC)CCCCC
INCHI=InChI=1S/C25H30O7/c1-4-6-8-10-15-12-16(30-3)13-19-21(15)25(29)32-20-14-18(26)22(24(27)28)17(23(20)31-19)11-9-7-5-2/h12-14,26H,4-11H2,1-3H3,(H,27,28)
INCHIKEY=RWVJYKHAFMWADK-UHFFFAOYSA-N
CLASS=Depsidones
ADDUCT=[M+H]+
INSTRUMENT=Waters Q-ToF Xevo G2-XS
PRECURSOR_MZ=443.207
COMPOUND_NAME=Colensoic acid
ION_MODE=positive
FORMULA=C25H30O7
77.040497 3310.970703 
91.05526 6504.625 
93.070267 8026.308594 
137.057159 9834.289062 
175.080002 19640.078125 
189.087387 21641.25 
203.077682 30756.125 
215.075317 29674.578125 
217.087601 100563.3125 
218.091202 24679.015625 
242.062576 74351.5625 
269.066833 38832.53125 
270.05481 99848.1875 
273.149902 123144.5625 
274.153503 70875.75 
300.137024 81336.5 
326.118011 156007.5 
329.13855 120332.5 
329.212921 139904.625 
355.119049 215107.5 
357.207336 370136.0 
383.187042 1352443.0 
384.190552 902695.0 
425.194489 394084.0 
426.200836 170483.75 
501.312225 99.0 
516.306641 140.0 
551.80127 80.0 
553.675171 100.0 
589.16333 86.0 
620.762329 91.0 
636.015564 99.0 
715.537903 91.0 
745.771973 91.0 
762.03125 101.0 
END IONS

BEGIN IONS
RTINSECONDS=193.671005
CHARGE=1+
MSLEVEL=2
SMILES=O=C1O/C(=C(/C(=O)N[C@H](C(=O)O)Cc2ccccc2)\c2ccccc2)/C(=C1c1ccccc1)O
INCHI=InChI=1S/C27H21NO6/c29-23-21(18-12-6-2-7-13-18)27(33)34-24(23)22(19-14-8-3-9-15-19)25(30)28-20(26(31)32)16-17-10-4-1-5-11-17/h1-15,20,29H,16H2,(H,28,30)(H,31,32)/b24-22+/t20-/m0/s1
INCHIKEY=XTLHEUFWRQKNNG-YVURAWIMSA-N
CLASS=Pulvinic Acid Derivatives
ADDUCT=[M+Na]+
INSTRUMENT=Waters Q-ToF Xevo G2-XS
PRECURSOR_MZ=478.1267
COMPOUND_NAME=Norrhizocarpic acid
ION_MODE=positive
FORMULA=C27H21NO6
86.099831 21.0 
95.086029 40.0 
120.082146 39.0 
131.756317 33.0 
175.007355 48.0 
178.083023 64.0 
183.346161 57.0 
188.068848 1431.617188 
188.127457 69.0 
207.082413 71.328186 
235.076736 79.0 
263.066956 73.708069 
264.08139 55.0 
287.06665 1112.767578 
295.310944 50.0 
331.058807 477.350342 
331.995026 52.0 
349.004852 177.0 
353.110779 49.0 
402.575836 46.0 
406.145111 78.224792 
450.124054 241.0 
458.121338 625.862793 
554.394226 22.0 
563.208313 38.0 
594.668274 29.0 
607.919067 32.0 
657.953308 24.0 
750.258728 18.0 
759.432312 20.0 
END IONS

BEGIN IONS
RTINSECONDS=167.667007
CHARGE=1+
MSLEVEL=2
SMILES=O=C(OC)/C(=C\1/OC(=O)C(=C1O)c1ccccc1)/c1c(OC)cccc1
INCHI=InChI=1S/C20H16O6/c1-24-14-11-7-6-10-13(14)16(19(22)25-2)18-17(21)15(20(23)26-18)12-8-4-3-5-9-12/h3-11,21H,1-2H3/b18-16+
INCHIKEY=IWYVMUDIEOXASM-FBMGVBCBSA-N
CLASS=Pulvinic Acid Derivatives
ADDUCT=[M+NH4]+
INSTRUMENT=Waters Q-ToF Xevo G2-XS
PRECURSOR_MZ=370.1291
COMPOUND_NAME=Leprapinic acid
ION_MODE=positive
FORMULA=C20H16O6
89.039536 1409.0 
91.054924 5904.152344 
119.049324 7189.625 
135.043991 1072.919922 
147.044205 5185.3125 
157.02832 924.0 
175.03833 2678.761719 
207.079346 607.0 
210.067352 4765.605469 
225.086502 405.078125 
253.085144 14102.859375 
263.070221 328.0 
281.080505 8127.328125 
294.0513 825.10498 
309.076111 34613.0625 
337.070038 37830.78125 
337.134491 284.782959 
338.076263 298.463867 
421.712158 58.0 
440.855835 36.0 
457.006165 30.0 
481.289795 23.0 
500.305298 98.0 
509.068115 22.0 
532.987427 25.0 
555.388245 45.0 
573.358582 81.0 
601.425049 38.0 
601.684448 132.0 
622.518555 45.0 
639.532043 53.0 
640.004944 42.0 
681.770813 31.0 
686.012329 67.0 
699.161133 21.0 
714.731567 28.0 
716.468384 21.0 
717.119568 36.0 
739.648743 28.0 
743.740173 21.0 
753.45575 25.0 
778.871277 27.0 
794.915161 22.0 
END IONS

BEGIN IONS
RTINSECONDS=210.078995
CHARGE=1+
MSLEVEL=2
SMILES=O=C1c2c(CC(=O)CCCCC)cc(O)c(O)c2Oc2c(O1)cc(c(c2CCCCC)C(=O)O)O
INCHI=InChI=1S/C26H30O9/c1-3-5-7-9-15(27)11-14-12-18(29)22(30)24-20(14)26(33)34-19-13-17(28)21(25(31)32)16(23(19)35-24)10-8-6-4-2/h12-13,28-30H,3-11H2,1-2H3,(H,31,32)
INCHIKEY=BQHHNAPTXQOPBW-UHFFFAOYSA-N
CLASS=Depsidones
ADDUCT=[M+H+CH3CN]+
INSTRUMENT=Waters Q-ToF Xevo G2-XS
PRECURSOR_MZ=528.2234
COMPOUND_NAME=3-Hydroxyphysodic acid
ION_MODE=positive
FORMULA=C26H30O9
71.086525 50.0 
81.072723 18.0 
93.079727 23.0 
99.079765 94.0 
135.048065 51.0 
145.069382 52.0 
155.114502 57.0 
159.045456 45.0 
175.044952 40.0 
177.018967 40.0 
181.07785 71.0 
189.060577 51.0 
227.072205 69.131714 
254.057617 56.0 
255.061691 158.0 
281.045837 63.0 
299.055206 133.589355 
323.133331 119.0 
353.13559 134.530151 
354.109833 265.172852 
355.114105 656.701172 
379.113892 180.258545 
397.128632 1087.469727 
451.216217 295.364746 
453.191315 3564.078125 
467.210938 273.0 
477.194885 472.890869 
495.203156 4014.09375 
509.19931 165.383423 
682.261902 21.0 
690.258362 21.0 
745.919861 21.0 
END IONS

BEGIN IONS
RTINSECONDS=193.901001
CHARGE=1+
MSLEVEL=2
SMILES=CC(CC)C(C(=O)NC(C(C)C)COC(=O)c1ccccc1)NC(=O)c1ccccc1
INCHI=InChI=1S/C25H32N2O4/c1-5-18(4)22(27-23(28)19-12-8-6-9-13-19)24(29)26-21(17(2)3)16-31-25(30)20-14-10-7-11-15-20/h6-15,17-18,21-22H,5,16H2,1-4H3,(H,26,29)(H,27,28)
INCHIKEY=CYKHBJCXJDXSPW-UHFFFAOYSA-N
CLASS=N-Containing Compounds
ADDUCT=[M+2Na-H]+
INSTRUMENT=Waters Q-ToF Xevo G2-XS
PRECURSOR_MZ=469.2079
COMPOUND_NAME=Isoarthonin
ION_MODE=positive
FORMULA=C25H32N2O4
69.073494 28.0 
77.039917 114.0 
87.080215 94.0 
101.034805 76.0 
105.034225 2370.214844 
114.08976 110.0 
139.087189 336.623535 
156.139908 129.0 
157.096634 215.930542 
169.096664 121.0 
190.122284 107.0 
197.168411 115.143494 
225.090302 54.0 
225.135223 67.0 
225.161774 3579.576172 
279.142914 21.0 
283.189301 20.0 
291.124329 47.311371 
291.640533 48.0 
347.028625 44.0 
347.052063 40.0 
347.121338 61.0 
347.158051 130.259155 
347.198029 6666.46875 
347.248688 93.747437 
405.874756 37.0 
405.991943 33.0 
451.223877 78.0 
759.379822 25.0 
END IONS

BEGIN IONS
RTINSECONDS=209.826004
CHARGE=1+
MSLEVEL=2
SMILES=OC(=O)c1c(OC)cc(cc1CCCCC)OC(=O)c1c(CCCCC)cc(OC)cc1OC
INCHI=InChI=1S/C27H36O7/c1-6-8-10-12-18-15-21(17-22(32-4)24(18)26(28)29)34-27(30)25-19(13-11-9-7-2)14-20(31-3)16-23(25)33-5/h14-17H,6-13H2,1-5H3,(H,28,29)
INCHIKEY=FNJKTDQIJKLZGZ-UHFFFAOYSA-N
CLASS=Depsides (Didepsides)
ADDUCT=[M+H]+
INSTRUMENT=Waters Q-ToF Xevo G2-XS
PRECURSOR_MZ=473.2539
COMPOUND_NAME=Planaic acid
ION_MODE=positive
FORMULA=C27H36O7
121.064079 2197.462891 
151.075912 14998.84375 
179.070908 9486.53125 
188.083969 12310.835938 
192.078812 13457.96875 
193.086746 11326.445312 
217.121811 12887.234375 
235.134048 377767.0 
235.289062 8361.453125 
306.005981 69.0 
317.614349 65.0 
347.073364 72.0 
350.788361 123.0 
370.313629 74.0 
375.077271 79.0 
376.093262 131.0 
406.463562 98.0 
432.125122 498.493408 
455.245789 1394.481445 
532.967834 96.0 
533.190979 106.0 
540.98053 110.0 
567.584595 84.0 
614.291809 83.0 
614.495178 47.0 
619.768799 41.0 
621.27063 40.0 
625.758728 53.0 
663.327271 60.0 
673.440063 56.0 
685.779846 57.0 
688.458374 76.0 
689.474915 67.0 
727.043457 53.0 
733.244629 81.0 
742.366699 35.0 
758.602295 44.0 
768.960266 44.0 
775.032837 89.0 
795.542664 25.0 
797.54657 34.0 
797.689148 38.0 
END IONS

BEGIN IONS
RTINSECONDS=120.016998
CHARGE=1+
MSLEVEL=2
SMILES=OC1=C(OC)C(=O)c2c(O)c3oc(C(=O)C)c(O)c3c(O)c2C1=O
INCHI=InChI=1S/C15H10O9/c1-3(16)13-11(21)6-7(17)4-5(9(19)14(6)24-13)10(20)15(23-2)12(22)8(4)18/h17,19,21-22H,1-2H3
INCHIKEY=ILUWXELFYCLFHQ-UHFFFAOYSA-N
CLASS=Quinones
ADDUCT=[M+H]+
INSTRUMENT=Waters Q-ToF Xevo G2-XS
PRECURSOR_MZ=335.0403
COMPOUND_NAME=Chiodectonic acid
ION_MODE=positive
FORMULA=C15H10O9
77.03952 171.0 
78.048088 278.831787 
123.009506 815.109863 
134.035843 983.911133 
137.02504 728.99707 
151.004639 4513.863281 
162.030502 2724.693359 
190.026413 9937.960938 
193.013657 8185.390625 
208.035461 3482.730469 
221.008636 3549.183594 
261.039764 3516.763672 
263.019073 2820.275391 
264.026855 4921.785156 
289.033966 4868.820312 
292.021912 49278.46875 
317.030975 23211.03125 
548.856018 44.0 
END IONS

BEGIN IONS
RTINSECONDS=120.337997
CHARGE=1+
MSLEVEL=2
SMILES=O=C(C)O[C@@H]1[C@@H](O)[C@H](O)[C@@H](COC(=O)C)O[C@H]1Oc1cc2oc(C)cc(=O)c2c(O)c1C
INCHI=InChI=1S/C21H24O11/c1-8-5-12(24)16-14(29-8)6-13(9(2)17(16)25)31-21-20(30-11(4)23)19(27)18(26)15(32-21)7-28-10(3)22/h5-6,15,18-21,25-27H,7H2,1-4H3/t15-,18-,19+,20-,21-/m1/s1
INCHIKEY=AFCAWRFTSGVRQA-CMWLGVBASA-N
CLASS=Chromanes and Chromones
ADDUCT=[M+H+HCOOH]+
INSTRUMENT=Waters Q-ToF Xevo G2-XS
PRECURSOR_MZ=499.1452
COMPOUND_NAME=Roccellin
ION_MODE=positive
FORMULA=C21H24O11
81.033417 27.0 
99.045158 92.0 
121.071129 39.0 
127.039612 232.0 
155.068954 56.0 
165.05603 77.338257 
187.061707 179.0 
193.050339 539.0 
207.060623 126.0 
221.04538 774.287109 
247.082794 420.857178 
253.029053 86.0 
253.071609 4727.664062 
303.048096 34.0 
347.080414 28.0 
361.989777 37.0 
367.769745 69.0 
395.379272 44.0 
414.442444 42.0 
424.912781 34.0 
430.337433 51.0 
434.857849 39.0 
481.1297 50.0 
564.76123 24.0 
737.529785 18.0 
END IONS

BEGIN IONS
RTINSECONDS=162.654999
CHARGE=1+
MSLEVEL=2
SMILES=c1ccc(cc1)C1=C(C(=O)C(=C(C1=O)O)c1ccccc1)O
INCHI=InChI=1S/C18H12O4/c19-15-13(11-7-3-1-4-8-11)16(20)18(22)14(17(15)21)12-9-5-2-6-10-12/h1-10,19,22H
INCHIKEY=HZKFHDXTSAYOSN-UHFFFAOYSA-N
CLASS=Quinones
ADDUCT=[M+H+HCOOH]+
INSTRUMENT=Waters Q-ToF Xevo G2-XS
PRECURSOR_MZ=339.0869
COMPOUND_NAME=Polyporic acid
ION_MODE=positive
FORMULA=C18H12O4
77.039696 439.0 
89.039864 1735.807617 
91.055016 413.0 
105.034294 1489.147461 
161.023727 7046.746094 
167.086761 1608.216797 
178.077316 3159.789062 
179.086487 1892.074219 
189.018829 2025.167969 
223.075775 6226.714844 
251.072159 2892.353516 
261.055237 789.415527 
279.06488 7447.875 
307.060974 25229.046875 
307.120453 311.883057 
321.074524 298.0 
389.471619 39.0 
399.191528 29.0 
399.840057 29.0 
401.184967 53.0 
408.808228 28.0 
446.488312 37.0 
454.221802 29.0 
483.466187 85.0 
492.278656 30.0 
496.755707 28.0 
501.991791 40.0 
506.957642 29.0 
531.118286 74.0 
569.356079 21.0 
571.85321 24.0 
607.145081 27.0 
613.853333 56.0 
629.88678 34.0 
634.554932 73.0 
664.1521 68.0 
687.974426 30.0 
700.587769 42.0 
716.990112 32.0 
718.767456 37.0 
719.460754 64.0 
764.73645 26.0 
782.077148 20.0 
END IONS

BEGIN IONS
RTINSECONDS=142.195007
CHARGE=1+
MSLEVEL=2
SMILES=O=c1c2c(oc3c1c(C)cc(O)c3)cc(C)cc2O
INCHI=InChI=1S/C15H12O4/c1-7-3-10(17)14-11(4-7)19-12-6-9(16)5-8(2)13(12)15(14)18/h3-6,16-17H,1-2H3
INCHIKEY=PQFJZPPNZJSEGH-UHFFFAOYSA-N
CLASS=Xanthones and bis-Xanthones
ADDUCT=[M+NH4]+
INSTRUMENT=Waters Q-ToF Xevo G2-XS
PRECURSOR_MZ=274.1079
COMPOUND_NAME="1,6-Dihydroxy-3,8-dimethylxanthone"
ION_MODE=positive
FORMULA=C15H12O4
62.325989 156.0 
70.066238 739.0 
85.105301 98.0 
88.077286 1898.138672 
102.091499 692.260742 
106.087791 1858.12793 
126.243004 54.0 
143.88559 49.0 
151.9561 49.0 
192.938065 150.824463 
212.237671 706.403809 
223.986725 88.0 
256.263214 6937.832031 
326.341003 191.0 
330.961609 45.0 
332.477661 50.0 
356.987457 37.0 
372.341553 45.0 
395.662811 45.0 
401.20343 30.0 
403.717743 33.0 
411.558136 38.0 
420.282654 47.0 
448.961365 21.0 
465.614655 22.0 
545.14801 44.0 
564.936523 21.0 
578.375793 29.0 
589.167603 40.0 
593.493469 32.0 
599.646484 122.0 
632.873596 52.0 
637.68103 43.0 
659.427979 24.0 
687.239563 29.0 
689.006531 25.0 
694.806641 24.0 
722.351746 26.0 
731.615723 31.0 
736.644226 33.0 
751.885132 31.0 
763.467773 68.0 
765.787964 30.0 
782.329041 34.0 
783.283752 41.0 
END IONS

BEGIN IONS
RTINSECONDS=214.358002
CHARGE=1+
MSLEVEL=2
SMILES=CCCCCCCCCC[C@H]1C[C@H]([C@@H](C(=O)O1)C)C(=O)O
INCHI=InChI=1S/C17H30O4/c1-3-4-5-6-7-8-9-10-11-14-12-15(16(18)19)13(2)17(20)21-14/h13-15H,3-12H2,1-2H3,(H,18,19)/t13-,14-,15+/m0/s1
INCHIKEY=SRMPRRDLILJEAW-SOUVJXGZSA-N
CLASS=Acids
ADDUCT=[M+H+CH3CN]+
INSTRUMENT=Waters Q-ToF Xevo G2-XS
PRECURSOR_MZ=340.2488
COMPOUND_NAME=Acaranoic acid
ION_MODE=positive
FORMULA=C17H30O4
79.055519 249.0 
81.070518 136.259644 
95.087036 153.098511 
105.071205 204.0 
119.085487 159.454468 
133.101669 192.0 
147.118256 144.0 
155.069992 190.892944 
161.132172 148.0 
165.164566 138.0 
217.192383 178.0 
245.226135 1277.422852 
263.236816 690.535156 
273.222412 256.769775 
291.233154 890.567871 
305.25174 552.460938 
309.242126 1192.759766 
444.038727 21.0 
450.006409 24.0 
451.975708 29.0 
453.91861 19.0 
453.959869 24.0 
569.768005 21.0 
644.307495 22.0 
675.350098 24.0 
737.871155 26.0 
761.045227 33.0 
END IONS

BEGIN IONS
RTINSECONDS=167.770996
CHARGE=1+
MSLEVEL=2
SMILES=CC(C[C@H](NC(=O)/C(=C\1/C(=C(c2ccccc2)C(=O)O1)O)/c1ccccc1)C(=O)O)C
INCHI=InChI=1S/C24H23NO6/c1-14(2)13-17(23(28)29)25-22(27)19(16-11-7-4-8-12-16)21-20(26)18(24(30)31-21)15-9-5-3-6-10-15/h3-12,14,17,26H,13H2,1-2H3,(H,25,27)(H,28,29)/b21-19-/t17-/m0/s1
INCHIKEY=ZQLBONJLBKDOLE-UFVMTTLYSA-N
CLASS=Pulvinic Acid Derivatives
ADDUCT=[M+NH4]+
INSTRUMENT=Waters Q-ToF Xevo G2-XS
PRECURSOR_MZ=439.1869
COMPOUND_NAME=Norepanorin
ION_MODE=positive
FORMULA=C24H23NO6
84.373322 45.0 
86.096741 271.0 
105.032028 111.0 
132.102509 413.0 
133.029617 84.0 
157.028717 38.0 
194.080719 46.0 
195.073547 67.0 
207.082703 74.0 
223.074402 874.461426 
223.105621 83.0 
251.072021 242.961792 
279.064819 755.572754 
281.077484 54.0 
307.05661 87.244568 
307.107544 42.0 
350.821808 39.0 
356.886566 36.0 
369.861206 33.0 
374.811829 24.0 
420.137238 68.0 
489.659912 24.0 
696.979309 25.0 
END IONS

BEGIN IONS
RTINSECONDS=194.899002
CHARGE=1+
MSLEVEL=2
SMILES=Cc1cc(O)c2c(c1)C(=O)c1c(C2=O)c(cc(c1)OC)O
INCHI=InChI=1S/C16H12O5/c1-7-3-9-13(11(17)4-7)16(20)14-10(15(9)19)5-8(21-2)6-12(14)18/h3-6,17-18H,1-2H3
INCHIKEY=FFWOKTFYGVYKIR-UHFFFAOYSA-N
CLASS=Quinones
ADDUCT=[M+H]+
INSTRUMENT=Waters Q-ToF Xevo G2-XS
PRECURSOR_MZ=285.0763
COMPOUND_NAME=Parietin
ION_MODE=positive
FORMULA=C16H12O5
77.039879 3035.322266 
115.055176 5456.324219 
139.055313 29446.1875 
140.062744 43613.1875 
152.0616 10294.671875 
168.057404 87538.5625 
196.052628 38368.125 
211.076447 73132.875 
224.048401 17130.90625 
239.071274 38551.25 
242.058151 90645.1875 
345.35141 97.0 
351.513733 93.0 
373.822906 80.0 
397.828918 62.0 
408.213196 76.0 
412.790009 73.0 
442.80835 62.0 
458.244659 78.0 
469.763916 63.0 
494.5224 57.0 
497.467773 73.0 
498.892365 64.0 
515.453064 58.0 
551.902832 150.0 
567.826721 96.0 
585.40155 61.0 
587.363464 80.0 
603.840088 205.0 
637.832642 72.0 
648.526184 107.0 
649.138794 158.0 
649.770691 91.0 
661.082825 75.0 
682.65155 72.0 
691.701172 79.0 
709.013672 64.0 
729.865723 71.0 
747.424622 58.0 
776.085938 51.0 
792.883728 51.0 
793.413452 67.0 
END IONS

BEGIN IONS
RTINSECONDS=144.042999
CHARGE=1+
MSLEVEL=2
SMILES=Cc1cc(=O)c2c(cc3c(C(=CC(=O)C3=O)OC)c2OC)o1
INCHI=InChI=1S/C16H12O6/c1-7-4-9(17)14-12(22-7)5-8-13(16(14)21-3)11(20-2)6-10(18)15(8)19/h4-6H,1-3H3
INCHIKEY=GESAVORGYOGKOW-UHFFFAOYSA-N
CLASS=Quinones
ADDUCT=[2M+H]+
INSTRUMENT=Waters Q-ToF Xevo G2-XS
PRECURSOR_MZ=601.1346
COMPOUND_NAME=Canarione dimethylether
ION_MODE=positive
FORMULA=C16H12O6
73.906776 20.0 
90.557976 18.0 
104.060066 18.0 
157.465118 32.0 
202.063004 121.803894 
229.048325 265.0 
242.062576 166.859253 
243.069183 283.559326 
258.054657 561.703125 
273.07663 1828.583008 
301.02597 211.820679 
301.07132 10479.265625 
301.133331 142.0 
340.779388 41.0 
353.953186 24.0 
366.823425 37.0 
409.658936 37.0 
410.933502 27.0 
413.859772 27.0 
416.417419 21.0 
426.05423 39.0 
426.896271 25.0 
469.087891 36.0 
509.080109 50.0 
509.10379 33.0 
518.119629 41.0 
531.180847 54.0 
537.084534 120.0 
569.113464 83.353516 
693.636719 19.0 
739.957092 18.0 
END IONS

BEGIN IONS
RTINSECONDS=120.117996
CHARGE=1+
MSLEVEL=2
SMILES=Cc1cc(=O)c2c(c(c(cc2o1)OC)COC(=O)/C=C(\C)/CC(=O)O)O
INCHI=InChI=1S/C18H18O8/c1-9(4-15(20)21)5-16(22)25-8-11-13(24-3)7-14-17(18(11)23)12(19)6-10(2)26-14/h5-7,23H,4,8H2,1-3H3,(H,20,21)/b9-5+
INCHIKEY=JSLBEJMNMZJONS-WEVVVXLNSA-N
CLASS=Chromanes and Chromones
ADDUCT=[M+K]+
INSTRUMENT=Waters Q-ToF Xevo G2-XS
PRECURSOR_MZ=401.0639
COMPOUND_NAME=Lepraric acid
ION_MODE=positive
FORMULA=C18H18O8
68.057587 24.0 
77.038719 33.0 
81.034157 98.0 
93.037025 36.0 
103.054314 45.0 
121.028183 127.0 
149.059326 63.0 
176.41069 123.0 
205.049408 1395.335938 
235.061234 2045.542969 
235.138412 88.0 
256.996216 214.847046 
257.042511 22340.015625 
257.088501 259.0 
317.296967 78.0 
346.471802 60.0 
357.154266 84.0 
360.604767 91.0 
447.837891 57.0 
475.490814 45.0 
496.664551 20.0 
525.997131 19.0 
526.781982 28.0 
538.907593 22.0 
541.071045 25.0 
564.904358 24.0 
593.101501 46.0 
594.266479 44.0 
596.362671 39.0 
611.735535 25.0 
680.787903 35.0 
700.178223 21.0 
703.726807 21.0 
741.333557 36.0 
745.745239 26.0 
END IONS

BEGIN IONS
RTINSECONDS=102.846001
CHARGE=1+
MSLEVEL=2
SMILES=O=C1c2c(c3c(cc(O)c(O)c3)o2)C(=O)c2c1c1c(o2)cc(c(c1)O)O
INCHI=InChI=1S/C18H8O8/c19-7-1-5-11(3-9(7)21)25-17-13(5)15(23)18-14(16(17)24)6-2-8(20)10(22)4-12(6)26-18/h1-4,19-22H
INCHIKEY=PDICCECAPKBDBB-UHFFFAOYSA-N
CLASS=Quinones
ADDUCT=[M+H]+
INSTRUMENT=Waters Q-ToF Xevo G2-XS
PRECURSOR_MZ=353.0297
COMPOUND_NAME=Thelephoric acid
ION_MODE=positive
FORMULA=C18H8O8
68.997795 85.0 
121.028961 544.029785 
128.06369 299.0 
139.054184 2136.8125 
167.050354 950.376465 
177.020523 498.0 
195.045883 2956.121094 
213.054932 2015.161133 
223.040436 4528.78125 
241.049332 2336.972656 
251.034485 3247.792969 
269.044586 5097.421875 
279.029205 4119.195312 
297.040344 8114.109375 
307.02478 2657.605469 
325.03537 31472.359375 
335.019928 1060.380859 
END IONS

BEGIN IONS
RTINSECONDS=176.292999
CHARGE=1+
MSLEVEL=2
SMILES=O=C(OC)/C(=C\1/OC(=O)C(=C1OC)c1ccccc1)/c1c(OC)cccc1
INCHI=InChI=1S/C21H18O6/c1-24-15-12-8-7-11-14(15)17(20(22)26-3)19-18(25-2)16(21(23)27-19)13-9-5-4-6-10-13/h4-12H,1-3H3/b19-17+
INCHIKEY=WGZKMINRLLRJPF-HTXNQAPBSA-N
CLASS=Pulvinic Acid Derivatives
ADDUCT=[M+H+CH3OH]+
INSTRUMENT=Waters Q-ToF Xevo G2-XS
PRECURSOR_MZ=399.1444
COMPOUND_NAME=Leprapinic acid methyl ether
ION_MODE=positive
FORMULA=C21H18O6
91.055412 2958.152344 
103.054955 4851.484375 
105.050095 2029.832031 
115.054245 4839.710938 
118.041512 4908.707031 
161.059692 17140.515625 
189.054642 38409.8125 
191.071976 19342.359375 
207.079147 7397.105469 
219.066376 30817.84375 
251.106934 154331.875 
279.101715 109428.25 
292.072968 2582.302734 
307.09668 72266.0 
335.009033 1444.197266 
335.091095 194622.25 
335.166229 1364.94043 
367.117126 59724.34375 
483.210205 45.0 
487.227997 57.0 
490.318481 41.0 
496.112488 47.0 
512.808167 60.0 
538.796692 39.0 
550.167358 75.0 
551.427124 47.0 
560.062317 39.0 
571.755005 40.0 
600.759338 34.0 
607.448853 32.0 
624.052734 33.0 
628.9953 36.0 
643.091553 34.0 
661.831787 38.0 
671.813293 66.0 
676.481323 64.0 
676.512451 37.0 
701.11853 45.0 
724.457031 83.0 
735.416199 58.0 
758.991943 62.0 
760.102112 52.0 
764.130859 40.0 
780.437012 34.0 
784.979248 93.0 
787.144104 32.0 
END IONS

BEGIN IONS
RTINSECONDS=155.945999
CHARGE=1+
MSLEVEL=2
SMILES=COc1cc(c2c(c1)C(=O)c1cc(cc(c1C2=O)O)C=O)O
INCHI=InChI=1S/C16H10O6/c1-22-8-4-10-14(12(19)5-8)16(21)13-9(15(10)20)2-7(6-17)3-11(13)18/h2-6,18-19H,1H3
INCHIKEY=MCPKJGRRWINKOH-UHFFFAOYSA-N
CLASS=Quinones
ADDUCT=[M+H]+
INSTRUMENT=Waters Q-ToF Xevo G2-XS
PRECURSOR_MZ=299.0556
COMPOUND_NAME=Fallacinal
ION_MODE=positive
FORMULA=C16H10O6
77.039474 2600.738281 
115.055367 3179.0 
126.046501 7645.558594 
139.05426 3865.798828 
154.04155 10073.367188 
169.06456 5754.722656 
182.036346 9501.5 
197.059677 13363.796875 
238.027039 8142.820312 
253.049942 15683.75 
256.036865 17627.09375 
266.021179 10805.25 
271.061493 75314.125 
411.201599 33.811493 
END IONS

BEGIN IONS
RTINSECONDS=196.384003
CHARGE=1+
MSLEVEL=2
SMILES=Oc1c(C(=O)Oc2c(O)c(C=O)c(c(C(=O)O)c2C)O)c(C)cc(OC)c1C(=O)O
INCHI=InChI=1S/C19H16O11/c1-6-4-9(29-3)12(18(26)27)15(23)10(6)19(28)30-16-7(2)11(17(24)25)13(21)8(5-20)14(16)22/h4-5,21-23H,1-3H3,(H,24,25)(H,26,27)
INCHIKEY=RNCJCRJLNVRWJX-UHFFFAOYSA-N
CLASS=Depsides (Didepsides)
ADDUCT=[M+H]+
INSTRUMENT=Waters Q-ToF Xevo G2-XS
PRECURSOR_MZ=421.0771
COMPOUND_NAME=Thamnolic acid
ION_MODE=positive
FORMULA=C19H16O11
57.009705 33.0 
57.864986 28.0 
73.580353 20.0 
112.996407 35.0 
113.965652 28.0 
115.968491 28.0 
120.968636 43.0 
127.002419 21.0 
141.085037 71.0 
146.982147 461.344727 
191.034592 55.0 
203.041992 98.0 
209.037659 60.0 
221.004547 39.0 
221.05658 236.529419 
242.008621 60.0 
275.908691 30.0 
277.108765 42.0 
280.59845 47.0 
321.142883 1690.733398 
334.03775 41.0 
357.171173 34.0 
362.486877 44.0 
479.660065 42.0 
487.297028 18.0 
505.14975 21.0 
639.320129 44.0 
661.683655 21.0 
716.18457 24.0 
END IONS

BEGIN IONS
RTINSECONDS=189.927002
CHARGE=1+
MSLEVEL=2
SMILES=Oc1c2c(oc3c(c(C)cc(OC)c3)c2=O)c(Cl)c(O)c1Cl
INCHI=InChI=1S/C15H10Cl2O5/c1-5-3-6(21-2)4-7-8(5)12(18)9-13(19)10(16)14(20)11(17)15(9)22-7/h3-4,19-20H,1-2H3
INCHIKEY=PCGGYLLGIFFWCT-UHFFFAOYSA-N
CLASS=Xanthones and bis-Xanthones
ADDUCT=[M+H]+
INSTRUMENT=Waters Q-ToF Xevo G2-XS
PRECURSOR_MZ=340.9984
COMPOUND_NAME=Thiophaninic acid
ION_MODE=positive
FORMULA=C15H10Cl2O5
77.040428 780.706055 
91.054558 1178.875 
105.035706 1068.144531 
157.06459 1258.514648 
158.044907 1801.475586 
189.009888 4394.136719 
222.972656 11322.59375 
234.008575 18868.0625 
249.032333 22539.640625 
251.974838 45780.1875 
266.999359 78403.5 
296.972809 498809.0 
297.980286 226109.0 
403.130096 46.0 
414.677094 50.0 
415.795135 33.0 
416.708435 30.0 
418.191345 33.0 
575.48938 65.0 
592.356201 22.0 
722.82373 49.0 
725.839966 84.0 
END IONS

BEGIN IONS
RTINSECONDS=176.143005
CHARGE=1+
MSLEVEL=2
SMILES=CC(CC)C(C(=O)NC(C(C)C)COC(=O)c1ccccc1)NC(=O)c1ccccc1
INCHI=InChI=1S/C25H32N2O4/c1-5-18(4)22(27-23(28)19-12-8-6-9-13-19)24(29)26-21(17(2)3)16-31-25(30)20-14-10-7-11-15-20/h6-15,17-18,21-22H,5,16H2,1-4H3,(H,26,29)(H,27,28)
INCHIKEY=CYKHBJCXJDXSPW-UHFFFAOYSA-N
CLASS=N-Containing Compounds
ADDUCT=[M+Na]+
INSTRUMENT=Waters Q-ToF Xevo G2-XS
PRECURSOR_MZ=447.226
COMPOUND_NAME=Isoarthonin
ION_MODE=positive
FORMULA=C25H32N2O4
77.039589 12590.867188 
105.034264 210920.375 
105.13797 1910.435547 
106.037605 14639.734375 
114.091866 3972.185547 
122.060524 1995.021484 
182.153961 11372.765625 
190.12323 268353.25 
190.262726 2903.089844 
191.12532 29787.828125 
217.133774 4038.626953 
240.099564 7217.96875 
241.101028 875.256836 
303.207794 50647.25 
304.209625 8130.972656 
325.189331 350731.0 
325.371429 5360.0 
326.192291 54410.21875 
365.18338 3300.548828 
514.218933 89.0 
528.390747 67.0 
561.375793 110.0 
591.227417 38.0 
591.255371 59.0 
603.891113 56.0 
613.26001 33.0 
625.980347 33.0 
654.862976 35.0 
729.850464 40.0 
766.965515 37.0 
789.381104 76.0 
789.419739 59.0 
END IONS

BEGIN IONS
RTINSECONDS=186.005997
CHARGE=1+
MSLEVEL=2
SMILES=CC(=O)CCCCCCCCCCCCC[C@@H]1OC(=O)C(=C)[C@@H]1C(=O)O
INCHI=InChI=1S/C21H34O5/c1-16(22)14-12-10-8-6-4-3-5-7-9-11-13-15-18-19(20(23)24)17(2)21(25)26-18/h18-19H,2-15H2,1H3,(H,23,24)/t18-,19-/m0/s1
INCHIKEY=SKQHRBRVCRUFSX-OALUTQOASA-N
CLASS=Paraconic acids
ADDUCT=[M+Na]+
INSTRUMENT=Waters Q-ToF Xevo G2-XS
PRECURSOR_MZ=389.2304
COMPOUND_NAME=allo-Pertusaric acid
ION_MODE=positive
FORMULA=C21H34O5
51.88744 52.0 
79.057358 53.0 
83.085663 44.0 
95.086685 47.0 
105.070091 50.0 
105.244911 41.0 
124.261177 41.0 
136.347397 45.0 
195.005783 103.0 
257.08844 133.432129 
257.541504 192.0 
277.167542 186.11145 
277.21521 21084.625 
283.093506 147.0 
289.343964 138.0 
317.246857 160.513184 
462.74646 89.0 
463.833588 81.0 
474.320251 67.0 
487.016144 49.0 
502.318146 49.0 
520.020264 49.0 
534.371826 80.0 
562.405945 23.0 
582.407532 26.0 
592.334412 30.0 
625.57373 27.0 
627.540344 57.0 
633.661682 21.0 
738.33905 22.0 
745.838135 25.0 
758.908386 25.0 
762.576477 54.0 
769.625671 24.0 
774.836792 30.0 
775.863831 25.0 
END IONS

BEGIN IONS
RTINSECONDS=200.315002
CHARGE=1+
MSLEVEL=2
SMILES=O=C1c2c(C(=O)CCCC)cc(OC)cc2Oc2c(O1)cc(c(c2CCCCC)C(=O)O)O
INCHI=InChI=1S/C25H28O8/c1-4-6-8-9-15-21(24(28)29)18(27)13-20-23(15)32-19-12-14(31-3)11-16(17(26)10-7-5-2)22(19)25(30)33-20/h11-13,27H,4-10H2,1-3H3,(H,28,29)
INCHIKEY=JHEWMLHQNRHTQX-UHFFFAOYSA-N
CLASS=Depsidones
ADDUCT=[M+Na]+
INSTRUMENT=Waters Q-ToF Xevo G2-XS
PRECURSOR_MZ=479.1682
COMPOUND_NAME=Lobaric acid
ION_MODE=positive
FORMULA=C25H28O8
53.618576 51.0 
55.327923 66.0 
89.51841 80.0 
89.95816 119.0 
93.846375 111.0 
131.498154 73.0 
141.086044 64.0 
141.720459 104.0 
161.068298 102.0 
184.153946 143.0 
192.223358 65.0 
215.543808 81.0 
217.083725 62.0 
247.158325 117.0 
270.095734 92.540649 
289.145142 111.0 
299.217041 210.0 
354.069244 117.0 
391.188782 821.450195 
393.165375 1068.988281 
405.093628 5408.921875 
435.179718 65783.125 
461.158142 53338.46875 
497.179718 1592.594727 
544.886719 82.0 
552.210999 68.0 
562.791504 75.0 
611.078369 74.0 
620.579529 91.0 
623.337036 85.0 
642.219543 142.0 
675.896057 42.0 
678.822632 49.0 
694.564636 52.0 
710.31427 42.0 
721.009094 45.0 
733.271729 28.0 
759.31488 26.0 
777.218689 26.0 
778.262085 27.0 
798.266846 28.0 
END IONS

BEGIN IONS
RTINSECONDS=144.925003
CHARGE=1+
MSLEVEL=2
SMILES=O=C(O)c1c(C)cc(OC)c(C)c1O
INCHI=InChI=1S/C10H12O4/c1-5-4-7(14-3)6(2)9(11)8(5)10(12)13/h4,11H,1-3H3,(H,12,13)
INCHIKEY=BMRVNZZVDSVOQG-UHFFFAOYSA-N
CLASS=Cleavage Products of Depsides and Depsidones
ADDUCT=[M+H]+
INSTRUMENT=Waters Q-ToF Xevo G2-XS
PRECURSOR_MZ=197.0814
COMPOUND_NAME=Rhizonic acid
ION_MODE=positive
FORMULA=C10H12O4
77.039536 6477.0 
79.055298 8574.703125 
91.055 6096.9375 
108.057388 6920.878906 
123.080269 14418.53125 
136.052597 5086.0 
179.070541 166611.5 
180.073837 1847.630859 
263.678192 80.0 
269.53244 51.0 
278.090027 49.0 
280.769562 51.0 
287.027893 47.0 
294.078735 63.0 
298.019531 52.0 
312.423248 49.0 
347.277679 49.0 
366.369781 99.0 
366.997955 43.0 
371.622467 50.0 
394.736908 52.0 
401.799438 52.0 
416.105286 65.0 
429.475769 55.0 
438.188232 45.0 
439.706085 43.0 
446.755829 45.0 
453.607361 51.0 
453.642456 55.0 
476.73938 65.0 
496.19986 86.0 
508.820404 53.0 
509.903992 59.0 
513.037964 52.0 
519.254028 107.0 
545.670227 86.0 
559.045837 49.0 
574.331726 35.0 
612.951721 47.0 
640.152283 56.0 
665.976013 31.0 
667.62207 100.0 
684.989502 46.0 
691.723938 39.0 
721.081116 34.0 
734.419922 53.0 
742.636841 43.0 
752.299866 51.0 
777.336121 31.0 
793.278442 43.0 
798.374146 30.0 
END IONS

BEGIN IONS
RTINSECONDS=180.761993
CHARGE=1+
MSLEVEL=2
SMILES=CC(C)C[C@H](NC(=O)c1ccccc1)C(=O)OC[C@@H](NC(=O)c1ccccc1)Cc1ccccc1
INCHI=InChI=1S/C29H32N2O4/c1-21(2)18-26(31-28(33)24-16-10-5-11-17-24)29(34)35-20-25(19-22-12-6-3-7-13-22)30-27(32)23-14-8-4-9-15-23/h3-17,21,25-26H,18-20H2,1-2H3,(H,30,32)(H,31,33)/t25-,26-/m0/s1
INCHIKEY=JOOSAYNHLJGJCN-UIOOFZCWSA-N
CLASS=N-Containing Compounds
ADDUCT=[M+Na]+
INSTRUMENT=Waters Q-ToF Xevo G2-XS
PRECURSOR_MZ=495.226
COMPOUND_NAME=Hypothallin
ION_MODE=positive
FORMULA=C29H32N2O4
77.039513 5662.371094 
79.055687 4419.273438 
105.034431 60999.34375 
115.055084 7549.714844 
117.07077 74612.25 
122.060936 16569.75 
145.026993 2761.0 
172.112595 105.0 
238.12439 218737.875 
258.111725 751494.0 
258.186646 13477.789062 
258.273926 24288.0 
258.402618 14009.953125 
260.105499 171920.875 
350.731781 89.0 
356.542023 102.0 
381.142792 97.661011 
399.154205 156.11499 
401.144684 121.0 
418.933624 103.0 
431.252136 114.0 
601.039062 49.0 
607.200439 28.0 
624.052734 29.0 
629.245605 46.0 
640.403076 55.0 
674.330505 21.0 
732.324768 103.170959 
733.334473 223.562866 
734.337646 96.0 
752.332947 1862.227539 
753.333557 456.498291 
753.389221 168.917358 
796.145508 42.441284 
END IONS

BEGIN IONS
RTINSECONDS=161.860001
CHARGE=1+
MSLEVEL=2
SMILES=Cc1cc(c2c(c1)C(=O)C13C4C5C(C1C(=O)C1=C(c6c(cc(cc6C(=O)C51C(C4O)C(=O)C3=C2O)C)O)O)O)O
INCHI=InChI=1S/C30H22O10/c1-7-3-9-13(11(31)5-7)21(33)17-25(37)20-23(35)15-16-24(36)19(29(15,17)27(9)39)26(38)18-22(34)14-10(28(40)30(16,18)20)4-8(2)6-12(14)32/h3-6,15-16,19-20,23-24,31-36H,1-2H3
INCHIKEY=QFDPVUTXKUGISP-UHFFFAOYSA-N
CLASS=Quinones
ADDUCT=[M+H]+
INSTRUMENT=Waters Q-ToF Xevo G2-XS
PRECURSOR_MZ=543.1291
COMPOUND_NAME=Rugulosin
ION_MODE=positive
FORMULA=C30H22O10
91.054947 710.300781 
121.029251 1035.40918 
135.044418 3318.986328 
153.069443 2618.642578 
181.064423 7771.214844 
209.060257 14873.429688 
213.054977 43748.71875 
227.070267 59945.75 
255.065948 530322.0 
258.052612 47443.9375 
271.059967 80094.5625 
273.076508 775472.0 
371.056671 635.085938 
409.105682 4843.152344 
433.10675 6191.210938 
437.099915 14129.28125 
461.1008 18361.703125 
465.096039 13728.125 
479.111389 14678.8125 
489.09787 24304.625 
507.107147 101689.375 
525.117554 53049.875 
599.279846 33.0 
599.760742 87.0 
603.712097 45.0 
610.888916 45.0 
616.229736 52.0 
637.05957 33.0 
650.240295 40.0 
652.09906 133.0 
665.175598 28.0 
699.532654 38.634796 
749.284424 41.0 
END IONS

BEGIN IONS
RTINSECONDS=195.781998
CHARGE=1+
MSLEVEL=2
SMILES=CC(C[C@H](NC(=O)/C(=C\1/C(=C(c2ccccc2)C(=O)O1)O)/c1ccccc1)C(=O)O)C
INCHI=InChI=1S/C24H23NO6/c1-14(2)13-17(23(28)29)25-22(27)19(16-11-7-4-8-12-16)21-20(26)18(24(30)31-21)15-9-5-3-6-10-15/h3-12,14,17,26H,13H2,1-2H3,(H,25,27)(H,28,29)/b21-19-/t17-/m0/s1
INCHIKEY=ZQLBONJLBKDOLE-UFVMTTLYSA-N
CLASS=Pulvinic Acid Derivatives
ADDUCT=[M+H]+
INSTRUMENT=Waters Q-ToF Xevo G2-XS
PRECURSOR_MZ=422.1604
COMPOUND_NAME=Norepanorin
ION_MODE=positive
FORMULA=C24H23NO6
77.039673 1126.388672 
86.097427 281451.5 
89.039246 22504.25 
117.034027 16042.226562 
132.10257 358255.5 
145.028809 29451.484375 
178.078156 212193.0 
179.085449 234699.625 
189.070084 50522.90625 
207.081589 990049.0 
207.226471 46624.0 
235.07637 589263.0 
263.07196 927119.5 
263.234772 36881.25 
291.064606 221705.625 
365.348358 133.0 
404.148499 28822.71875 
486.034302 36.0 
495.248169 200.0 
495.297272 36.0 
510.267517 77.0 
519.112549 37.0 
539.043762 38.0 
555.963562 36.0 
559.866333 52.0 
574.004639 56.0 
614.61969 30.0 
634.43396 27.0 
636.192627 50.0 
644.117981 51.0 
655.628052 64.0 
684.809204 37.0 
695.425171 29.0 
698.530701 38.0 
707.93866 28.0 
716.999817 28.0 
742.766479 28.0 
END IONS

BEGIN IONS
RTINSECONDS=186.309006
CHARGE=1+
MSLEVEL=2
SMILES=Cc1cc(c(c(c1C(=O)O)O)C)OC(=O)c1c(c(c(cc1C)OC)C)OC
INCHI=InChI=1S/C20H22O7/c1-9-8-14(11(3)17(21)15(9)19(22)23)27-20(24)16-10(2)7-13(25-5)12(4)18(16)26-6/h7-8,21H,1-6H3,(H,22,23)
INCHIKEY=MIJKZXWOOXIEEU-UHFFFAOYSA-N
CLASS=Depsides (Didepsides)
ADDUCT=[M+Na]+
INSTRUMENT=Waters Q-ToF Xevo G2-XS
PRECURSOR_MZ=397.1263
COMPOUND_NAME=Diffractaic acid
ION_MODE=positive
FORMULA=C20H22O7
77.040039 35.0 
79.053322 44.0 
105.071014 126.0 
107.048836 201.0 
121.064232 125.0 
150.066467 1286.884766 
163.077347 285.0 
178.061935 493.359619 
187.038605 674.493652 
193.085815 5058.066406 
193.127853 160.0 
233.077164 101.0 
253.180176 74.0 
262.812866 71.0 
303.718018 75.0 
320.22348 59.0 
379.115448 8838.015625 
415.137451 803.0 
451.479584 74.0 
465.635651 30.0 
499.197479 21.0 
565.122986 46.0 
583.141357 43.0 
584.16449 40.0 
601.092834 36.0 
601.160889 38.0 
601.185425 58.0 
602.153992 38.0 
639.634705 25.0 
662.237732 28.0 
771.2771 34.0 
END IONS

BEGIN IONS
RTINSECONDS=190.985001
CHARGE=1+
MSLEVEL=2
SMILES=O=c1c2c(oc3c1c(C)cc(O)c3)c(Cl)c(O)c(Cl)c2O
INCHI=InChI=1S/C14H8Cl2O5/c1-4-2-5(17)3-6-7(4)11(18)8-12(19)9(15)13(20)10(16)14(8)21-6/h2-3,17,19-20H,1H3
INCHIKEY=JPFFMNSHZHZAND-UHFFFAOYSA-N
CLASS=Xanthones and bis-Xanthones
ADDUCT=[M+NH4]+
INSTRUMENT=Waters Q-ToF Xevo G2-XS
PRECURSOR_MZ=344.0093
COMPOUND_NAME="2,4-Dichloronorlichexanthone"
ION_MODE=positive
FORMULA=C14H8Cl2O5
77.038849 137.0 
91.056213 83.789612 
105.034309 85.0 
126.046288 91.0 
157.065033 124.0 
223.928146 1143.023438 
236.007446 960.650391 
251.028427 1392.245117 
255.96994 3491.769531 
270.993378 5607.15625 
300.96756 46970.59375 
301.974762 21286.03125 
308.027771 3190.988281 
396.902252 47.0 
400.831268 73.0 
423.545898 36.0 
451.840057 31.0 
475.563934 24.0 
491.373596 26.0 
493.480713 26.0 
519.644592 22.0 
522.636292 22.0 
535.383545 27.0 
544.175537 30.0 
549.218933 34.0 
580.282227 33.0 
587.612305 42.0 
595.932312 38.0 
601.537842 25.0 
610.021362 24.0 
650.70813 27.0 
673.725708 30.0 
674.208984 35.0 
687.033447 47.0 
687.292664 28.0 
712.965149 26.0 
732.057861 20.0 
749.040588 19.0 
753.559692 20.0 
767.348755 20.0 
767.868835 20.0 
769.58374 25.0 
774.018494 26.0 
775.304321 19.0 
784.468323 25.0 
786.615662 41.0 
788.353577 21.0 
END IONS

BEGIN IONS
RTINSECONDS=179.751999
CHARGE=1+
MSLEVEL=2
SMILES=Cc1cc(OC)cc2c1c(=O)c1c(c(Cl)c(O)cc1O)o2
INCHI=InChI=1S/C15H11ClO5/c1-6-3-7(20-2)4-10-11(6)14(19)12-8(17)5-9(18)13(16)15(12)21-10/h3-5,17-18H,1-2H3
INCHIKEY=UBUNKICAVVWKMH-UHFFFAOYSA-N
CLASS=Xanthones and bis-Xanthones
ADDUCT=[M+H]+
INSTRUMENT=Waters Q-ToF Xevo G2-XS
PRECURSOR_MZ=307.0373
COMPOUND_NAME=4-Chloro-6-O-methylnorlichexanthone
ION_MODE=positive
FORMULA=C15H11ClO5
68.999023 2722.824219 
77.039398 4130.378906 
91.055351 6174.539062 
126.046638 11156.765625 
165.052673 20224.15625 
186.989731 30368.203125 
200.04808 32721.171875 
218.014008 78903.375 
228.042801 192463.0 
229.050049 76295.875 
263.012665 1149144.0 
264.020508 806706.0 
272.069061 312799.0 
386.871307 90.528137 
389.281891 67.0 
396.098999 52.0 
407.265259 85.0 
477.194672 33.0 
494.451843 36.0 
526.228088 36.0 
538.357361 33.0 
584.631104 64.0 
592.072632 49.0 
593.711853 46.0 
617.11853 44.0 
627.009521 83.0 
631.902954 65.0 
656.818481 39.0 
703.762756 73.0 
708.393372 64.0 
720.426758 44.0 
732.552002 41.0 
741.366882 74.0 
759.892212 50.0 
END IONS

BEGIN IONS
RTINSECONDS=117.975998
CHARGE=1+
MSLEVEL=2
SMILES=Cc1cc(c(c(c1)O)C=O)O
INCHI=InChI=1S/C8H8O3/c1-5-2-7(10)6(4-9)8(11)3-5/h2-4,10-11H,1H3
INCHIKEY=JASONGFGOLHLGB-UHFFFAOYSA-N
CLASS=Cleavage Products of Depsides and Depsidones
ADDUCT=[M+H]+
INSTRUMENT=Waters Q-ToF Xevo G2-XS
PRECURSOR_MZ=153.0552
COMPOUND_NAME=Atranol
ION_MODE=positive
FORMULA=C8H8O3
77.039818 11059.867188 
79.055099 2301.005859 
107.049629 4134.421875 
110.037117 1435.318359 
135.044128 661.15625 
203.208176 64.0 
231.162521 51.0 
263.553528 32.0 
266.510925 36.0 
276.388062 36.0 
279.425629 30.0 
283.044891 31.0 
293.69516 45.0 
310.53949 36.0 
331.380463 85.0 
340.495117 29.0 
343.76297 26.0 
351.807251 48.0 
359.958405 29.0 
405.359283 30.0 
413.129425 23.0 
413.958649 21.0 
422.086914 18.0 
426.233612 23.0 
464.424896 51.0 
476.249084 58.0 
509.093781 41.0 
516.605408 30.0 
542.586853 33.0 
545.187012 45.0 
559.789734 25.0 
560.772888 91.0 
599.97406 22.0 
603.282959 18.0 
604.045837 19.0 
620.403503 19.0 
631.294678 23.0 
663.087341 33.0 
665.500671 30.0 
697.401245 37.0 
702.890076 28.0 
722.281677 23.0 
724.918701 28.0 
728.448242 31.0 
731.568054 25.0 
766.096619 32.0 
784.870911 24.0 
799.99884 25.0 
END IONS

BEGIN IONS
RTINSECONDS=201.643005
CHARGE=1+
MSLEVEL=2
SMILES=CC(C)C[C@@H](C(=O)OC)NC(=O)/C(=C\1/C(=C(C(=O)O1)c1ccccc1)O)/c1ccccc1
INCHI=InChI=1S/C25H25NO6/c1-15(2)14-18(24(29)31-3)26-23(28)20(17-12-8-5-9-13-17)22-21(27)19(25(30)32-22)16-10-6-4-7-11-16/h4-13,15,18,27H,14H2,1-3H3,(H,26,28)/b22-20-/t18-/m0/s1
INCHIKEY=IBSRGCBHIASQMQ-BKBKCADHSA-N
CLASS=Pulvinic Acid Derivatives
ADDUCT=[M+NH4]+
INSTRUMENT=Waters Q-ToF Xevo G2-XS
PRECURSOR_MZ=453.2026
COMPOUND_NAME=Epanorin
ION_MODE=positive
FORMULA=C25H25NO6
61.012627 478.0 
87.027351 705.975586 
89.04184 510.205078 
104.053719 9453.242188 
116.070702 646.79248 
147.048019 11128.195312 
164.074799 34820.03125 
178.079071 5025.652344 
179.085464 7388.300781 
207.081116 75239.1875 
217.064728 1965.87793 
235.076233 27915.140625 
245.060699 1066.564453 
263.07135 40452.53125 
265.089752 785.582031 
291.065613 7838.96875 
378.128723 70.0 
380.106018 80.0 
394.107056 101.259827 
422.105957 812.061035 
522.004639 27.0 
531.956482 25.0 
550.878235 41.0 
551.988831 43.0 
561.266602 103.0 
585.020325 44.0 
608.093323 36.0 
614.203613 34.0 
636.336182 37.0 
641.592346 39.0 
675.688782 28.0 
679.944458 30.0 
683.313232 33.0 
715.403809 22.0 
719.279053 27.0 
755.756165 20.0 
763.028137 25.0 
770.21582 27.0 
776.750305 25.0 
777.543945 18.0 
782.588989 28.0 
782.992249 22.0 
787.070374 18.0 
END IONS

BEGIN IONS
RTINSECONDS=100.643997
CHARGE=1+
MSLEVEL=2
SMILES=Cc1cc(=O)c2c(o1)cc1c(c2O)C(=CC(=O)C1=O)O
INCHI=InChI=1S/C14H8O6/c1-5-2-7(15)12-10(20-5)3-6-11(14(12)19)8(16)4-9(17)13(6)18/h2-4,16,19H,1H3
INCHIKEY=NPUXQAACUNUHIX-UHFFFAOYSA-N
CLASS=Quinones
ADDUCT=[2M+Na]+
INSTRUMENT=Waters Q-ToF Xevo G2-XS
PRECURSOR_MZ=567.0539
COMPOUND_NAME=Canarione
ION_MODE=positive
FORMULA=C14H8O6
56.58506 41.0 
85.575035 65.0 
105.095993 80.0 
127.434464 78.0 
131.865402 98.0 
163.302994 82.0 
181.694778 98.0 
183.90239 111.0 
189.532349 108.0 
199.234268 100.0 
215.459 103.0 
245.048813 146.0 
294.92627 2809.115234 
295.022369 660678.0 
295.100372 11086.023438 
295.195862 19072.453125 
295.295166 2373.0 
295.33316 9671.289062 
364.12912 128.0 
367.088501 103.0 
369.512177 106.0 
377.595184 69.0 
428.612396 110.0 
429.958282 66.0 
430.025238 199.12085 
430.527863 215.060547 
431.028503 153.070312 
443.462921 68.0 
502.762848 54.0 
508.225098 86.0 
511.090118 57.0 
624.850342 99.0 
659.169128 85.0 
670.199585 80.0 
675.31488 148.0 
716.123657 46.0 
722.793213 69.0 
732.048645 36.0 
753.349609 63.0 
773.47876 56.0 
782.667542 93.0 
786.746338 36.0 
792.920349 76.0 
797.029053 42.0 
END IONS

BEGIN IONS
RTINSECONDS=214.186005
CHARGE=1+
MSLEVEL=2
SMILES=CCCCCCCCCCCCCCC(C(=O)O)C(CC(=O)OC)(C(=O)O)O
INCHI=InChI=1S/C21H38O7/c1-3-4-5-6-7-8-9-10-11-12-13-14-15-17(19(23)24)21(27,20(25)26)16-18(22)28-2/h17,27H,3-16H2,1-2H3,(H,23,24)(H,25,26)
INCHIKEY=HMJJWFFZRCLIDN-UHFFFAOYSA-N
CLASS=Acids
ADDUCT=[M+Na]+
INSTRUMENT=Waters Q-ToF Xevo G2-XS
PRECURSOR_MZ=425.2515
COMPOUND_NAME=Caperatic acid
ION_MODE=positive
FORMULA=C21H38O7
81.068184 74.0 
83.188316 56.0 
89.060005 68.0 
96.019516 335.554932 
109.107071 99.0 
117.607895 144.0 
154.995758 69.25293 
158.972672 97.0 
169.011322 13775.578125 
170.017792 84.0 
217.776306 216.0 
260.371948 140.0 
273.027069 272.0 
279.22995 263.0 
303.226532 623.355469 
335.255768 98782.5 
347.216064 11426.320312 
363.248413 9272.117188 
379.246674 87470.6875 
407.240753 51984.1875 
498.325745 176.0 
498.347321 89.0 
520.881775 93.0 
524.88031 75.0 
543.339905 61.0 
579.39325 23.0 
587.33606 39.0 
599.798401 31.200134 
658.495239 30.0 
768.467529 59.0 
782.941833 51.0 
799.455933 33.0 
END IONS

BEGIN IONS
RTINSECONDS=140.520996
CHARGE=1+
MSLEVEL=2
SMILES=O=C1c2c(C)c(Cl)c(O)c(Cl)c2Oc2c(O1)c(c(c(c2C)C(=O)OC)O)C
INCHI=InChI=1S/C18H14Cl2O7/c1-5-9-16(11(20)13(22)10(5)19)26-14-6(2)8(17(23)25-4)12(21)7(3)15(14)27-18(9)24/h21-22H,1-4H3
INCHIKEY=RCLFRVZNHRFQGE-UHFFFAOYSA-N
CLASS=Depsidones
ADDUCT=[M+H]+
INSTRUMENT=Waters Q-ToF Xevo G2-XS
PRECURSOR_MZ=413.0195
COMPOUND_NAME=Leoidin
ION_MODE=positive
FORMULA=C18H14Cl2O7
77.039856 73.0 
83.013428 798.875 
115.053146 654.724609 
149.01564 2797.175781 
150.023712 654.506836 
173.015106 3117.589844 
178.018585 3093.056641 
202.01889 4604.421875 
206.014603 3576.033203 
212.987228 7214.738281 
240.982193 20718.234375 
268.977386 19284.234375 
292.976898 9395.070312 
293.984711 11029.875 
296.975159 10131.398438 
320.972443 9765.90625 
324.966736 191984.5 
348.967438 40177.71875 
352.997955 4855.285156 
380.992615 170531.75 
723.482422 23.0 
793.489075 27.0 
END IONS

BEGIN IONS
RTINSECONDS=166.580002
CHARGE=1+
MSLEVEL=2
SMILES=Cc1cc(O)c2c(C(=O)c3cc(O)cc(O)c3C2=O)c1
INCHI=InChI=1S/C15H10O5/c1-6-2-8-12(10(17)3-6)15(20)13-9(14(8)19)4-7(16)5-11(13)18/h2-5,16-18H,1H3
INCHIKEY=RHMXXJGYXNZAPX-UHFFFAOYSA-N
CLASS=Quinones
ADDUCT=[M+H]+
INSTRUMENT=Waters Q-ToF Xevo G2-XS
PRECURSOR_MZ=271.0606
COMPOUND_NAME=Emodin
ION_MODE=positive
FORMULA=C15H10O5
77.039673 6060.839844 
91.055138 19878.234375 
115.055168 219711.125 
135.044479 33583.25 
141.070633 90426.5 
145.065277 49003.875 
169.065506 139165.375 
173.060516 119088.4375 
197.060364 271249.0 
201.055344 91407.5 
225.055435 173924.875 
229.050995 221390.125 
331.622681 41.0 
344.900269 49.0 
359.673981 36.0 
359.869507 36.0 
362.115326 101.0 
376.001984 47.0 
386.366669 42.0 
417.885254 37.0 
419.615326 35.0 
434.506042 128.0 
462.258759 28.0 
481.29657 20.0 
481.83078 24.0 
506.785095 25.0 
518.097229 37.0 
545.818542 38.0 
569.432861 28.0 
596.581848 35.0 
621.74115 37.0 
625.690613 38.0 
642.074768 36.0 
648.683655 48.0 
691.191223 31.0 
697.955994 32.034973 
720.932739 53.716156 
755.077515 29.0 
END IONS

BEGIN IONS
RTINSECONDS=174.376007
CHARGE=1+
MSLEVEL=2
SMILES=O=C1c2c(C)c(Cl)c(O)c(Cl)c2Oc2c(O1)c(c(c(c2C)C(=O)OC)O)C
INCHI=InChI=1S/C18H14Cl2O7/c1-5-9-16(11(20)13(22)10(5)19)26-14-6(2)8(17(23)25-4)12(21)7(3)15(14)27-18(9)24/h21-22H,1-4H3
INCHIKEY=RCLFRVZNHRFQGE-UHFFFAOYSA-N
CLASS=Depsidones
ADDUCT=[M+H+CH3OH]+
INSTRUMENT=Waters Q-ToF Xevo G2-XS
PRECURSOR_MZ=445.0457
COMPOUND_NAME=Leoidin
ION_MODE=positive
FORMULA=C18H14Cl2O7
79.055374 141.0 
83.013695 103.0 
83.052994 159.0 
135.046005 118.884277 
136.051834 1755.660156 
149.015106 105.774353 
164.047058 5166.804688 
178.013199 199.0 
196.074463 493.16748 
206.017868 159.293579 
212.986938 334.617432 
240.982895 631.040039 
266.51593 105.0 
268.978241 1618.958984 
296.97818 1316.28125 
324.909576 362.956299 
324.967377 79119.6875 
325.033936 568.841797 
325.970734 477.284424 
352.998444 677.726074 
380.99292 12961.960938 
412.965393 363.256592 
413.019104 52020.78125 
413.094879 690.563477 
464.024353 52.0 
498.850769 26.0 
520.578003 55.0 
568.691772 22.0 
573.151184 19.0 
581.800964 24.0 
582.615601 20.0 
583.767883 31.0 
641.5979 18.0 
642.611755 20.0 
650.048523 20.0 
681.21698 18.0 
682.921387 20.0 
689.49408 18.0 
695.561523 24.0 
699.55957 18.0 
723.938538 20.0 
727.254333 42.0 
768.368225 22.0 
775.485413 52.0 
776.332214 30.0 
782.646606 48.0 
END IONS

BEGIN IONS
RTINSECONDS=122.605003
CHARGE=1+
MSLEVEL=2
SMILES=Cc1cc(=O)c2c(c(c(cc2o1)O)C)O
INCHI=InChI=1S/C11H10O4/c1-5-3-8(13)10-9(15-5)4-7(12)6(2)11(10)14/h3-4,12,14H,1-2H3
INCHIKEY=HMAUJNAGOIPKDG-UHFFFAOYSA-N
CLASS=Chromanes and Chromones
ADDUCT=[M+H]+
INSTRUMENT=Waters Q-ToF Xevo G2-XS
PRECURSOR_MZ=207.0657
COMPOUND_NAME=Eugenitol
ION_MODE=positive
FORMULA=C11H10O4
67.020866 87495.875 
69.000412 51192.59375 
77.039642 120432.4375 
79.05275 58469.15625 
105.062675 86988.4375 
121.030083 155199.625 
133.065079 129861.6875 
151.042587 184093.75 
165.019928 171759.0 
167.034119 298658.25 
282.704926 118.0 
298.78006 127.0 
304.142639 105.0 
308.229095 116.0 
344.955078 138.0 
354.056335 151.0 
371.297119 88.0 
406.426666 159.0 
441.007812 143.0 
445.940857 95.0 
462.92157 99.0 
476.351868 90.0 
484.516357 97.0 
512.830322 144.0 
537.997803 65.0 
542.513062 63.0 
543.607727 109.0 
548.177795 59.0 
573.478943 63.0 
601.44873 59.623962 
603.444519 87.0 
634.70697 51.0 
637.24707 178.0 
672.194153 59.0 
674.733704 74.0 
685.90979 50.0 
724.742676 50.0 
735.804749 53.0 
739.234131 65.0 
747.217163 63.0 
754.767761 50.0 
END IONS

BEGIN IONS
RTINSECONDS=108.592003
CHARGE=1+
MSLEVEL=2
SMILES=O=C(C)O[C@@H]1[C@@H](O)[C@H](O)[C@@H](COC(=O)C)O[C@H]1Oc1cc2oc(C)cc(=O)c2c(O)c1C
INCHI=InChI=1S/C21H24O11/c1-8-5-12(24)16-14(29-8)6-13(9(2)17(16)25)31-21-20(30-11(4)23)19(27)18(26)15(32-21)7-28-10(3)22/h5-6,15,18-21,25-27H,7H2,1-4H3/t15-,18-,19+,20-,21-/m1/s1
INCHIKEY=AFCAWRFTSGVRQA-CMWLGVBASA-N
CLASS=Chromanes and Chromones
ADDUCT=[M+H+CH3OH]+
INSTRUMENT=Waters Q-ToF Xevo G2-XS
PRECURSOR_MZ=485.1659
COMPOUND_NAME=Roccellin
ION_MODE=positive
FORMULA=C21H24O11
81.033516 85.0 
97.024773 77.0 
99.044418 166.0 
109.027878 132.0 
127.039536 609.257812 
141.056381 113.060242 
165.056732 110.0 
179.033707 143.842407 
187.061432 337.742676 
193.049103 744.0 
221.0457 2062.554688 
222.05307 964.121582 
239.05571 7101.089844 
247.082489 539.135254 
356.791992 59.0 
372.225159 73.0 
379.027649 39.0 
379.775513 38.0 
397.792816 52.0 
434.518158 68.0 
441.255249 59.0 
542.644592 24.0 
621.794434 41.0 
632.575867 27.0 
648.262329 21.0 
664.763123 19.0 
696.351013 19.0 
748.61792 27.0 
767.34552 24.0 
END IONS

BEGIN IONS
RTINSECONDS=107.342003
CHARGE=1+
MSLEVEL=2
SMILES=COc1cc(c2c(c1)C(=O)c1cc(cc(c1C2=O)O)CO)O
INCHI=InChI=1S/C16H12O6/c1-22-8-4-10-14(12(19)5-8)16(21)13-9(15(10)20)2-7(6-17)3-11(13)18/h2-5,17-19H,6H2,1H3
INCHIKEY=WJXSYUJKJSOJOG-UHFFFAOYSA-N
CLASS=Quinones
ADDUCT=[M+H]+
INSTRUMENT=Waters Q-ToF Xevo G2-XS
PRECURSOR_MZ=301.0712
COMPOUND_NAME=Fallacinol (Teloschistin)
ION_MODE=positive
FORMULA=C16H12O6
77.039772 5135.855469 
128.063065 57606.78125 
139.055038 24834.6875 
156.057632 31110.296875 
183.047485 28605.734375 
184.052673 61920.46875 
199.071945 31628.875 
212.048218 34375.875 
227.071442 138633.375 
255.066772 316363.25 
258.053497 53694.03125 
271.061737 146445.5 
283.061523 102545.6875 
357.404053 79.0 
358.669525 83.0 
384.541504 89.0 
421.546783 50.0 
446.629761 25.0 
446.674225 32.0 
454.173401 29.0 
460.59375 37.0 
532.348511 44.0 
568.008789 38.514709 
600.22052 69.0 
632.250244 37.0 
670.424683 48.0 
709.830872 46.0 
782.664307 18.0 
END IONS

BEGIN IONS
RTINSECONDS=139.498001
CHARGE=1+
MSLEVEL=2
SMILES=O=c1c2c(O)cc(C)c3c2c(C(=C(O)C3=O)OC)co1
INCHI=InChI=1S/C14H10O6/c1-5-3-7(15)10-9-6(4-20-14(10)18)13(19-2)12(17)11(16)8(5)9/h3-4,15,17H,1-2H3
INCHIKEY=GJSCVPZGPZIBMU-UHFFFAOYSA-N
CLASS=Naphthopyranes
ADDUCT=[M+H]+
INSTRUMENT=Waters Q-ToF Xevo G2-XS
PRECURSOR_MZ=275.0556
COMPOUND_NAME=Simonyellin
ION_MODE=positive
FORMULA=C14H10O6
91.055328 3063.210938 
102.047638 8333.710938 
119.049431 3699.832031 
130.041779 5177.984375 
148.052277 3584.728516 
158.037231 6729.503906 
176.047836 15144.882812 
203.032776 1032.0 
204.042389 9325.859375 
214.027145 5423.3125 
232.037872 36843.53125 
325.926849 60.0 
335.944489 58.0 
340.4328 54.0 
357.255432 57.0 
403.476105 36.0 
428.970428 48.0 
438.183441 39.0 
441.352875 62.0 
446.43042 31.0 
476.092865 59.0 
503.911682 28.0 
521.215942 40.0 
526.338074 58.0 
546.700745 36.0 
557.87085 41.0 
574.983032 41.0 
577.360291 76.0 
595.506653 49.0 
598.72229 69.0 
604.28595 128.0 
636.041321 35.0 
637.614258 46.0 
655.668335 46.0 
665.918152 34.0 
666.46283 44.0 
702.794373 42.0 
710.965454 87.0 
750.746033 43.0 
751.534546 51.0 
756.810425 34.0 
768.817749 45.0 
END IONS

BEGIN IONS
RTINSECONDS=184.320999
CHARGE=1+
MSLEVEL=2
SMILES=O=C1c2c(CC(=O)CCCCC)cc(O)cc2Oc2c(O1)cc(c(c2CCCCC)C(=O)O)O
INCHI=InChI=1S/C26H30O8/c1-3-5-7-9-16(27)11-15-12-17(28)13-20-22(15)26(32)34-21-14-19(29)23(25(30)31)18(24(21)33-20)10-8-6-4-2/h12-14,28-29H,3-11H2,1-2H3,(H,30,31)
INCHIKEY=KVTYWHGIZSCFLG-UHFFFAOYSA-N
CLASS=Depsidones
ADDUCT=[M+Na]+
INSTRUMENT=Waters Q-ToF Xevo G2-XS
PRECURSOR_MZ=493.1838
COMPOUND_NAME=Physodic acid
ION_MODE=positive
FORMULA=C26H30O8
77.523216 25.0 
88.391434 22.0 
96.181313 28.0 
119.055405 39.0 
141.071381 31.0 
160.989761 34.0 
166.452957 52.0 
185.059601 42.0 
192.057739 36.0 
195.976974 38.0 
211.075867 55.0 
248.897598 66.0 
270.995056 100.0 
282.513641 66.0 
282.995422 75.0 
285.016083 109.0 
313.105499 69.0 
327.052704 187.133911 
383.041992 125.021606 
411.180725 235.0 
449.193909 36835.8125 
452.065247 371.795654 
475.173004 3211.607422 
534.207275 126.0 
575.091187 25.0 
583.249329 25.0 
600.072998 21.0 
615.650452 21.0 
636.08136 18.0 
643.766663 19.0 
647.023621 18.0 
651.29718 20.0 
662.120789 21.0 
673.17218 50.0 
682.200867 42.0 
708.317017 31.0 
717.305481 28.0 
721.156311 27.0 
735.189209 24.0 
755.22821 34.0 
776.653809 28.0 
798.219482 22.0 
END IONS

BEGIN IONS
RTINSECONDS=162.496994
CHARGE=1+
MSLEVEL=2
SMILES=O=C1c2c(C)cc(O)c(C=O)c2Oc2c(O1)c(c(c(c2C)C(=O)O)O)C
INCHI=InChI=1S/C18H14O8/c1-6-4-10(20)9(5-19)16-11(6)18(24)26-15-8(3)13(21)12(17(22)23)7(2)14(15)25-16/h4-5,20-21H,1-3H3,(H,22,23)
INCHIKEY=FOKAHYDSEWGOHN-UHFFFAOYSA-N
CLASS=Depsidones
ADDUCT=[M+H]+
INSTRUMENT=Waters Q-ToF Xevo G2-XS
PRECURSOR_MZ=359.0767
COMPOUND_NAME=Virensic acid
ION_MODE=positive
FORMULA=C18H14O8
77.040016 10312.929688 
83.013947 19431.09375 
91.054741 9097.75 
115.054985 26079.171875 
117.070038 14823.03125 
131.050598 287665.5 
145.065582 19119.1875 
171.046967 18626.734375 
173.060471 102587.375 
201.055511 157046.625 
203.071106 19715.546875 
227.035141 103790.9375 
229.050537 60783.40625 
231.066086 168786.875 
257.050323 106854.3125 
259.060852 87646.9375 
283.02478 203294.875 
285.041046 1132429.0 
285.21106 58283.84375 
341.066284 496072.0 
417.197052 143.0 
424.55719 104.0 
444.658356 76.0 
477.274689 54.0 
478.013519 76.0 
538.623596 46.0 
559.32373 51.0 
621.100647 45.0 
625.407471 88.0 
628.29834 66.0 
640.377686 46.0 
652.863647 47.0 
690.112183 45.0 
693.889526 112.0 
695.32959 49.0 
742.315674 61.0 
END IONS

BEGIN IONS
RTINSECONDS=202.682999
CHARGE=1+
MSLEVEL=2
SMILES=O=C1Oc2c(c(CCCCC)c(C(=O)O)c(O)c2)Oc2c1c(cc(c2)OC)CCCCC
INCHI=InChI=1S/C25H30O7/c1-4-6-8-10-15-12-16(30-3)13-19-21(15)25(29)32-20-14-18(26)22(24(27)28)17(23(20)31-19)11-9-7-5-2/h12-14,26H,4-11H2,1-3H3,(H,27,28)
INCHIKEY=RWVJYKHAFMWADK-UHFFFAOYSA-N
CLASS=Depsidones
ADDUCT=[M+H+CH3OH]+
INSTRUMENT=Waters Q-ToF Xevo G2-XS
PRECURSOR_MZ=475.2332
COMPOUND_NAME=Colensoic acid
ION_MODE=positive
FORMULA=C25H30O7
64.473824 78.0 
95.087029 74.0 
137.024231 216.0 
137.061066 176.940186 
163.063538 266.13208 
164.047073 913.0 
175.075806 345.0 
196.073822 521.0 
217.08667 976.068848 
221.118225 381.799316 
270.050812 439.422607 
273.149139 3506.203125 
300.133514 721.568848 
326.120117 1971.699219 
329.138824 825.058105 
329.210205 2654.746094 
355.116882 3302.275391 
355.187408 2207.0 
357.205872 2653.097656 
383.185364 55847.1875 
399.217285 3941.501953 
425.194611 6899.09375 
443.205994 12909.242188 
457.181824 644.494629 
457.221283 3892.474609 
547.653564 31.0 
554.085022 52.0 
555.308289 31.0 
557.59552 29.0 
574.197083 71.0 
595.374878 42.0 
632.439331 31.0 
641.251099 38.0 
646.163208 23.0 
649.302917 49.0 
664.739929 87.0 
689.089233 25.0 
709.565308 25.0 
729.669312 20.0 
755.3078 19.0 
762.582275 28.0 
765.022156 40.0 
767.384583 22.0 
783.277954 18.0 
END IONS

BEGIN IONS
RTINSECONDS=225.910995
CHARGE=1+
MSLEVEL=2
SMILES=CC(C)(C)CCCCCCCCCC1C(C(=O)O)C(C(=O)O1)C
INCHI=InChI=1S/C19H34O4/c1-14-16(17(20)21)15(23-18(14)22)12-10-8-6-5-7-9-11-13-19(2,3)4/h14-16H,5-13H2,1-4H3,(H,20,21)
INCHIKEY=NRFWTRPHJATQOB-UHFFFAOYSA-N
CLASS=Paraconic acids
ADDUCT=[M+H]+
INSTRUMENT=Waters Q-ToF Xevo G2-XS
PRECURSOR_MZ=327.2535
COMPOUND_NAME=Neodihydroprotolichesterinic acid
ION_MODE=positive
FORMULA=C19H34O4
81.070595 2314.521484 
91.054993 1562.521484 
95.083351 2856.863281 
105.070091 1532.335938 
133.100143 1546.0 
147.113831 1727.496094 
161.125946 1083.539062 
179.109146 1192.755859 
193.121704 880.975586 
207.191162 2000.97168 
217.194946 2586.595703 
245.225906 5597.269531 
263.236511 12194.84375 
273.220367 1628.396484 
281.247131 3737.800781 
291.23291 22419.609375 
309.240814 48815.5 
378.426941 47.0 
383.140625 56.0 
383.624786 51.0 
388.658905 37.0 
397.266785 64.0 
398.572876 50.0 
441.243408 29.0 
448.580658 25.0 
457.318268 29.0 
464.199127 25.0 
469.974945 28.0 
473.438599 39.0 
488.326385 27.0 
520.241577 44.0 
527.951172 45.0 
543.364624 72.0 
562.535461 79.0 
574.324463 40.0 
594.772278 61.0 
613.972839 30.0 
629.09906 33.0 
639.861267 25.0 
644.121948 25.0 
661.361938 21.0 
680.853943 22.0 
685.850708 19.0 
693.274841 21.0 
702.196777 20.0 
712.64093 25.0 
719.692383 21.0 
744.745361 31.0 
759.602173 28.0 
769.191284 21.0 
769.400391 25.0 
771.080994 54.0 
786.313171 40.0 
788.332825 28.0 
END IONS

BEGIN IONS
RTINSECONDS=130.559006
CHARGE=1+
MSLEVEL=2
SMILES=O=C1c2c(C)cc(OC)c(C=O)c2Oc2c(O1)c(c(c1c2C(O)OC1=O)O)C
INCHI=InChI=1S/C19H14O9/c1-6-4-9(25-3)8(5-20)15-10(6)17(22)27-14-7(2)13(21)11-12(16(14)26-15)19(24)28-18(11)23/h4-5,19,21,24H,1-3H3
INCHIKEY=SKCUFZLDTAYNBZ-UHFFFAOYSA-N
CLASS=Depsidones
ADDUCT=[M+H]+
INSTRUMENT=Waters Q-ToF Xevo G2-XS
PRECURSOR_MZ=387.0716
COMPOUND_NAME=Stictic acid
ION_MODE=positive
FORMULA=C19H14O9
91.054199 11781.835938 
115.054848 19099.5 
132.057434 17035.984375 
145.064819 23963.15625 
147.076141 25082.046875 
160.052246 38593.84375 
175.075394 88570.25 
191.034042 43394.125 
201.056458 46675.03125 
203.071411 108937.25 
229.050949 97927.5 
231.066513 350474.0 
257.048615 124791.375 
259.061371 583815.0 
285.075073 91644.625 
301.071838 63368.75 
313.039795 340866.0 
315.08667 36235.6875 
325.071655 42617.84375 
341.066528 282224.0 
369.061279 906235.0 
369.25528 31820.0 
369.410065 17960.515625 
439.890717 83.0 
442.15271 82.0 
448.343506 105.477844 
452.601471 61.0 
482.315491 146.0 
491.949738 67.0 
521.271423 63.0 
526.808716 131.0 
557.954468 64.0 
563.642273 110.0 
584.892151 212.0 
597.778137 70.0 
618.642456 57.0 
668.589478 50.0 
669.325073 100.0 
680.339844 70.0 
691.160767 53.0 
705.296082 53.0 
710.120117 79.0 
730.120789 61.0 
744.96875 64.0 
755.506714 62.0 
795.102112 47.0 
END IONS

BEGIN IONS
RTINSECONDS=191.636002
CHARGE=1+
MSLEVEL=2
SMILES=C[C@H](O)CCCCCCCCCCCCC[C@@H]1C(C(=O)O)C(=C)C(=O)O1
INCHI=InChI=1S/C21H36O5/c1-16(22)14-12-10-8-6-4-3-5-7-9-11-13-15-18-19(20(23)24)17(2)21(25)26-18/h16,18-19,22H,2-15H2,1H3,(H,23,24)/t16-,18+,19?/m0/s1
INCHIKEY=UYUDMGMNHAKPEV-CXEJCQMISA-N
CLASS=Paraconic acids
ADDUCT=[M+H]+
INSTRUMENT=Waters Q-ToF Xevo G2-XS
PRECURSOR_MZ=369.2641
COMPOUND_NAME=Murolic acid
ION_MODE=positive
FORMULA=C21H36O5
79.05677 143.796509 
81.068657 94.783752 
95.086395 210.585571 
109.100792 175.0 
123.11599 170.0 
135.116394 156.0 
147.118744 136.0 
149.128754 166.0 
163.146515 241.0 
177.154617 117.810608 
191.179184 100.0 
223.174835 116.0 
261.258942 135.0 
276.367218 74.0 
277.250397 575.948242 
287.233246 260.566895 
305.247742 2361.910156 
315.229156 123.473755 
333.238617 478.0 
351.253387 877.625488 
402.804565 51.0 
456.949188 18.0 
457.016541 23.0 
546.856934 26.0 
578.995544 29.0 
608.217224 22.0 
703.274414 21.0 
774.186401 21.0 
END IONS

BEGIN IONS
RTINSECONDS=170.199005
CHARGE=1+
MSLEVEL=2
SMILES=O=C1c2c(CC(=O)CCCCC)cc(O)c(O)c2Oc2c(O1)cc(c(c2CCCCC)C(=O)O)O
INCHI=InChI=1S/C26H30O9/c1-3-5-7-9-15(27)11-14-12-18(29)22(30)24-20(14)26(33)34-19-13-17(28)21(25(31)32)16(23(19)35-24)10-8-6-4-2/h12-13,28-30H,3-11H2,1-2H3,(H,31,32)
INCHIKEY=BQHHNAPTXQOPBW-UHFFFAOYSA-N
CLASS=Depsidones
ADDUCT=[M+Na]+
INSTRUMENT=Waters Q-ToF Xevo G2-XS
PRECURSOR_MZ=509.1788
COMPOUND_NAME=3-Hydroxyphysodic acid
ION_MODE=positive
FORMULA=C26H30O9
52.11319 20.0 
65.945686 35.0 
81.071274 31.0 
104.051971 47.0 
110.331657 42.0 
121.24868 30.0 
124.622902 56.0 
169.503189 81.0 
179.034958 41.0 
180.706619 53.0 
186.99939 61.0 
206.090012 60.0 
229.086929 113.0 
271.608704 144.0 
279.741119 111.0 
285.066772 71.0 
286.081757 96.0 
298.991211 94.0 
343.048431 312.0 
349.108582 171.057007 
352.092529 119.0 
361.055359 80.0 
399.036835 340.743408 
423.178986 494.775146 
465.188568 67410.125 
468.056671 575.641113 
491.167847 7821.292969 
527.186523 274.123047 
567.539001 35.0 
597.519043 30.0 
618.950745 26.0 
687.177979 48.0 
690.658936 41.0 
705.288391 53.0 
710.84314 37.0 
718.037659 26.0 
718.463013 51.0 
763.255493 24.0 
797.300232 18.0 
END IONS

BEGIN IONS
RTINSECONDS=145.302002
CHARGE=1+
MSLEVEL=2
SMILES=Clc1c(O)cc(O)c2c1oc1cc(O)cc(C)c1c2=O
INCHI=InChI=1S/C14H9ClO5/c1-5-2-6(16)3-9-10(5)13(19)11-7(17)4-8(18)12(15)14(11)20-9/h2-4,16-18H,1H3
INCHIKEY=BKLLYUDFOSSKSW-UHFFFAOYSA-N
CLASS=Xanthones and bis-Xanthones
ADDUCT=[M+H]+
INSTRUMENT=Waters Q-ToF Xevo G2-XS
PRECURSOR_MZ=293.0217
COMPOUND_NAME=4-Chloronorlichexanthone
ION_MODE=positive
FORMULA=C14H9ClO5
68.998718 10044.476562 
77.038689 39663.5625 
127.054367 55059.9375 
128.062637 87202.5625 
131.045212 26722.53125 
151.039612 81293.625 
184.051804 124941.9375 
187.039917 97614.6875 
215.034607 216226.5 
229.049774 209843.375 
250.004089 191353.125 
258.053741 821668.0 
350.986115 116.0 
385.804321 102.486511 
409.485779 134.0 
443.966034 74.0 
444.796509 72.0 
450.616882 101.0 
472.490234 61.0 
497.10968 42.941284 
540.470886 52.0 
546.929382 48.0 
549.653137 37.0 
560.309998 50.0 
592.139404 86.0 
634.836548 62.0 
647.49646 43.0 
659.970337 52.0 
681.874084 37.0 
END IONS

BEGIN IONS
RTINSECONDS=172.264999
CHARGE=1+
MSLEVEL=2
SMILES=CC[C@@H](C)[C@H](NC(=O)c1ccccc1)C(=O)OC[C@@H](NC(=O)c1ccccc1)C(C)C
INCHI=InChI=1S/C25H32N2O4/c1-5-18(4)22(27-24(29)20-14-10-7-11-15-20)25(30)31-16-21(17(2)3)26-23(28)19-12-8-6-9-13-19/h6-15,17-18,21-22H,5,16H2,1-4H3,(H,26,28)(H,27,29)/t18-,21-,22+/m1/s1
INCHIKEY=YYJRAGPDSYXARF-QIJUGHKUSA-N
CLASS=N-Containing Compounds
ADDUCT=[M+H]+
INSTRUMENT=Waters Q-ToF Xevo G2-XS
PRECURSOR_MZ=425.244
COMPOUND_NAME=Arthonin
ION_MODE=positive
FORMULA=C25H32N2O4
77.039619 21337.203125 
86.097443 2424.171875 
104.051224 1284.988281 
105.034126 237728.0 
105.138016 2897.0 
122.060646 5137.851562 
190.122925 513667.5 
190.185806 5586.414062 
190.262619 14846.445312 
190.372253 6357.488281 
208.134323 294354.75 
218.118622 62634.4375 
271.134277 100.0 
286.205963 108.0 
287.445068 103.0 
309.484558 196.0 
330.974182 124.0 
335.007874 95.0 
351.42984 83.0 
365.284393 83.0 
365.428162 73.0 
452.760468 123.0 
478.202637 65.0 
514.681824 61.0 
515.554749 73.0 
543.09613 57.0 
566.147827 141.0 
571.654114 62.0 
596.372742 76.0 
597.210083 71.0 
609.382324 81.0 
621.242432 66.0 
631.451416 81.0 
675.247009 75.0 
688.652893 67.0 
695.22406 73.410645 
696.869202 83.0 
734.333862 59.0 
747.799744 83.0 
748.4505 65.0 
752.593811 60.0 
779.386719 53.0 
END IONS

BEGIN IONS
RTINSECONDS=179.201996
CHARGE=1+
MSLEVEL=2
SMILES=O=C1c2c(C(=O)CCCC)cc(OC)cc2Oc2c(O1)cc(c(c2CCCCC)C(=O)O)O
INCHI=InChI=1S/C25H28O8/c1-4-6-8-9-15-21(24(28)29)18(27)13-20-23(15)32-19-12-14(31-3)11-16(17(26)10-7-5-2)22(19)25(30)33-20/h11-13,27H,4-10H2,1-3H3,(H,28,29)
INCHIKEY=JHEWMLHQNRHTQX-UHFFFAOYSA-N
CLASS=Depsidones
ADDUCT=[M+H]+
INSTRUMENT=Waters Q-ToF Xevo G2-XS
PRECURSOR_MZ=457.1862
COMPOUND_NAME=Lobaric acid
ION_MODE=positive
FORMULA=C25H28O8
91.055107 9737.757812 
93.068634 6676.488281 
105.066605 6340.960938 
137.029434 11706.90625 
158.072449 18779.734375 
173.095871 22846.984375 
201.087692 46670.09375 
227.069946 68547.0625 
255.071091 110024.0 
269.106598 62635.5625 
287.127533 108941.875 
309.1091 110448.4375 
311.131927 74387.8125 
351.087524 141326.875 
369.09903 407507.0 
379.155701 433195.0 
397.165619 1286152.0 
398.168488 663919.0 
421.166046 1450991.0 
422.16861 893122.0 
440.181 757719.0 
522.484985 90.0 
530.271729 110.0 
608.092529 163.0 
760.444763 95.0 
END IONS

BEGIN IONS
RTINSECONDS=179.466995
CHARGE=1+
MSLEVEL=2
SMILES=O=C1c2c(C(=O)CCCC)cc(OC)cc2Oc2c(O1)cc(c(c2CCCCC)C(=O)O)O
INCHI=InChI=1S/C25H28O8/c1-4-6-8-9-15-21(24(28)29)18(27)13-20-23(15)32-19-12-14(31-3)11-16(17(26)10-7-5-2)22(19)25(30)33-20/h11-13,27H,4-10H2,1-3H3,(H,28,29)
INCHIKEY=JHEWMLHQNRHTQX-UHFFFAOYSA-N
CLASS=Depsidones
ADDUCT=[M+H+CH3OH]+
INSTRUMENT=Waters Q-ToF Xevo G2-XS
PRECURSOR_MZ=489.2125
COMPOUND_NAME=Lobaric acid
ION_MODE=positive
FORMULA=C25H28O8
57.070721 204.0 
67.055634 215.0 
85.066025 1187.46582 
91.054459 403.0 
93.071075 550.0 
95.082382 726.0 
137.024643 2618.0 
151.039505 1084.501953 
177.089691 1197.0 
179.035385 1346.504883 
201.090088 1399.0 
217.084625 1718.90625 
231.064575 2139.814453 
235.096695 2359.923828 
269.117126 7581.328125 
273.112976 4232.78125 
287.127808 23310.875 
343.190277 20913.421875 
357.132751 24804.984375 
369.095886 21247.734375 
371.184723 77251.0 
395.184265 31604.375 
397.163788 255628.125 
413.195221 189689.875 
439.17395 42806.34375 
457.184845 607142.0 
457.400818 15382.890625 
545.77594 77.0 
565.926453 55.0 
625.757568 45.0 
664.453247 47.0 
666.00177 52.0 
674.211304 49.0 
683.748901 144.0 
717.932373 43.0 
759.354553 66.0 
760.249939 47.0 
796.416992 52.0 
END IONS

BEGIN IONS
RTINSECONDS=172.209
CHARGE=1+
MSLEVEL=2
SMILES=O=C1c2c(c(Cl)c(c(C=O)c2Oc2c(C)c(c(O)c(C)c2O1)C(=O)O)O)C
INCHI=InChI=1S/C18H13ClO8/c1-5-10-16(8(4-20)13(22)11(5)19)26-14-6(2)9(17(23)24)12(21)7(3)15(14)27-18(10)25/h4,21-22H,1-3H3,(H,23,24)
INCHIKEY=NLEQXKZDZFGBFP-UHFFFAOYSA-N
CLASS=Depsidones
ADDUCT=[M+H]+
INSTRUMENT=Waters Q-ToF Xevo G2-XS
PRECURSOR_MZ=393.0377
COMPOUND_NAME=Chlorovirensic acid
ION_MODE=positive
FORMULA=C18H13ClO8
68.998894 79.0 
83.014496 312.757324 
115.055481 534.0 
139.037888 202.126099 
151.032959 472.0 
165.010849 886.683105 
179.028122 447.0 
207.023499 3592.494141 
235.016754 2703.830078 
260.996796 836.395508 
263.010468 1421.890625 
265.027649 2630.535156 
291.008972 2032.913086 
293.020477 1655.366211 
316.984772 2980.3125 
319.000519 49946.28125 
347.030182 1482.40625 
375.025146 7940.964844 
450.750763 63.0 
497.664429 73.0 
500.07074 26.0 
512.027039 38.0 
512.748047 41.0 
579.56311 164.0 
580.975281 70.0 
583.661926 34.0 
608.114014 37.0 
615.545105 30.0 
644.333557 32.0 
669.556396 29.0 
670.953613 39.0 
694.426575 31.0 
699.003174 46.0 
707.249512 33.0 
739.320374 31.0 
760.058472 68.0 
767.354004 36.0 
773.273254 28.0 
791.11853 49.0 
END IONS

BEGIN IONS
RTINSECONDS=203.615005
CHARGE=1+
MSLEVEL=2
SMILES=Cc1c2c(Oc3c(OC2=O)c(c(c(c3C)Cl)OC)C)c(Cl)c(O)c1Cl
INCHI=InChI=1S/C17H13Cl3O5/c1-5-8-16(11(20)12(21)9(5)18)24-14-6(2)10(19)13(23-4)7(3)15(14)25-17(8)22/h21H,1-4H3
INCHIKEY=MTWNEIGWRWQLFS-UHFFFAOYSA-N
CLASS=Depsidones
ADDUCT=[M+H]+
INSTRUMENT=Waters Q-ToF Xevo G2-XS
PRECURSOR_MZ=402.9907
COMPOUND_NAME=Caloploicin
ION_MODE=positive
FORMULA=C17H13Cl3O5
77.040527 24.0 
91.054947 57.0 
122.072807 180.0 
125.014702 53.0 
133.028519 52.0 
142.019974 67.0 
157.041885 422.0 
192.05986 56.0 
216.035767 88.0 
218.962173 65.0 
245.037125 134.516846 
280.004303 337.0 
306.989014 302.0 
331.945312 565.87207 
339.01532 594.701172 
346.961151 674.67334 
347.001221 211.0 
374.995544 674.0 
493.507721 33.0 
543.011169 54.0 
653.555298 25.0 
664.484558 34.0 
END IONS

BEGIN IONS
RTINSECONDS=163.794006
CHARGE=1+
MSLEVEL=2
SMILES=O=C1c2c(CC(=O)CCCCC)cc(O)c(O)c2Oc2c(O1)cc(c(c2CCCCC)C(=O)O)O
INCHI=InChI=1S/C26H30O9/c1-3-5-7-9-15(27)11-14-12-18(29)22(30)24-20(14)26(33)34-19-13-17(28)21(25(31)32)16(23(19)35-24)10-8-6-4-2/h12-13,28-30H,3-11H2,1-2H3,(H,31,32)
INCHIKEY=BQHHNAPTXQOPBW-UHFFFAOYSA-N
CLASS=Depsidones
ADDUCT=[M+H]+
INSTRUMENT=Waters Q-ToF Xevo G2-XS
PRECURSOR_MZ=487.1968
COMPOUND_NAME=3-Hydroxyphysodic acid
ION_MODE=positive
FORMULA=C26H30O9
71.086739 3295.027344 
95.083313 5048.027344 
99.081291 7130.699219 
107.07766 6089.871094 
123.046165 7502.574219 
166.028763 13717.492188 
167.036484 14999.9375 
177.083984 18170.09375 
179.038315 24496.140625 
205.054642 18708.1875 
219.066635 185047.5 
220.070374 37886.3125 
257.079254 77509.25 
263.092499 115989.4375 
264.096191 63974.15625 
273.054352 60993.4375 
275.0672 47629.4375 
317.138885 124133.3125 
328.096161 297626.25 
329.100494 198336.75 
373.128693 240116.375 
399.107544 264814.5 
401.195709 418662.75 
427.175873 1215111.0 
428.178986 937934.0 
443.206604 314604.25 
469.185791 239795.875 
END IONS

BEGIN IONS
RTINSECONDS=198.824005
CHARGE=1+
MSLEVEL=2
SMILES=Cc1cc(c2c(c1O)C(=O)c1cc(cc(c1C2=O)O)OC)O
INCHI=InChI=1S/C16H12O6/c1-6-3-9(17)12-13(14(6)19)15(20)8-4-7(22-2)5-10(18)11(8)16(12)21/h3-5,17-19H,1-2H3
INCHIKEY=VUUONEBXXLQCQX-UHFFFAOYSA-N
CLASS=Quinones
ADDUCT=[M+H]+
INSTRUMENT=Waters Q-ToF Xevo G2-XS
PRECURSOR_MZ=301.0712
COMPOUND_NAME=Erythroglaucin
ION_MODE=positive
FORMULA=C16H12O6
77.041435 90.0 
115.054604 268.963135 
128.062546 1193.145508 
151.040558 352.31958 
156.057556 793.908203 
184.052612 2453.511719 
212.046021 1507.591797 
227.072754 2089.275391 
240.04277 677.954102 
255.064621 1368.0 
258.051971 4971.363281 
273.075897 972.48291 
367.686523 59.0 
393.738037 45.0 
409.210571 45.0 
413.236328 55.0 
415.509796 39.0 
421.132751 38.0 
436.251312 36.0 
482.605438 24.0 
496.104797 23.0 
502.716675 24.0 
519.659668 20.0 
519.820374 26.0 
523.702026 20.0 
565.060791 30.0 
602.90155 30.0 
614.014771 23.0 
623.318054 34.0 
649.733704 23.0 
658.319763 26.0 
673.826599 65.0 
675.342712 63.0 
700.586243 33.0 
709.924805 22.0 
718.305664 20.0 
731.579895 48.0 
776.152649 23.0 
END IONS

BEGIN IONS
RTINSECONDS=163.059006
CHARGE=1+
MSLEVEL=2
SMILES=O=c1c2c(oc3c1c(C)cc(O)c3)c(Cl)c(O)c(Cl)c2O
INCHI=InChI=1S/C14H8Cl2O5/c1-4-2-5(17)3-6-7(4)11(18)8-12(19)9(15)13(20)10(16)14(8)21-6/h2-3,17,19-20H,1H3
INCHIKEY=JPFFMNSHZHZAND-UHFFFAOYSA-N
CLASS=Xanthones and bis-Xanthones
ADDUCT=[M+H+HCOOH]+
INSTRUMENT=Waters Q-ToF Xevo G2-XS
PRECURSOR_MZ=372.9882
COMPOUND_NAME="2,4-Dichloronorlichexanthone"
ION_MODE=positive
FORMULA=C14H8Cl2O5
57.930649 31.0 
61.995548 29.0 
105.036476 75.0 
116.061287 82.0 
144.057129 164.280273 
155.049744 307.197266 
162.022522 303.808594 
171.042572 243.694702 
172.049911 431.0 
190.016968 219.222778 
200.046387 254.484253 
218.015976 211.0 
229.049332 210.0 
263.013611 293.275635 
280.966553 425.112793 
291.008881 334.803467 
292.01355 587.095215 
298.929718 2695.0 
434.428619 21.0 
436.561798 40.0 
447.450012 26.0 
481.328094 26.0 
496.280731 35.0 
499.073486 18.0 
500.966675 21.0 
530.362732 20.0 
536.95105 35.0 
538.37384 27.0 
581.215088 28.0 
583.6745 18.0 
619.889404 22.0 
625.08252 21.0 
643.781494 18.0 
669.082275 22.0 
698.433044 19.0 
705.002136 41.0 
713.560486 27.0 
739.680237 22.0 
743.816772 19.0 
763.555237 21.0 
783.636536 37.0 
END IONS

BEGIN IONS
RTINSECONDS=172.957993
CHARGE=1+
MSLEVEL=2
SMILES=O=C1O/C(=C(/C(=O)N[C@H](C(=O)O)Cc2ccccc2)\c2ccccc2)/C(=C1c1ccccc1)O
INCHI=InChI=1S/C27H21NO6/c29-23-21(18-12-6-2-7-13-18)27(33)34-24(23)22(19-14-8-3-9-15-19)25(30)28-20(26(31)32)16-17-10-4-1-5-11-17/h1-15,20,29H,16H2,(H,28,30)(H,31,32)/b24-22+/t20-/m0/s1
INCHIKEY=XTLHEUFWRQKNNG-YVURAWIMSA-N
CLASS=Pulvinic Acid Derivatives
ADDUCT=[M+NH4]+
INSTRUMENT=Waters Q-ToF Xevo G2-XS
PRECURSOR_MZ=473.1713
COMPOUND_NAME=Norrhizocarpic acid
ION_MODE=positive
FORMULA=C27H21NO6
91.053505 63.0 
95.054054 51.0 
119.050308 61.0 
123.04425 116.0 
136.075546 427.320801 
165.055878 666.887695 
178.076202 175.247192 
179.085876 182.0 
182.081131 852.911621 
207.080048 1262.723633 
235.076263 276.202393 
263.071594 1431.154297 
263.117798 166.0 
264.065186 41.0 
290.057037 39.0 
291.065094 411.168701 
337.235535 35.0 
349.133057 51.0 
367.145081 44.0 
388.018005 41.0 
389.919495 46.0 
402.999969 43.324982 
412.831635 37.0 
420.302368 41.0 
454.128204 39.0 
505.261475 29.0 
531.309143 24.0 
588.46991 28.0 
613.333557 24.0 
636.549988 23.0 
641.320068 21.0 
684.942688 18.0 
END IONS

BEGIN IONS
RTINSECONDS=173.365997
CHARGE=1+
MSLEVEL=2
SMILES=CCCCCC(=O)Cc1cc(cc(c1C(=O)Oc1cc(c(c(c1)CC(=O)CCCCC)C(=O)O)OC)O)O
INCHI=InChI=1S/C29H36O9/c1-4-6-8-10-20(30)12-18-14-22(32)16-24(33)26(18)29(36)38-23-15-19(13-21(31)11-9-7-5-2)27(28(34)35)25(17-23)37-3/h14-17,32-33H,4-13H2,1-3H3,(H,34,35)
INCHIKEY=DGXLEDCXMIJNPJ-UHFFFAOYSA-N
CLASS=Depsides (Didepsides)
ADDUCT=[M+Na]+
INSTRUMENT=Waters Q-ToF Xevo G2-XS
PRECURSOR_MZ=551.2257
COMPOUND_NAME=Arthoniaic acid
ION_MODE=positive
FORMULA=C29H36O9
53.122555 47.0 
53.918388 43.0 
78.215561 54.0 
85.088806 48.0 
88.395531 56.0 
107.37455 49.0 
107.974327 82.0 
115.504959 57.0 
163.073456 88.0 
170.307877 116.0 
173.148117 97.0 
175.109009 106.0 
220.373764 122.0 
245.116638 1459.05957 
271.094299 7970.613281 
285.110626 28270.8125 
289.103729 3647.017578 
303.121338 482218.0 
303.195068 4246.277344 
303.29718 11909.0 
378.709473 83.0 
387.513397 110.0 
413.905579 130.0 
434.959381 120.0 
465.058105 115.470642 
466.067413 303.849365 
494.066071 345.45752 
498.466644 156.0 
608.390076 46.0 
625.239624 62.0 
660.964661 42.0 
678.458191 53.0 
678.915955 129.0 
682.787964 55.0 
715.448608 51.0 
719.189331 94.0 
723.890259 55.0 
727.260742 74.0 
767.515869 45.0 
777.502991 36.0 
786.329773 56.0 
END IONS

BEGIN IONS
RTINSECONDS=188.313995
CHARGE=1+
MSLEVEL=2
SMILES=CC(=O)CCCCCCCCCCCCC[C@H]1[C@H](C(C)C(=O)O1)C(=O)O
INCHI=InChI=1S/C21H36O5/c1-16(22)14-12-10-8-6-4-3-5-7-9-11-13-15-18-19(20(23)24)17(2)21(25)26-18/h17-19H,3-15H2,1-2H3,(H,23,24)/t17?,18-,19-/m0/s1
INCHIKEY=SPGPUDJMXMJNCU-MNNMKWMVSA-N
CLASS=Paraconic acids
ADDUCT=[M+H]+
INSTRUMENT=Waters Q-ToF Xevo G2-XS
PRECURSOR_MZ=369.2641
COMPOUND_NAME=Dihydropertusaric
ION_MODE=positive
FORMULA=C21H36O5
79.05542 12026.0625 
81.070717 25165.96875 
93.070457 12266.234375 
95.0858 29908.46875 
105.070457 11293.835938 
109.095963 16869.390625 
177.164658 3327.158203 
261.257233 5892.980469 
277.252869 30787.59375 
287.236176 16567.640625 
305.247284 97092.375 
315.232239 9979.570312 
333.242828 70149.5625 
351.253265 212762.0 
442.356476 63.0 
468.440704 83.0 
480.950256 99.0 
484.606964 73.0 
497.145721 121.0 
521.023376 97.0 
526.073364 94.0 
552.81604 154.0 
573.693298 55.0 
600.152588 49.0 
603.190247 53.0 
610.034851 74.0 
627.003296 46.0 
652.534729 42.0 
662.986267 43.0 
688.479065 111.0 
701.916992 42.0 
735.42511 69.0 
741.88446 42.0 
745.681396 44.0 
747.439941 78.0 
754.707153 47.0 
761.675781 61.0 
793.437866 50.0 
796.4328 68.0 
END IONS

BEGIN IONS
RTINSECONDS=113.420998
CHARGE=1+
MSLEVEL=2
SMILES=Cc1cc(=O)c2c(cc3c(C(=CC(=O)C3=O)OC)c2OC)o1
INCHI=InChI=1S/C16H12O6/c1-7-4-9(17)14-12(22-7)5-8-13(16(14)21-3)11(20-2)6-10(18)15(8)19/h4-6H,1-3H3
INCHIKEY=GESAVORGYOGKOW-UHFFFAOYSA-N
CLASS=Quinones
ADDUCT=[2M+Na]+
INSTRUMENT=Waters Q-ToF Xevo G2-XS
PRECURSOR_MZ=623.1165
COMPOUND_NAME=Canarione dimethylether
ION_MODE=positive
FORMULA=C16H12O6
68.722916 54.0 
69.380493 56.0 
71.552391 53.0 
72.007797 53.0 
78.092911 58.0 
78.927963 140.0 
79.704147 53.0 
80.096054 46.0 
141.911484 77.0 
144.369888 77.0 
150.7146 90.0 
151.554932 126.0 
168.597122 97.0 
200.87204 137.0 
205.251343 109.0 
208.691971 108.0 
216.312256 150.0 
223.929764 92.0 
268.274933 103.0 
323.054413 889385.0 
323.13913 19021.703125 
323.235718 30866.0 
323.337494 11496.007812 
323.38031 17687.421875 
341.065216 17977.984375 
394.989136 105.0 
425.566681 103.0 
444.709839 92.0 
471.23822 92.0 
471.578796 91.546753 
472.074951 390.470703 
472.571198 580.317383 
473.074707 695.760742 
495.253693 69.0 
535.0224 68.0 
557.900452 50.0 
564.199585 110.0 
681.251526 99.0 
698.768677 77.0 
707.788452 60.0 
711.434692 109.0 
721.911621 71.0 
729.538757 101.0 
766.918701 49.0 
772.424927 80.0 
780.823242 46.0 
787.751221 43.0 
789.723572 56.0 
795.990601 84.0 
END IONS

BEGIN IONS
RTINSECONDS=151.457993
CHARGE=1+
MSLEVEL=2
SMILES=CC(=O)CCCCCCCCCCCCC[C@@H]1OC(=O)C(=C)[C@@H]1C(=O)O
INCHI=InChI=1S/C21H34O5/c1-16(22)14-12-10-8-6-4-3-5-7-9-11-13-15-18-19(20(23)24)17(2)21(25)26-18/h18-19H,2-15H2,1H3,(H,23,24)/t18-,19-/m0/s1
INCHIKEY=SKQHRBRVCRUFSX-OALUTQOASA-N
CLASS=Paraconic acids
ADDUCT=[M+K]+
INSTRUMENT=Waters Q-ToF Xevo G2-XS
PRECURSOR_MZ=405.2043
COMPOUND_NAME=allo-Pertusaric acid
ION_MODE=positive
FORMULA=C21H34O5
53.816799 34.0 
67.054993 28.0 
72.688553 23.0 
76.743591 30.0 
96.088631 28.0 
107.092453 43.0 
123.128906 34.0 
133.102722 70.0 
168.963516 35.0 
169.918427 33.0 
215.067322 43.0 
220.679886 37.0 
260.328735 52.0 
266.124969 59.0 
280.230835 49.0 
291.191742 86.0 
318.871643 44.0 
361.237885 407.758301 
387.214569 2587.822266 
463.707397 55.0 
537.718018 33.0 
583.339722 20.0 
608.897827 33.0 
707.056396 21.0 
END IONS

BEGIN IONS
RTINSECONDS=146.410995
CHARGE=1+
MSLEVEL=2
SMILES=Oc1cc(O)cc2c1c(=O)c1c(o2)cc(c(Cl)c1C)O
INCHI=InChI=1S/C14H9ClO5/c1-5-11-10(4-8(18)13(5)15)20-9-3-6(16)2-7(17)12(9)14(11)19/h2-4,16-18H,1H3
INCHIKEY=GJFIGYXKJHSBBY-UHFFFAOYSA-N
CLASS=Xanthones and bis-Xanthones
ADDUCT=[M+H]+
INSTRUMENT=Waters Q-ToF Xevo G2-XS
PRECURSOR_MZ=293.0217
COMPOUND_NAME=7-Chloronorlichexanthone
ION_MODE=positive
FORMULA=C14H9ClO5
68.99868 13609.273438 
77.039413 8571.71875 
121.028801 29589.28125 
127.054367 45554.125 
128.061981 37073.21875 
131.049133 27082.78125 
155.048477 93980.8125 
185.000229 116355.625 
201.055191 170856.5 
229.050171 563664.0 
230.05748 146236.375 
257.045441 551332.5 
258.053375 1110371.0 
375.515991 58.0 
397.667908 52.0 
401.659607 42.0 
427.120605 37.0 
428.009033 42.0 
430.108307 37.0 
432.907349 67.0 
455.782776 36.0 
463.991455 37.0 
465.042908 64.0 
519.861755 48.0 
529.022339 43.0 
530.298035 49.0 
532.339661 59.0 
573.291992 47.0 
590.588318 38.0 
602.060059 64.0 
641.136353 63.0 
645.983337 38.0 
659.490784 36.0 
661.810059 40.0 
681.956848 41.0 
733.749573 37.0 
775.345154 34.0 
END IONS

BEGIN IONS
RTINSECONDS=120.711998
CHARGE=1+
MSLEVEL=2
SMILES=Cc1c(c(c2c(c1)C(=O)c1cc(cc(c1C2=O)O)O)O)C(=O)O
INCHI=InChI=1S/C16H10O7/c1-5-2-7-12(14(20)10(5)16(22)23)15(21)11-8(13(7)19)3-6(17)4-9(11)18/h2-4,17-18,20H,1H3,(H,22,23)
INCHIKEY=UZOHDKGTYVTYDZ-UHFFFAOYSA-N
CLASS=Quinones
ADDUCT=[M+H]+
INSTRUMENT=Waters Q-ToF Xevo G2-XS
PRECURSOR_MZ=315.0505
COMPOUND_NAME=Endocrocin
ION_MODE=positive
FORMULA=C16H10O7
68.998299 2757.089844 
115.054802 71007.0625 
128.062668 65079.96875 
139.054276 89527.25 
157.065063 114218.0 
167.04924 69883.3125 
185.059784 76165.4375 
213.055481 399430.0 
227.03421 209992.125 
241.050278 48951.46875 
269.043884 96168.125 
297.040741 1155891.0 
297.122894 32690.6875 
297.213837 61278.09375 
297.332642 31215.859375 
356.089996 105.0 
386.513397 65.0 
416.952271 82.0 
428.702271 64.0 
430.734375 49.0 
435.103729 42.55722 
457.949524 47.0 
496.765533 25.0 
517.704224 36.0 
523.093262 24.0 
548.317627 26.0 
549.580261 22.0 
567.273499 29.0 
578.214905 68.72821 
652.355042 59.1745 
656.850159 44.0 
665.852356 71.0 
666.294067 114.357422 
671.910461 38.0 
685.368225 57.852173 
733.276978 63.0 
739.284119 44.0 
748.789124 28.0 
750.135498 28.0 
END IONS

BEGIN IONS
RTINSECONDS=19.959
CHARGE=1+
MSLEVEL=2
SMILES=COC1=C(NC(CO)CCC(=N)O)CC(CO)(O)CC1=O
INCHI=InChI=1S/C13H22N2O6/c1-21-12-9(4-13(20,7-17)5-10(12)18)15-8(6-16)2-3-11(14)19/h8,15-17,20H,2-7H2,1H3,(H2,14,19)
INCHIKEY=BVWBDCIYHWDCRQ-UHFFFAOYSA-N
CLASS=Mycosporines
ADDUCT=[M+Na]+
INSTRUMENT=Waters Q-ToF Xevo G2-XS
PRECURSOR_MZ=325.1376
COMPOUND_NAME=Mycosporine glutaminol
ION_MODE=positive
FORMULA=C13H22N2O6
52.36108 23.0 
80.045555 25.0 
81.021355 33.0 
95.032524 80.0 
117.077354 45.0 
137.070175 61.0 
138.050827 85.0 
163.087799 91.0 
179.078125 248.0 
195.051468 254.0 
210.102509 172.0 
220.057465 486.525146 
225.121429 6160.726562 
226.11087 206.749023 
279.093872 354.856689 
292.102875 324.065918 
409.259064 32.0 
421.709839 73.0 
437.773895 35.0 
446.438934 18.0 
449.805603 44.0 
455.581696 18.0 
503.131714 18.0 
545.23114 22.0 
558.610229 18.0 
568.056213 30.0 
608.967773 21.0 
609.229126 22.0 
632.420227 21.0 
646.163879 18.0 
694.146667 25.0 
723.331299 20.0 
725.221619 22.0 
743.648071 21.0 
751.3125 18.0 
END IONS

BEGIN IONS
RTINSECONDS=165.977997
CHARGE=1+
MSLEVEL=2
SMILES=CC(C)C[C@@H](C(=O)OC)NC(=O)/C(=C\1/C(=C(C(=O)O1)c1ccccc1)O)/c1ccccc1
INCHI=InChI=1S/C25H25NO6/c1-15(2)14-18(24(29)31-3)26-23(28)20(17-12-8-5-9-13-17)22-21(27)19(25(30)32-22)16-10-6-4-7-11-16/h4-13,15,18,27H,14H2,1-3H3,(H,26,28)/b22-20-/t18-/m0/s1
INCHIKEY=IBSRGCBHIASQMQ-BKBKCADHSA-N
CLASS=Pulvinic Acid Derivatives
ADDUCT=[M+H]+
INSTRUMENT=Waters Q-ToF Xevo G2-XS
PRECURSOR_MZ=436.176
COMPOUND_NAME=Epanorin
ION_MODE=positive
FORMULA=C25H25NO6
60.852718 55.0 
86.098 1324.860352 
89.040184 183.219727 
117.034416 132.286011 
145.030533 323.506104 
146.11853 3214.035156 
157.027206 147.0 
178.077148 1697.464844 
179.085785 2848.910156 
207.081268 22701.0625 
217.065796 534.446777 
235.076096 8307.421875 
245.059998 404.573975 
263.071075 12947.601562 
291.064178 2051.291016 
363.838135 70.0 
376.128174 146.736816 
376.154327 1812.667969 
376.20752 134.0 
404.150085 2479.09375 
505.722717 21.0 
520.591248 21.0 
535.253113 24.0 
541.137146 25.0 
541.529419 24.0 
542.606689 25.0 
557.594482 23.0 
562.641296 27.0 
588.627686 28.0 
594.883179 25.0 
600.046021 31.0 
632.480652 26.0 
635.160828 47.0 
652.964905 34.0 
654.1651 21.0 
681.471375 28.0 
692.257568 28.0 
701.99585 37.0 
708.113281 36.0 
732.179382 25.0 
734.872803 24.0 
765.771545 20.0 
788.399353 26.0 
END IONS

BEGIN IONS
RTINSECONDS=168.182999
CHARGE=1+
MSLEVEL=2
SMILES=CC(=O)CCCCCCCCCCCCC[C@@H]1OC(=O)C(=C)[C@@H]1C(=O)O
INCHI=InChI=1S/C21H34O5/c1-16(22)14-12-10-8-6-4-3-5-7-9-11-13-15-18-19(20(23)24)17(2)21(25)26-18/h18-19H,2-15H2,1H3,(H,23,24)/t18-,19-/m0/s1
INCHIKEY=SKQHRBRVCRUFSX-OALUTQOASA-N
CLASS=Paraconic acids
ADDUCT=[M+NH4]+
INSTRUMENT=Waters Q-ToF Xevo G2-XS
PRECURSOR_MZ=384.275
COMPOUND_NAME=allo-Pertusaric acid
ION_MODE=positive
FORMULA=C21H34O5
79.055168 639.0 
81.070351 527.0 
91.056877 544.0 
95.086571 636.0 
105.070518 545.0 
135.116928 485.624512 
147.116226 377.454102 
161.133392 292.654785 
211.150436 162.268188 
221.152664 229.115479 
231.138901 230.382324 
275.223297 510.0 
285.170898 573.763184 
285.215576 658.296875 
303.229218 2814.570312 
321.242126 913.541504 
331.227722 995.0 
349.235168 5170.671875 
367.248291 21660.765625 
441.460602 35.0 
454.211853 49.0 
464.667145 30.0 
477.414642 152.0 
491.723206 34.0 
496.106232 47.0 
527.271667 27.0 
531.246521 21.0 
546.312683 20.0 
567.279114 18.0 
613.335022 26.0 
621.213501 20.0 
621.639893 22.0 
648.980469 21.0 
656.46167 26.0 
666.737671 20.0 
677.692505 30.0 
681.006592 23.0 
705.401672 21.0 
715.041626 23.0 
715.264893 20.0 
721.021484 91.0 
775.882141 21.0 
782.527283 24.0 
785.689026 27.0 
791.716492 24.0 
796.901489 18.0 
END IONS

BEGIN IONS
RTINSECONDS=201.917999
CHARGE=1+
MSLEVEL=2
SMILES=CCCCCCCCCCCCC[C@H]1[C@H]([C@H](C(=O)O1)C)C(=O)O
INCHI=InChI=1S/C19H34O4/c1-3-4-5-6-7-8-9-10-11-12-13-14-16-17(18(20)21)15(2)19(22)23-16/h15-17H,3-14H2,1-2H3,(H,20,21)/t15-,16+,17+/m1/s1
INCHIKEY=WLGALFYTFVOQPY-IKGGRYGDSA-N
CLASS=Paraconic acids
ADDUCT=[M+H]+
INSTRUMENT=Waters Q-ToF Xevo G2-XS
PRECURSOR_MZ=327.2535
COMPOUND_NAME=Nephromopsic acid
ION_MODE=positive
FORMULA=C19H34O4
79.05526 1650.236328 
81.071198 2435.650391 
91.055191 1898.073242 
95.085655 2895.726562 
105.070251 1936.232422 
133.102158 2502.382812 
147.117706 2493.544922 
155.070465 1519.347656 
165.090881 1256.0 
179.106537 1518.457031 
217.195648 2990.039062 
245.227432 7425.265625 
263.237457 7685.265625 
273.223877 2437.269531 
291.233063 32197.234375 
309.243652 73438.4375 
380.283722 40.0 
386.980438 135.0 
395.126984 42.0 
397.019348 84.0 
400.15567 44.0 
432.46286 39.0 
440.183594 99.0 
443.489014 35.0 
500.050964 49.0 
505.447815 38.0 
508.480774 60.0 
521.084778 31.0 
541.548645 53.0 
558.982178 20.0 
562.521729 24.0 
566.892212 27.0 
572.214783 19.0 
591.434814 21.0 
594.080688 19.0 
622.382446 21.0 
627.14801 24.0 
646.748962 23.0 
657.546387 20.0 
670.772949 22.0 
687.996399 40.0 
700.415222 24.0 
713.648071 19.0 
714.188171 48.0 
738.521912 21.0 
754.95636 24.0 
779.877991 18.0 
785.311096 32.0 
788.502197 18.0 
796.422729 26.0 
END IONS

BEGIN IONS
RTINSECONDS=194.033005
CHARGE=1+
MSLEVEL=2
SMILES=O=C(OC)/C(=C\1/OC(=O)C(=C1O)c1ccccc1)/c1c(OC)cccc1
INCHI=InChI=1S/C20H16O6/c1-24-14-11-7-6-10-13(14)16(19(22)25-2)18-17(21)15(20(23)26-18)12-8-4-3-5-9-12/h3-11,21H,1-2H3/b18-16+
INCHIKEY=IWYVMUDIEOXASM-FBMGVBCBSA-N
CLASS=Pulvinic Acid Derivatives
ADDUCT=[M+H]+
INSTRUMENT=Waters Q-ToF Xevo G2-XS
PRECURSOR_MZ=353.1025
COMPOUND_NAME=Leprapinic acid
ION_MODE=positive
FORMULA=C20H16O6
65.039879 4049.351562 
89.039452 58731.90625 
91.055016 187833.25 
117.034134 17497.9375 
119.049629 257983.375 
145.028702 37443.0 
147.044174 292085.5 
175.039307 175057.75 
194.072495 110116.0625 
237.090668 165457.375 
247.075485 11164.257812 
265.085846 179900.625 
278.057678 51079.28125 
293.080994 302061.0 
321.076355 1024575.0 
321.256897 43005.84375 
321.401978 24618.25 
382.343292 103.0 
451.608551 77.0 
462.619415 50.0 
474.854645 35.0 
491.462799 57.0 
491.581116 89.0 
524.434814 26.0 
530.364319 26.0 
538.904358 43.0 
580.368896 33.587189 
594.580811 41.0 
609.404114 38.0 
632.816101 28.095963 
650.929565 49.0 
657.259399 27.0 
708.907532 23.0 
713.066162 25.0 
727.170776 27.0 
756.549072 38.0 
775.703552 39.0 
END IONS

BEGIN IONS
RTINSECONDS=209.363998
CHARGE=1+
MSLEVEL=2
SMILES=O=C1Oc2c(c3C[C@@](O)(CCCCC)OC(=O)c3c(O)c2)Oc2c1c(cc(c2)OC)CC(=O)CCCCC
INCHI=InChI=1S/C29H34O9/c1-4-6-8-10-18(30)12-17-13-19(35-3)14-22-24(17)27(32)37-23-15-21(31)25-20(26(23)36-22)16-29(34,38-28(25)33)11-9-7-5-2/h13-15,31,34H,4-12,16H2,1-3H3/t29-/m1/s1
INCHIKEY=DQYWDDCXRXABIH-GDLZYMKVSA-N
CLASS=Depsidones
ADDUCT=[M+H]+
INSTRUMENT=Waters Q-ToF Xevo G2-XS
PRECURSOR_MZ=527.2281
COMPOUND_NAME=Alpha-collatolic acid
ION_MODE=positive
FORMULA=C29H34O9
60.463821 53.0 
63.470177 97.0 
71.086006 220.0 
95.086014 78.400208 
99.081451 843.0 
123.04805 211.0 
137.024887 155.0 
177.057449 324.043945 
217.085175 570.929688 
231.099716 522.147949 
241.086761 438.0 
285.077118 774.813965 
287.091522 949.03125 
301.143951 827.255859 
311.058319 809.572754 
313.074127 3265.962891 
315.158569 1089.882812 
368.127289 1161.0 
369.133362 4060.902344 
383.14566 2645.488281 
385.164001 5059.335938 
393.131714 2701.591797 
411.143921 35084.125 
439.141632 1430.957031 
441.22641 2735.257812 
465.225647 1519.820312 
467.205627 17701.171875 
491.205231 3006.234375 
509.216705 31853.296875 
598.020264 38.0 
628.922241 40.0 
634.191895 35.0 
641.124512 33.0 
649.693176 39.0 
666.391052 41.0 
672.380371 30.0 
740.849426 24.0 
762.664062 29.0 
773.773743 26.0 
789.925842 25.0 
797.663696 60.0 
END IONS

BEGIN IONS
RTINSECONDS=121.281998
CHARGE=1+
MSLEVEL=2
SMILES=Oc1c2c([C@@H](OC)[C@H](C)OC2=O)c(O)c2c1C(=O)C=C(OC)C2=O
INCHI=InChI=1S/C16H14O8/c1-5-15(23-3)10-11(16(21)24-5)13(19)8-6(17)4-7(22-2)12(18)9(8)14(10)20/h4-5,15,19-20H,1-3H3/t5-,15-/m0/s1
INCHIKEY=WPHIVUBMBWBSCK-SPHRHWQCSA-N
CLASS=Quinones
ADDUCT=[2M+Na]+
INSTRUMENT=Waters Q-ToF Xevo G2-XS
PRECURSOR_MZ=691.1275
COMPOUND_NAME=Methoxyhaemoventosine
ION_MODE=positive
FORMULA=C16H14O8
53.664055 32.0 
56.544571 35.0 
57.389118 30.0 
68.700317 36.0 
72.486061 36.0 
74.944679 37.0 
89.199348 48.0 
119.897072 35.0 
123.79409 39.0 
125.394798 32.0 
127.714592 35.0 
131.346527 39.0 
143.728714 49.0 
222.327133 84.0 
222.859344 97.0 
231.225327 67.0 
231.502136 79.0 
234.294418 74.0 
286.702881 80.0 
299.016693 713.349609 
307.02301 937.0 
325.032532 1690.146484 
356.963043 1025.981445 
357.058929 227226.875 
357.129639 1556.541992 
357.248444 653.0 
375.070709 395.0 
421.248383 90.0 
423.285767 78.0 
456.180847 72.0 
457.627838 63.0 
459.169128 97.0 
497.004974 62.0 
515.266113 58.0 
522.162964 92.0 
523.670654 57.0 
524.060974 58.0 
525.133545 74.0 
561.911682 75.0 
584.099792 80.0 
590.283203 51.0 
599.062378 75.0 
601.070129 77.451477 
645.434937 116.0 
744.26886 76.0 
754.966248 53.0 
767.46582 54.0 
788.007446 59.0 
END IONS

BEGIN IONS
RTINSECONDS=113.550003
CHARGE=1+
MSLEVEL=2
SMILES=O=C(C)O[C@@H]1[C@@H](O)[C@H](O)[C@@H](COC(=O)C)O[C@H]1Oc1cc2oc(C)cc(=O)c2c(O)c1C
INCHI=InChI=1S/C21H24O11/c1-8-5-12(24)16-14(29-8)6-13(9(2)17(16)25)31-21-20(30-11(4)23)19(27)18(26)15(32-21)7-28-10(3)22/h5-6,15,18-21,25-27H,7H2,1-4H3/t15-,18-,19+,20-,21-/m1/s1
INCHIKEY=AFCAWRFTSGVRQA-CMWLGVBASA-N
CLASS=Chromanes and Chromones
ADDUCT=[M+NH4]+
INSTRUMENT=Waters Q-ToF Xevo G2-XS
PRECURSOR_MZ=470.1662
COMPOUND_NAME=Roccellin
ION_MODE=positive
FORMULA=C21H24O11
81.03511 845.544434 
83.013779 599.03125 
97.028145 690.878906 
99.043144 1389.0 
109.028656 1361.814453 
127.039406 7322.496094 
163.039154 1294.548828 
169.051376 1395.128906 
177.055298 10345.539062 
187.060059 4460.785156 
205.04834 2875.464844 
223.060654 216961.875 
229.070618 8167.691406 
247.081497 12815.898438 
305.392761 122.0 
306.533783 62.0 
307.080658 100.0 
347.126221 71.0 
375.683685 120.0 
399.351257 111.0 
403.861786 75.0 
405.270996 67.0 
407.799988 66.0 
417.720245 85.0 
418.518768 75.0 
523.549011 67.0 
525.250427 57.0 
570.601624 44.0 
579.568848 44.0 
585.820435 138.0 
590.167786 71.0 
621.626648 39.0 
635.741211 38.0 
675.659363 70.0 
713.648865 57.0 
717.700378 93.0 
738.085388 46.0 
738.368347 62.0 
777.445923 63.0 
779.70575 30.0 
790.244812 81.0 
791.520447 22.0 
798.827148 26.0 
END IONS

BEGIN IONS
RTINSECONDS=184.242004
CHARGE=1+
MSLEVEL=2
SMILES=Oc1c(Cl)c(O)cc2c1c(=O)c1c(o2)cc(cc1C)O
INCHI=InChI=1S/C14H9ClO5/c1-5-2-6(16)3-8-10(5)13(18)11-9(20-8)4-7(17)12(15)14(11)19/h2-4,16-17,19H,1H3
INCHIKEY=VFXXISJCBGVCJF-UHFFFAOYSA-N
CLASS=Xanthones and bis-Xanthones
ADDUCT=[M+H+CH3CN]+
INSTRUMENT=Waters Q-ToF Xevo G2-XS
PRECURSOR_MZ=334.0482
COMPOUND_NAME=2-Chloronorlichexanthone
ION_MODE=positive
FORMULA=C14H9ClO5
91.048141 35.0 
100.083015 27.0 
102.061043 40.0 
109.429871 34.0 
138.071899 36.0 
148.061111 47.0 
155.048553 40.0 
199.076187 157.676514 
214.064789 119.0 
256.074158 966.0 
257.080444 188.663574 
277.02597 420.511963 
290.030609 299.0 
291.042999 655.941895 
404.182404 20.0 
410.052765 18.0 
429.910004 19.0 
441.643982 26.0 
551.67395 33.0 
613.676331 62.0 
616.900574 70.0 
635.851929 21.0 
716.820312 22.0 
733.492981 19.0 
END IONS

BEGIN IONS
RTINSECONDS=300.102997
CHARGE=1+
MSLEVEL=2
SMILES=O=c1c2c(c(Cl)c(OC)c(Cl)c2O)oc2c1c(cc(c2)OC)C
INCHI=InChI=1S/C16H12Cl2O5/c1-6-4-7(21-2)5-8-9(6)13(19)10-14(20)11(17)16(22-3)12(18)15(10)23-8/h4-5,20H,1-3H3
INCHIKEY=ZPLILIOXZHNNLY-UHFFFAOYSA-N
CLASS=Xanthones and bis-Xanthones
ADDUCT=[M+H]+
INSTRUMENT=Waters Q-ToF Xevo G2-XS
PRECURSOR_MZ=355.014
COMPOUND_NAME="2,4-Dichlor-3,6-di-O-methylnorlichexanthone"
ION_MODE=positive
FORMULA=C16H12Cl2O5
73.047859 225.0 
87.0457 107.663574 
101.099762 55.0 
103.07589 1494.668945 
119.070648 51.0 
135.00621 50.0 
136.876022 55.0 
175.132431 384.843506 
177.044479 55.0 
180.962021 50.0 
218.92276 57.0 
219.099472 79.0 
222.956909 63.0 
266.998352 262.255859 
268.978546 163.0 
285.00943 112.575562 
287.046112 69.0 
287.149628 55.0 
416.939758 37.0 
665.408508 25.0 
685.33606 25.0 
END IONS

BEGIN IONS
RTINSECONDS=119.278999
CHARGE=1+
MSLEVEL=2
SMILES=O=C1C=C(OC)C(=O)c2c1c(c1c(c2O)C[C@H](C)OC1=O)O
INCHI=InChI=1S/C15H12O7/c1-5-3-6-9(15(20)22-5)14(19)10-7(16)4-8(21-2)13(18)11(10)12(6)17/h4-5,17,19H,3H2,1-2H3/t5-/m0/s1
INCHIKEY=VZSFONBSZGFZNH-YFKPBYRVSA-N
CLASS=Quinones
ADDUCT=[M+H+CH3OH]+
INSTRUMENT=Waters Q-ToF Xevo G2-XS
PRECURSOR_MZ=337.0923
COMPOUND_NAME=Haemoventosine
ION_MODE=positive
FORMULA=C15H12O7
115.055588 488.0 
153.021164 1389.586914 
167.032394 801.762207 
171.043503 738.0 
181.017883 1044.799805 
216.043243 2098.466797 
227.033722 1985.209961 
244.037811 2501.654297 
255.030197 1972.124023 
259.060852 4861.09375 
287.056641 32388.828125 
305.066254 17038.5625 
319.082275 20605.6875 
372.973114 67.0 
413.983582 38.0 
436.652344 29.0 
447.569977 28.0 
474.981262 33.0 
477.181 30.0 
497.274017 35.0 
502.979553 35.0 
524.852478 28.0 
542.612915 24.0 
547.147705 18.0 
561.509827 21.0 
590.272461 20.0 
610.095886 21.0 
618.91095 26.0 
621.269043 27.0 
623.035522 18.0 
639.798706 20.0 
657.106628 28.0 
674.334229 21.0 
704.413208 25.0 
705.857239 22.0 
708.921509 22.0 
724.707275 24.0 
730.9552 33.0 
756.275085 25.0 
759.934631 20.0 
791.605652 24.0 
799.95752 31.0 
END IONS

BEGIN IONS
RTINSECONDS=166.283997
CHARGE=1+
MSLEVEL=2
SMILES=O=C1OC2=C(c3ccccc3)C(=O)OC2=C1c1ccccc1
INCHI=InChI=1S/C18H10O4/c19-17-13(11-7-3-1-4-8-11)15-16(22-17)14(18(20)21-15)12-9-5-2-6-10-12/h1-10H
INCHIKEY=KQTXUHHOWJUFOZ-UHFFFAOYSA-N
CLASS=Pulvinic Acid Derivatives
ADDUCT=[M+Na+CH3CN]+
INSTRUMENT=Waters Q-ToF Xevo G2-XS
PRECURSOR_MZ=354.0742
COMPOUND_NAME=Pulvinic acid dilactone
ION_MODE=positive
FORMULA=C18H10O4
89.040215 1459.413086 
91.054749 174.925537 
117.034935 691.571777 
121.065285 387.0 
145.029587 2366.503906 
149.060287 636.0 
177.056763 1134.0 
178.077408 2685.412109 
179.08638 1898.0 
205.050888 5711.128906 
207.080948 8344.226562 
235.076111 3254.064453 
263.070587 10477.875 
264.073853 370.0 
279.102051 1167.207031 
291.066589 2422.136719 
323.091766 26177.046875 
323.148865 263.338379 
324.095734 256.560059 
411.469147 29.0 
412.309479 107.0 
429.247894 24.0 
462.533173 40.0 
466.603394 21.0 
469.724854 24.0 
473.280975 34.0 
474.501282 24.0 
496.345337 29.0 
524.678284 25.0 
525.662537 26.0 
527.672546 33.0 
554.757507 26.0 
563.575378 51.0 
573.210327 31.0 
581.031006 42.0 
606.351135 37.0 
609.798523 34.0 
629.989685 36.0 
635.408081 28.0 
642.009399 24.0 
667.180847 22.0 
723.704834 20.0 
750.028015 18.0 
758.330505 21.0 
795.608093 67.0 
END IONS

BEGIN IONS
RTINSECONDS=164.192001
CHARGE=1+
MSLEVEL=2
SMILES=COc1cc2c(c(=O)oc(CCC)c2)c(O)c1
INCHI=InChI=1S/C13H14O4/c1-3-4-9-5-8-6-10(16-2)7-11(14)12(8)13(15)17-9/h5-7,14H,3-4H2,1-2H3
INCHIKEY=WTYWMHXEEXFHAD-UHFFFAOYSA-N
CLASS=Cleavage Products of Depsides and Depsidones
ADDUCT=[M+2Na-H]+
INSTRUMENT=Waters Q-ToF Xevo G2-XS
PRECURSOR_MZ=279.0609
COMPOUND_NAME=Glomellin
ION_MODE=positive
FORMULA=C13H14O4
55.938404 18.0 
77.040833 78.0 
91.057587 61.0 
149.058823 148.301636 
151.914185 65.0 
177.054932 228.244141 
195.905624 62.0 
201.044052 402.499756 
214.920013 59.0 
217.121384 64.0 
420.051208 19.0 
585.220398 26.0 
635.265198 18.0 
643.582397 22.0 
789.939453 36.0 
END IONS

BEGIN IONS
RTINSECONDS=112.541
CHARGE=1+
MSLEVEL=2
SMILES=O[C@H]1[C@H](O)[C@@H](O)[C@H](Oc2c(C)c3oc(C)cc(=O)c3c(O)c2C)O[C@@H]1COC(=O)C
INCHI=InChI=1S/C20H24O10/c1-7-5-11(22)13-14(23)8(2)18(9(3)19(13)28-7)30-20-17(26)16(25)15(24)12(29-20)6-27-10(4)21/h5,12,15-17,20,23-26H,6H2,1-4H3/t12-,15-,16+,17-,20+/m1/s1
INCHIKEY=NJRLDXGREKHXGV-IVABAYMNSA-N
CLASS=Chromanes and Chromones
ADDUCT=[M+H]+
INSTRUMENT=Waters Q-ToF Xevo G2-XS
PRECURSOR_MZ=425.1448
COMPOUND_NAME=Galapagin
ION_MODE=positive
FORMULA=C20H24O10
81.039764 2305.697266 
83.014633 1885.266602 
91.054909 1767.0 
135.044922 9589.4375 
147.077377 5096.078125 
165.053894 6910.886719 
206.057831 39894.71875 
219.065567 132169.875 
221.083267 1296215.0 
221.155762 50066.0625 
221.232269 103184.125 
221.434967 41954.0 
277.098419 142.0 
287.800385 102.0 
294.173096 93.0 
332.841248 85.0 
338.754761 82.184326 
345.841278 72.0 
349.48703 109.0 
498.119049 112.0 
498.228729 84.0 
509.648224 81.0 
515.300049 64.0 
542.618408 73.0 
575.856873 53.0 
597.051086 78.0 
599.67865 42.0 
629.694336 66.0 
656.984436 41.0 
662.070862 43.549622 
694.080688 67.0 
695.354797 40.0 
709.897461 38.0 
711.637756 44.0 
732.190735 38.0 
759.02417 76.0 
791.67865 64.016907 
792.659851 50.0 
END IONS

BEGIN IONS
RTINSECONDS=177.785995
CHARGE=1+
MSLEVEL=2
SMILES=O=C1c2c(CC(=O)CCCCC)cc(O)cc2Oc2c(O1)cc(c(c2CCCCC)C(=O)O)O
INCHI=InChI=1S/C26H30O8/c1-3-5-7-9-16(27)11-15-12-17(28)13-20-22(15)26(32)34-21-14-19(29)23(25(30)31)18(24(21)33-20)10-8-6-4-2/h12-14,28-29H,3-11H2,1-2H3,(H,30,31)
INCHIKEY=KVTYWHGIZSCFLG-UHFFFAOYSA-N
CLASS=Depsidones
ADDUCT=[M+H]+
INSTRUMENT=Waters Q-ToF Xevo G2-XS
PRECURSOR_MZ=471.2019
COMPOUND_NAME=Physodic acid
ION_MODE=positive
FORMULA=C26H30O8
71.086128 3387.085938 
95.085815 2662.328125 
99.081314 3523.097656 
151.040344 4222.742188 
163.043182 6788.058594 
175.074936 5775.226562 
177.085892 8898.953125 
189.05954 7640.113281 
203.071426 54779.84375 
205.085464 8574.070312 
257.057892 13916.585938 
259.066132 40758.75 
285.040527 16983.234375 
285.062958 22808.734375 
301.14447 94156.375 
312.099487 127649.6875 
313.1073 131188.875 
357.132202 118138.5 
357.206909 67219.6875 
383.112793 123291.9375 
385.200409 224409.625 
411.181793 938173.0 
411.385925 30945.0 
427.211182 153995.25 
453.190796 161128.875 
541.045532 107.0 
570.010498 43.0 
586.253296 38.0 
726.29303 46.0 
788.597168 31.0 
END IONS

BEGIN IONS
RTINSECONDS=228.783005
CHARGE=1+
MSLEVEL=2
SMILES=CCCCCCCCCCCCCC(=O)CC(C(=O)O)C
INCHI=InChI=1S/C18H34O3/c1-3-4-5-6-7-8-9-10-11-12-13-14-17(19)15-16(2)18(20)21/h16H,3-15H2,1-2H3,(H,20,21)
INCHIKEY=FYKXUGIGKHKTDH-UHFFFAOYSA-N
CLASS=Acids
ADDUCT=[2M+K]+
INSTRUMENT=Waters Q-ToF Xevo G2-XS
PRECURSOR_MZ=635.4653
COMPOUND_NAME=Lichesterylic acid
ION_MODE=positive
FORMULA=C18H34O3
56.487984 39.0 
67.05928 33.0 
82.374031 33.0 
83.050079 466.0 
90.813866 48.0 
91.052292 36.0 
103.324394 68.0 
141.071381 194.172729 
147.11676 619.0 
159.081467 75.0 
163.017654 232.597168 
175.013504 122.24054 
197.12265 74.0 
227.045685 121.0 
239.04599 719.539551 
257.052124 59.0 
260.988586 61.0 
283.112488 81.0 
295.106781 161.0 
336.886444 79.255554 
336.971588 128.693726 
337.023376 6091.363281 
337.099548 88.667175 
393.044891 112.086792 
393.084564 3077.279297 
393.160828 106.0 
413.057526 370.717529 
449.150635 233.0 
469.085541 287.326172 
469.121124 1247.854492 
525.11676 383.381836 
525.180847 9220.414062 
525.245239 109.0 
525.296997 135.0 
566.20575 361.612549 
581.161072 595.619629 
581.243469 20595.984375 
581.319397 216.656372 
725.754395 42.0 
730.407837 49.0 
736.216064 43.0 
756.507874 69.0 
757.303467 86.0 
771.517883 44.0 
792.46991 113.0 
END IONS

BEGIN IONS
RTINSECONDS=123.667
CHARGE=1+
MSLEVEL=2
SMILES=O=C(C)O[C@@H]1[C@@H](O)[C@H](O)[C@@H](COC(=O)C)O[C@H]1Oc1cc2oc(C)cc(=O)c2c(O)c1C
INCHI=InChI=1S/C21H24O11/c1-8-5-12(24)16-14(29-8)6-13(9(2)17(16)25)31-21-20(30-11(4)23)19(27)18(26)15(32-21)7-28-10(3)22/h5-6,15,18-21,25-27H,7H2,1-4H3/t15-,18-,19+,20-,21-/m1/s1
INCHIKEY=AFCAWRFTSGVRQA-CMWLGVBASA-N
CLASS=Chromanes and Chromones
ADDUCT=[M+2Na-H]+
INSTRUMENT=Waters Q-ToF Xevo G2-XS
PRECURSOR_MZ=497.1036
COMPOUND_NAME=Roccellin
ION_MODE=positive
FORMULA=C21H24O11
69.035477 240.0 
81.033974 190.0 
97.029305 379.0 
99.044456 264.0 
109.028877 701.921387 
127.038956 1225.535156 
145.047852 421.0 
151.040298 183.467651 
187.059845 327.0 
205.047577 360.0 
205.071106 888.0 
207.065445 33680.03125 
229.075455 259.750732 
273.096497 1599.198242 
291.055084 95.0 
291.080322 87.167236 
291.108826 6443.046875 
321.372192 69.0 
348.772369 43.0 
351.811096 48.0 
377.03949 52.0 
410.730194 44.0 
414.305969 41.0 
426.751831 42.0 
434.930939 39.0 
440.683472 38.0 
442.182922 53.0 
559.912842 56.0 
565.836609 47.0 
573.219116 35.0 
587.635193 24.0 
590.874512 36.0 
618.298645 19.0 
669.075684 34.0 
683.667725 27.0 
689.309509 28.0 
698.650269 25.0 
701.175598 69.0 
704.515259 42.0 
733.011292 25.0 
798.206604 20.0 
END IONS

BEGIN IONS
RTINSECONDS=180.125
CHARGE=1+
MSLEVEL=2
SMILES=O=C1c2c(CCCCC)cc(OC)c(OC)c2Oc2c(O1)cc(c(c2CCCCC)C(=O)O)O
INCHI=InChI=1S/C26H32O8/c1-5-7-9-11-15-13-18(31-3)23(32-4)24-20(15)26(30)33-19-14-17(27)21(25(28)29)16(22(19)34-24)12-10-8-6-2/h13-14,27H,5-12H2,1-4H3,(H,28,29)
INCHIKEY=GHBZVNHEVHMKOB-UHFFFAOYSA-N
CLASS=Depsidones
ADDUCT=[M+NH4]+
INSTRUMENT=Waters Q-ToF Xevo G2-XS
PRECURSOR_MZ=490.2441
COMPOUND_NAME=3-Methoxycolensoic acid
ION_MODE=positive
FORMULA=C26H32O8
58.477547 39.0 
88.631836 56.0 
137.062714 109.0 
161.097794 444.035156 
174.068024 198.604126 
189.090668 294.75415 
207.082977 246.0 
221.117676 2229.923828 
239.126404 452.810059 
247.097565 143.161987 
249.112457 3048.402344 
267.12323 2976.902344 
299.052826 270.822998 
301.063934 128.197754 
303.158722 252.829712 
317.582153 161.0 
341.101715 233.929688 
359.151031 203.326416 
359.221985 291.48877 
369.172577 402.849121 
387.218262 382.959229 
413.19516 8119.210938 
429.225891 702.567383 
441.188446 734.394043 
455.20697 1684.699219 
473.217163 12550.257812 
544.994141 23.0 
566.576355 26.0 
622.753906 29.0 
638.643433 26.0 
END IONS

BEGIN IONS
RTINSECONDS=186.934998
CHARGE=1+
MSLEVEL=2
SMILES=O=C(Oc1c(O)cc(CCCCC)c(C(=O)O)c1O)c1c(CCC)cc(OC)cc1OC
INCHI=InChI=1S/C24H30O8/c1-5-7-8-10-15-12-17(25)22(21(26)20(15)23(27)28)32-24(29)19-14(9-6-2)11-16(30-3)13-18(19)31-4/h11-13,25-26H,5-10H2,1-4H3,(H,27,28)
INCHIKEY=AAKHGLJWUOZNTQ-UHFFFAOYSA-N
CLASS=Depsides (Didepsides)
ADDUCT=[M+Na]+
INSTRUMENT=Waters Q-ToF Xevo G2-XS
PRECURSOR_MZ=469.1838
COMPOUND_NAME=Merochlorophaeic acid
ION_MODE=positive
FORMULA=C24H30O8
65.357925 51.0 
77.038071 69.0 
85.100098 43.0 
93.071022 56.0 
174.066895 580.0 
176.082916 433.00708 
177.054047 824.0 
189.090302 769.907227 
192.079056 749.702637 
207.102158 31211.703125 
245.081406 970.297852 
247.09436 732.0 
304.929474 45.0 
322.26944 46.0 
342.031616 41.0 
347.901215 90.0 
357.024872 52.223755 
367.510254 39.0 
451.102509 522.024414 
451.17218 33885.9375 
451.25885 367.987305 
533.013916 52.0 
541.059021 25.0 
546.868347 27.0 
559.852356 48.0 
574.567017 22.0 
613.607178 18.0 
647.523132 29.0 
686.823547 21.0 
700.93219 37.0 
742.036316 23.0 
759.694092 25.0 
787.978394 19.0 
795.698669 36.0 
END IONS

BEGIN IONS
RTINSECONDS=188.914001
CHARGE=1+
MSLEVEL=2
SMILES=Cc1c2c(Oc3c(OC2=O)c(c(c(c3C)Cl)OC)C)c(C=O)c(O)c1Cl
INCHI=InChI=1S/C18H14Cl2O6/c1-6-10-17(9(5-21)13(22)11(6)19)25-15-7(2)12(20)14(24-4)8(3)16(15)26-18(10)23/h5,22H,1-4H3
INCHIKEY=SNNDIPJEAQAKTJ-UHFFFAOYSA-N
CLASS=Depsidones
ADDUCT=[M+H]+
INSTRUMENT=Waters Q-ToF Xevo G2-XS
PRECURSOR_MZ=397.0246
COMPOUND_NAME=Argopsin
ION_MODE=positive
FORMULA=C18H14Cl2O6
77.038666 2548.029297 
91.054428 8102.589844 
122.072639 10077.359375 
157.041687 66278.25 
185.036835 12264.335938 
211.007095 23628.6875 
212.997925 60402.78125 
277.060822 62765.9375 
305.056885 174638.625 
325.974579 80612.25 
333.051483 189514.125 
340.997803 248176.875 
361.045715 102098.75 
369.029388 85454.0625 
448.385712 83.0 
490.746613 64.0 
517.051819 47.0 
523.509766 44.0 
694.292542 82.0 
695.190063 66.0 
776.975769 33.0 
END IONS

BEGIN IONS
RTINSECONDS=120.776001
CHARGE=1+
MSLEVEL=2
SMILES=Oc1c2c([C@@H](OC)[C@H](C)OC2=O)c(O)c2c1C(=O)C=C(OC)C2=O
INCHI=InChI=1S/C16H14O8/c1-5-15(23-3)10-11(16(21)24-5)13(19)8-6(17)4-7(22-2)12(18)9(8)14(10)20/h4-5,15,19-20H,1-3H3/t5-,15-/m0/s1
INCHIKEY=WPHIVUBMBWBSCK-SPHRHWQCSA-N
CLASS=Quinones
ADDUCT=[M+H]+
INSTRUMENT=Waters Q-ToF Xevo G2-XS
PRECURSOR_MZ=335.0767
COMPOUND_NAME=Methoxyhaemoventosine
ION_MODE=positive
FORMULA=C16H14O8
59.050396 621.0 
102.047577 679.445312 
115.054535 983.241699 
130.041519 1130.939453 
137.023773 872.0 
158.036194 2672.21875 
186.032104 5503.785156 
214.0271 8112.328125 
242.022415 23590.90625 
257.045197 60044.78125 
277.035248 36382.75 
285.040222 82686.5 
303.049713 25463.21875 
317.066284 60252.25 
391.992859 20.0 
408.159943 61.0 
549.85083 19.0 
620.600891 62.0 
END IONS

BEGIN IONS
RTINSECONDS=193.091003
CHARGE=1+
MSLEVEL=2
SMILES=O=C1O/C(=C(/C(=O)N[C@H](C(=O)O)Cc2ccccc2)\c2ccccc2)/C(=C1c1ccccc1)O
INCHI=InChI=1S/C27H21NO6/c29-23-21(18-12-6-2-7-13-18)27(33)34-24(23)22(19-14-8-3-9-15-19)25(30)28-20(26(31)32)16-17-10-4-1-5-11-17/h1-15,20,29H,16H2,(H,28,30)(H,31,32)/b24-22+/t20-/m0/s1
INCHIKEY=XTLHEUFWRQKNNG-YVURAWIMSA-N
CLASS=Pulvinic Acid Derivatives
ADDUCT=[M+H]+
INSTRUMENT=Waters Q-ToF Xevo G2-XS
PRECURSOR_MZ=456.1447
COMPOUND_NAME=Norrhizocarpic acid
ION_MODE=positive
FORMULA=C27H21NO6
89.039917 9606.242188 
103.055389 42645.34375 
120.081833 523299.0 
166.087555 480170.0 
178.0784 85917.4375 
179.0858 139637.75 
207.082642 866579.0 
207.227097 33691.0 
235.076462 471047.25 
263.071655 753904.0 
263.235382 24051.0 
291.065887 191078.75 
349.341339 79.771606 
370.740356 126.0 
529.215027 79.0 
535.456726 33.0 
541.075195 28.0 
568.477417 53.0 
613.725525 46.0 
657.61438 34.0 
664.019165 29.0 
664.244446 57.0 
667.59668 57.0 
738.797913 34.0 
739.580994 22.0 
764.210754 49.0 
776.627869 29.0 
781.332092 27.0 
END IONS

BEGIN IONS
RTINSECONDS=183.007004
CHARGE=1+
MSLEVEL=2
SMILES=CCCCCC1=CC(=O)C=C(OC)C21C(=O)Oc1c2c(c(c(c1)O)C(=O)O)CCCCC
INCHI=InChI=1S/C25H30O7/c1-4-6-8-10-15-12-16(26)13-20(31-3)25(15)22-17(11-9-7-5-2)21(23(28)29)18(27)14-19(22)32-24(25)30/h12-14,27H,4-11H2,1-3H3,(H,28,29)
INCHIKEY=LOGCRVAWKCZXQM-UHFFFAOYSA-N
CLASS=Depsones
ADDUCT=[M+H]+
INSTRUMENT=Waters Q-ToF Xevo G2-XS
PRECURSOR_MZ=443.207
COMPOUND_NAME=Picrolichenic acid
ION_MODE=positive
FORMULA=C25H30O7
91.055298 2464.761719 
131.082794 4421.585938 
151.075073 9410.484375 
159.079239 7049.226562 
221.118103 44676.8125 
227.074387 31575.640625 
241.084137 36196.90625 
253.05423 128817.625 
254.066956 74553.125 
255.081665 53310.03125 
310.121918 228785.25 
311.128784 319688.0 
312.133331 87304.0625 
366.183594 925815.0 
367.187225 405695.0 
381.206085 841365.0 
382.211487 345228.0 
384.194794 159964.125 
502.484222 74.0 
503.453278 53.0 
540.176453 56.0 
592.138 49.0 
592.42804 62.0 
611.711548 48.0 
743.425781 48.0 
END IONS

BEGIN IONS
RTINSECONDS=162.776001
CHARGE=1+
MSLEVEL=2
SMILES=Cc1cc(c(c2c1c(=O)c1c(o2)c(c(c(c1O)Cl)O)Cl)Cl)O
INCHI=InChI=1S/C14H7Cl3O5/c1-3-2-4(18)7(15)13-5(3)10(19)6-11(20)8(16)12(21)9(17)14(6)22-13/h2,18,20-21H,1H3
INCHIKEY=NTAXLEHKEDVPRK-UHFFFAOYSA-N
CLASS=Xanthones and bis-Xanthones
ADDUCT=[M+H]+
INSTRUMENT=Waters Q-ToF Xevo G2-XS
PRECURSOR_MZ=360.9437
COMPOUND_NAME=Arthothelin
ION_MODE=positive
FORMULA=C14H7Cl3O5
68.997894 153.0 
77.040489 756.749512 
105.035423 608.535156 
115.054947 810.0 
133.028961 1160.158203 
149.015808 2871.306641 
178.017502 4026.964844 
195.98465 7836.125 
206.010788 5656.933594 
222.972717 8561.15625 
234.008575 11908.125 
251.975647 12579.382812 
268.977478 18455.265625 
279.96936 18717.703125 
286.944611 58212.53125 
296.972412 105856.875 
297.98056 38291.6875 
324.967163 83629.125 
325.975189 425839.0 
420.0383 58.0 
447.88681 31.0 
470.050049 26.0 
773.759644 20.0 
780.781616 25.0 
787.793396 21.0 
789.927368 19.0 
END IONS

BEGIN IONS
RTINSECONDS=255.393997
CHARGE=1+
MSLEVEL=2
SMILES=CC(C)(C)CCCCCCCCCC1C(C(=O)O)C(C(=O)O1)C
INCHI=InChI=1S/C19H34O4/c1-14-16(17(20)21)15(23-18(14)22)12-10-8-6-5-7-9-11-13-19(2,3)4/h14-16H,5-13H2,1-4H3,(H,20,21)
INCHIKEY=NRFWTRPHJATQOB-UHFFFAOYSA-N
CLASS=Paraconic acids
ADDUCT=[2M+Na+CH3CN]+
INSTRUMENT=Waters Q-ToF Xevo G2-XS
PRECURSOR_MZ=716.5077
COMPOUND_NAME=Neodihydroprotolichesterinic acid
ION_MODE=positive
FORMULA=C19H34O4
73.049911 31.0 
89.04213 18.0 
96.865356 27.0 
117.951202 21.0 
133.093781 50.0 
147.068192 52.0 
149.040085 20.0 
221.089737 82.0 
223.060532 253.657227 
237.082397 702.0 
281.05426 234.35376 
285.010834 154.0 
297.082672 139.762695 
299.06015 136.957397 
341.018921 718.359375 
355.071747 2360.496094 
355.169006 85.0 
359.02356 154.960693 
371.100006 1760.226562 
419.012665 149.0 
428.914093 33.0 
429.032043 134.418823 
429.088898 1527.69043 
445.115479 528.418945 
445.1539 60.874176 
502.303345 51.0 
506.592133 50.0 
507.318481 42.0 
519.13678 88.0 
519.171082 40.0 
582.628601 50.0 
596.098083 22.0 
667.161316 208.0 
667.192139 123.0 
681.189697 95.0 
783.746887 19.0 
END IONS

BEGIN IONS
RTINSECONDS=295.276001
CHARGE=1+
MSLEVEL=2
SMILES=nan
INCHI=nan
CLASS=Quinones
ADDUCT=[M+NH4]+
INSTRUMENT=Waters Q-ToF Xevo G2-XS
PRECURSOR_MZ=556.1244
COMPOUND_NAME=Isoskyrin
ION_MODE=positive
62.80875 77.0 
76.577858 27.0 
87.084312 32.0 
105.069321 31.0 
106.019051 41.0 
106.044487 26.0 
134.038193 25.0 
157.607712 36.0 
187.038528 59.0 
189.057419 52.0 
200.380478 77.0 
203.033691 56.0 
227.041107 56.0 
233.041412 68.0 
241.050415 77.0 
252.040283 80.0 
270.052368 81.0 
282.051422 123.0 
295.059631 122.0 
297.036774 159.641846 
307.055603 83.0 
321.04071 127.073425 
421.068481 196.0 
435.088593 317.546631 
439.081665 674.808105 
467.075378 815.0 
481.094208 640.0 
485.085785 449.45752 
491.082031 439.840332 
509.089203 949.035156 
520.078064 1300.363281 
678.944641 20.0 
749.900879 21.0 
END IONS

BEGIN IONS
RTINSECONDS=168.080002
CHARGE=1+
MSLEVEL=2
SMILES=CCCCCc1cc(cc(c1C(=O)O)OC)OC(=O)c1c(cc(cc1CC(=O)CCCCC)OC)O
INCHI=InChI=1S/C28H36O8/c1-5-7-9-11-18-14-22(17-24(35-4)26(18)27(31)32)36-28(33)25-19(13-20(29)12-10-8-6-2)15-21(34-3)16-23(25)30/h14-17,30H,5-13H2,1-4H3,(H,31,32)
INCHIKEY=UANVCGQMNRTKGM-UHFFFAOYSA-N
CLASS=Depsides (Didepsides)
ADDUCT=[M+K]+
INSTRUMENT=Waters Q-ToF Xevo G2-XS
PRECURSOR_MZ=539.2047
COMPOUND_NAME=Confluentic acid
ION_MODE=positive
FORMULA=C28H36O8
257.11792 297.0 
259.096863 110.514038 
261.107758 46.0 
275.12738 106.0 
277.103546 829.475586 
301.111664 110.0 
319.116455 145.678345 
327.108307 48.0 
365.25116 19.0 
446.767792 28.0 
472.810242 28.0 
474.965729 26.0 
475.201782 29.0 
483.431061 34.0 
498.961182 40.0 
705.412842 21.0 
END IONS

BEGIN IONS
RTINSECONDS=200.475998
CHARGE=1+
MSLEVEL=2
SMILES=Cc1cc(c2c(c1)C(=O)c1c(c(cc(c1C2=O)O)O)c1c2c(c(cc1O)O)C(=O)c1c(cc(cc1C2=O)C)O)O
INCHI=InChI=1S/C30H18O10/c1-9-3-11-19(13(31)5-9)29(39)23-17(35)7-15(33)21(25(23)27(11)37)22-16(34)8-18(36)24-26(22)28(38)12-4-10(2)6-14(32)20(12)30(24)40/h3-8,31-36H,1-2H3
INCHIKEY=MQSXZQXHIJMNAF-UHFFFAOYSA-N
CLASS=Quinones
ADDUCT=[M+NH4]+
INSTRUMENT=Waters Q-ToF Xevo G2-XS
PRECURSOR_MZ=556.1244
COMPOUND_NAME=Skyrin
ION_MODE=positive
FORMULA=C30H18O10
84.966911 24.0 
121.097664 21.0 
135.043854 21.0 
168.461273 28.0 
187.04361 29.0 
217.053131 48.0 
217.113022 51.0 
245.046799 79.690247 
257.045776 223.0 
267.025757 61.032471 
283.062439 132.0 
299.053284 61.0 
313.580322 73.0 
337.025696 54.0 
338.204163 60.0 
363.058563 43.0 
387.051514 53.0 
411.086487 68.82135 
415.086945 145.0 
439.082825 165.80835 
453.095551 206.0 
463.076355 170.0 
485.085419 334.95459 
491.074341 251.636597 
509.086792 344.975098 
519.070801 439.080322 
537.076111 604.291016 
689.855042 19.0 
END IONS

BEGIN IONS
RTINSECONDS=185.544998
CHARGE=1+
MSLEVEL=2
SMILES=O=C1c2c(CC(=O)CCCCC)cc(OC)c(O)c2Oc2c(O1)cc(c(c2CCCCC)C(=O)O)O
INCHI=InChI=1S/C27H32O9/c1-4-6-8-10-16(28)12-15-13-19(34-3)23(30)25-21(15)27(33)35-20-14-18(29)22(26(31)32)17(24(20)36-25)11-9-7-5-2/h13-14,29-30H,4-12H2,1-3H3,(H,31,32)
INCHIKEY=YFNNJORBJZUGCV-UHFFFAOYSA-N
CLASS=Depsidones
ADDUCT=[M+Na]+
INSTRUMENT=Waters Q-ToF Xevo G2-XS
PRECURSOR_MZ=523.1944
COMPOUND_NAME=Lividic acid
ION_MODE=positive
FORMULA=C27H32O9
99.085251 22.0 
164.986191 22.0 
168.903885 20.0 
181.068375 25.0 
183.044189 42.0 
212.903137 22.0 
215.188004 41.0 
238.84137 39.0 
279.11853 20.0 
286.84967 25.0 
308.808075 20.0 
310.789612 23.0 
311.024078 19.0 
315.022461 30.0 
318.932068 24.0 
361.576843 116.0 
367.236572 37.0 
375.104889 48.0 
388.970947 34.0 
413.018219 35.0 
413.053009 48.504059 
448.259338 43.0 
463.770996 83.0 
479.208252 622.231934 
482.080536 168.938843 
505.19043 136.03125 
564.223389 20.0 
END IONS

BEGIN IONS
RTINSECONDS=222.449997
CHARGE=1+
MSLEVEL=2
SMILES=O=c1c2c(cc(cc2C)OC)oc2c1c(O)c(c(OC)c2Cl)Cl
INCHI=InChI=1S/C16H12Cl2O5/c1-6-4-7(21-2)5-8-9(6)13(19)10-14(20)11(17)16(22-3)12(18)15(10)23-8/h4-5,20H,1-3H3
INCHIKEY=ZPLILIOXZHNNLY-UHFFFAOYSA-N
CLASS=Xanthones and bis-Xanthones
ADDUCT=[M+H+HCOOH]+
INSTRUMENT=Waters Q-ToF Xevo G2-XS
PRECURSOR_MZ=401.0195
COMPOUND_NAME="2,4-Dichlorolichexanthone"
ION_MODE=positive
FORMULA=C16H12Cl2O5
63.386833 21.0 
86.999306 24.0 
120.914658 19.0 
127.05761 22.0 
148.062393 18.0 
156.970139 45.0 
161.879471 18.0 
172.017624 22.0 
178.116959 40.0 
213.0504 60.0 
236.89328 52.0 
248.026993 44.0 
277.001495 66.0 
293.974182 71.0 
305.021881 255.811768 
312.940399 133.567261 
342.922668 193.0 
356.937622 431.227051 
357.94046 181.380249 
564.671326 20.0 
END IONS

BEGIN IONS
RTINSECONDS=20.541
CHARGE=1+
MSLEVEL=2
SMILES=COC1=C(NC(CO)CCC(=N)O)CC(CO)(O)CC1=O
INCHI=InChI=1S/C13H22N2O6/c1-21-12-9(4-13(20,7-17)5-10(12)18)15-8(6-16)2-3-11(14)19/h8,15-17,20H,2-7H2,1H3,(H2,14,19)
INCHIKEY=BVWBDCIYHWDCRQ-UHFFFAOYSA-N
CLASS=Mycosporines
ADDUCT=[2M+Na]+
INSTRUMENT=Waters Q-ToF Xevo G2-XS
PRECURSOR_MZ=627.2853
COMPOUND_NAME=Mycosporine glutaminol
ION_MODE=positive
FORMULA=C13H22N2O6
67.619606 18.0 
73.897568 26.0 
95.036171 51.0 
110.775818 23.0 
129.82225 28.0 
139.065247 59.0 
179.082947 330.0 
195.0513 73.70343 
210.100098 85.0 
220.059143 330.592041 
225.121918 6248.320312 
238.068207 163.0 
279.092773 281.634766 
307.122101 252.908936 
310.11438 3461.130859 
325.075775 288.952637 
325.138245 61171.5625 
325.203918 227.803223 
396.399475 21.0 
403.988953 64.0 
405.088776 21.0 
407.121582 20.0 
411.614899 44.0 
434.50647 24.0 
439.941193 24.0 
443.692993 22.0 
447.651459 24.0 
463.225281 19.0 
464.034027 20.0 
467.227478 24.0 
494.480835 25.0 
494.619904 20.0 
505.150085 28.0 
519.553955 54.0 
529.27063 20.0 
536.722534 19.0 
543.860718 18.0 
560.47113 19.0 
683.890442 20.0 
719.294006 28.0 
775.464478 24.0 
786.110413 38.0 
END IONS

BEGIN IONS
RTINSECONDS=105.811996
CHARGE=1+
MSLEVEL=2
SMILES=O=C(O)c1c(C)c(Cl)c(O)cc1O
INCHI=InChI=1S/C8H7ClO4/c1-3-6(8(12)13)4(10)2-5(11)7(3)9/h2,10-11H,1H3,(H,12,13)
INCHIKEY=GZQRFGTYUAPOOM-UHFFFAOYSA-N
CLASS=Cleavage Products of Depsides and Depsidones
ADDUCT=[M+H]+
INSTRUMENT=Waters Q-ToF Xevo G2-XS
PRECURSOR_MZ=203.0111
COMPOUND_NAME=5-Chloroorsellinic acid
ION_MODE=positive
FORMULA=C8H7ClO4
65.039726 3578.078125 
68.998611 321.132812 
93.033783 1017.836426 
94.041367 1109.0 
101.015656 2226.736328 
121.029037 974.226562 
129.010132 4934.039062 
157.005493 1948.717773 
184.938232 353.546631 
185.000549 136835.25 
185.048767 342.958984 
186.00325 1338.952148 
248.311768 85.0 
261.915222 40.0 
267.978149 47.0 
313.323212 45.0 
332.0177 32.0 
332.786835 49.0 
333.922211 44.0 
350.976593 33.0 
364.819366 33.0 
378.286469 31.0 
384.111725 29.0 
423.262756 84.0 
453.491272 117.0 
457.769714 36.0 
466.812927 56.0 
468.167603 45.0 
471.759949 43.0 
535.025208 35.0 
536.575073 33.0 
542.539551 34.0 
549.161255 43.0 
574.997192 38.0 
592.230652 150.0 
610.088501 30.0 
612.665894 31.0 
616.792847 33.0 
624.756714 30.0 
672.498718 27.0 
679.376831 28.0 
688.128418 45.0 
722.476685 49.0 
730.1828 34.0 
732.620667 30.0 
747.833923 47.0 
749.731201 31.0 
759.126526 47.0 
768.993164 28.0 
783.066528 19.0 
END IONS

BEGIN IONS
RTINSECONDS=149.005005
CHARGE=1+
MSLEVEL=2
SMILES=Cc1cc(c2c(c1)C(=O)C13C4C5C(C1C(=O)C1=C(c6c(cc(cc6C(=O)C51C(C4O)C(=O)C3=C2O)C)O)O)O)O
INCHI=InChI=1S/C30H22O10/c1-7-3-9-13(11(31)5-7)21(33)17-25(37)20-23(35)15-16-24(36)19(29(15,17)27(9)39)26(38)18-22(34)14-10(28(40)30(16,18)20)4-8(2)6-12(14)32/h3-6,15-16,19-20,23-24,31-36H,1-2H3
INCHIKEY=QFDPVUTXKUGISP-UHFFFAOYSA-N
CLASS=Quinones
ADDUCT=[M+2Na-H]+
INSTRUMENT=Waters Q-ToF Xevo G2-XS
PRECURSOR_MZ=587.093
COMPOUND_NAME=Rugulosin
ION_MODE=positive
FORMULA=C30H22O10
99.355988 34.0 
113.197899 27.0 
129.758606 37.0 
213.055832 63.0 
253.059326 107.647766 
255.066742 1254.751953 
258.050018 196.0 
273.077911 399.233398 
299.087799 238.203003 
317.101379 525.587891 
317.134521 119.0 
342.405609 48.0 
374.928925 30.0 
379.127838 21.0 
389.089447 27.0 
409.827637 24.0 
431.911438 43.0 
441.843079 47.0 
474.071442 61.0 
487.107452 84.221558 
490.100922 49.0 
505.115631 62.0 
507.196533 53.0 
533.118835 93.0 
551.145691 69.0 
569.156616 110.0 
637.292725 29.0 
669.730164 34.0 
END IONS

BEGIN IONS
RTINSECONDS=157.764999
CHARGE=1+
MSLEVEL=2
SMILES=O=c1oc(CCCCC)cc2c1c(cc(c2)OC)Oc1c(CC(=O)CCCCC)c(C(=O)O)c(O)cc1O
INCHI=InChI=1S/C29H34O9/c1-4-6-8-10-18(30)14-21-26(28(33)34)22(31)16-23(32)27(21)38-24-15-20(36-3)13-17-12-19(11-9-7-5-2)37-29(35)25(17)24/h12-13,15-16,31-32H,4-11,14H2,1-3H3,(H,33,34)
INCHIKEY=NDOGMEJTCDSZAS-UHFFFAOYSA-N
CLASS=Diphenylethers
ADDUCT=[M+K]+
INSTRUMENT=Waters Q-ToF Xevo G2-XS
PRECURSOR_MZ=565.184
COMPOUND_NAME=Beta-Collatolic acid
ION_MODE=positive
FORMULA=C29H34O9
61.449059 18.0 
101.183662 48.0 
103.050873 23.0 
148.140106 19.0 
155.870056 42.0 
179.510269 30.0 
187.985916 25.0 
228.042389 105.180786 
270.08844 662.515137 
284.101227 74.0 
286.042267 62.0 
299.091095 68.0 
300.100372 629.228027 
333.054657 76.0 
341.912964 82.0 
379.020172 24.0 
382.579102 29.0 
384.192017 23.0 
432.270447 33.0 
452.912262 32.0 
474.999329 38.0 
475.147583 57.38092 
521.213135 263.606689 
547.144897 69.0 
547.195984 1592.801758 
646.939941 30.0 
675.075195 97.0 
END IONS

BEGIN IONS
RTINSECONDS=186.567001
CHARGE=1+
MSLEVEL=2
SMILES=Cc1cc(c(c(c1C(=O)O)O)C)OC(=O)c1c(c(c(cc1C)OC)C)OC
INCHI=InChI=1S/C20H22O7/c1-9-8-14(11(3)17(21)15(9)19(22)23)27-20(24)16-10(2)7-13(25-5)12(4)18(16)26-6/h7-8,21H,1-6H3,(H,22,23)
INCHIKEY=MIJKZXWOOXIEEU-UHFFFAOYSA-N
CLASS=Depsides (Didepsides)
ADDUCT=[2M+Na]+
INSTRUMENT=Waters Q-ToF Xevo G2-XS
PRECURSOR_MZ=771.2629
COMPOUND_NAME=Diffractaic acid
ION_MODE=positive
FORMULA=C20H22O7
54.277676 28.0 
56.176228 33.0 
56.51786 52.0 
62.782738 44.0 
63.403313 42.0 
65.132118 52.0 
104.522026 83.0 
116.496658 112.0 
147.523315 118.0 
187.036285 2245.064453 
193.087463 2280.271484 
194.091812 294.979248 
232.408997 123.0 
232.5625 144.0 
233.079025 527.0 
250.050827 86.0 
252.800552 114.0 
256.603516 83.0 
312.732452 146.0 
314.835815 189.0 
379.116394 49355.0625 
397.05011 3797.929688 
397.126801 363900.0 
397.212952 3922.462891 
397.327911 6006.542969 
415.135925 2850.583984 
492.79184 75.0 
516.177795 146.280762 
543.148987 241.0 
559.153931 158.361206 
560.157654 339.417236 
561.136902 130.991333 
561.168945 737.744141 
631.43103 64.0 
644.699646 52.0 
644.82251 42.0 
656.880432 75.0 
658.251709 82.0 
669.213196 63.0 
753.250061 1872.138672 
END IONS

BEGIN IONS
RTINSECONDS=188.076004
CHARGE=1+
MSLEVEL=2
SMILES=O=C1c2c(C)c(Cl)c(OC)cc2Oc2c(O1)cc(c(c2C)Cl)OC
INCHI=InChI=1S/C17H14Cl2O5/c1-7-13-9(5-10(21-3)14(7)18)23-16-8(2)15(19)11(22-4)6-12(16)24-17(13)20/h5-6H,1-4H3
INCHIKEY=AYDBBWJGHVYDQE-UHFFFAOYSA-N
CLASS=Depsidones
ADDUCT=[M+H+CH3OH]+
INSTRUMENT=Waters Q-ToF Xevo G2-XS
PRECURSOR_MZ=401.0559
COMPOUND_NAME=Scensidin
ION_MODE=positive
FORMULA=C17H14Cl2O5
77.040062 2975.951172 
108.058304 4162.34375 
129.011383 4606.355469 
143.026733 16015.992188 
154.994247 15393.6875 
170.01413 33820.46875 
171.022202 18973.078125 
172.028946 32543.78125 
198.008652 106834.125 
230.035233 34481.625 
275.045624 26338.109375 
277.063934 110287.0625 
290.071228 69469.3125 
305.058258 126780.5 
311.995667 31178.625 
327.019196 63622.28125 
333.052826 65186.03125 
369.030273 643574.0 
369.223969 17420.359375 
454.822144 62.0 
469.654938 63.0 
486.030243 79.0 
509.680328 62.0 
520.103333 45.0 
546.57843 98.0 
578.226196 52.0 
595.134888 53.0 
598.628174 55.0 
605.471497 126.0 
621.325012 51.0 
667.382996 50.0 
688.421326 53.0 
700.47583 113.0 
722.45697 76.0 
728.746948 76.0 
729.575684 71.0 
733.242371 53.0 
734.682556 96.0 
742.767639 54.0 
END IONS

BEGIN IONS
RTINSECONDS=186.309998
CHARGE=1+
MSLEVEL=2
SMILES=Cc1cc(c2c(c1)C(=O)c1c(C2=O)c(ccc1)O)O
INCHI=InChI=1S/C15H10O4/c1-7-5-9-13(11(17)6-7)15(19)12-8(14(9)18)3-2-4-10(12)16/h2-6,16-17H,1H3
INCHIKEY=LQGUBLBATBMXHT-UHFFFAOYSA-N
CLASS=Quinones
ADDUCT=[M+H]+
INSTRUMENT=Waters Q-ToF Xevo G2-XS
PRECURSOR_MZ=255.0657
COMPOUND_NAME=Chrysophanol
ION_MODE=positive
FORMULA=C15H10O4
65.040276 448.0 
77.039818 969.165039 
91.054977 1234.245117 
121.03006 3463.783203 
128.062408 3671.599609 
135.045151 4144.058594 
151.055618 3486.898438 
152.062912 26274.5625 
153.070572 11189.296875 
181.065781 12990.15625 
209.06041 10623.085938 
227.070267 7329.5 
237.054581 1147.845703 
342.359406 41.0 
349.736847 72.0 
350.406921 56.0 
366.411194 52.0 
425.052032 35.0 
428.009918 64.0 
437.29425 40.0 
457.845764 52.0 
474.848389 67.0 
481.952087 31.0 
485.396759 49.0 
521.710876 30.0 
522.882446 79.0 
526.706299 31.0 
542.282654 55.0 
571.911682 50.0 
578.445923 33.0 
593.838318 36.0 
613.736023 37.0 
631.571045 62.0 
632.851624 27.0 
636.469177 31.0 
647.653198 26.0 
647.880188 26.0 
654.463013 27.0 
661.751099 31.0 
675.473572 25.0 
697.218445 27.0 
701.14856 33.0 
713.101257 25.0 
726.88855 45.0 
740.892273 34.0 
742.384399 25.0 
771.810791 52.0 
793.760254 43.0 
794.282349 29.0 
794.803894 30.0 
796.990662 24.0 
END IONS

BEGIN IONS
RTINSECONDS=176.046005
CHARGE=1+
MSLEVEL=2
SMILES=Oc1cc(OC)cc(CCCCC)c1C(=O)O
INCHI=InChI=1S/C13H18O4/c1-3-4-5-6-9-7-10(17-2)8-11(14)12(9)13(15)16/h7-8,14H,3-6H2,1-2H3,(H,15,16)
INCHIKEY=JWSADSZPLGCVPA-UHFFFAOYSA-N
CLASS=Cleavage Products of Depsides and Depsidones
ADDUCT=[M+K]+
INSTRUMENT=Waters Q-ToF Xevo G2-XS
PRECURSOR_MZ=277.0842
COMPOUND_NAME=4-O-methylolivetolcarboxylic acid
ION_MODE=positive
FORMULA=C13H18O4
67.053879 62.0 
91.056061 69.0 
107.051849 178.0 
109.068069 80.0 
137.059799 272.0 
164.046524 555.729492 
175.073349 196.0 
194.997421 620.85791 
195.91214 319.570801 
213.005676 594.161133 
236.021622 916.362793 
329.025696 35.0 
381.591705 33.0 
425.235352 32.0 
478.579163 20.0 
645.213745 20.0 
659.562744 40.0 
705.982666 51.0 
END IONS

BEGIN IONS
RTINSECONDS=261.184998
CHARGE=1+
MSLEVEL=2
SMILES=Cc1cc(OC)cc2c1c(=O)c1c(cc(OC)c(Cl)c1O)o2
INCHI=InChI=1S/C16H13ClO5/c1-7-4-8(20-2)5-9-12(7)15(18)13-10(22-9)6-11(21-3)14(17)16(13)19/h4-6,19H,1-3H3
INCHIKEY=MDGIQNQUOXZRIT-UHFFFAOYSA-N
CLASS=Xanthones and bis-Xanthones
ADDUCT=[M+NH4]+
INSTRUMENT=Waters Q-ToF Xevo G2-XS
PRECURSOR_MZ=338.0795
COMPOUND_NAME=2-Chlorolichexanthone
ION_MODE=positive
FORMULA=C16H13ClO5
83.084114 4134.824219 
95.085892 2798.095703 
97.092567 4502.113281 
111.102531 3122.558594 
135.116791 3379.773438 
149.132217 3381.246094 
163.148376 1963.389648 
177.164322 1462.274414 
191.178879 996.443848 
226.219025 767.125488 
247.239716 550.411133 
268.261932 918.109375 
282.277496 499.605713 
303.303894 6963.964844 
709.548584 30.0 
END IONS

BEGIN IONS
RTINSECONDS=19.705
CHARGE=1+
MSLEVEL=2
SMILES=COC1=C(NC(CO)CCC(=N)O)CC(CO)(O)CC1=O
INCHI=InChI=1S/C13H22N2O6/c1-21-12-9(4-13(20,7-17)5-10(12)18)15-8(6-16)2-3-11(14)19/h8,15-17,20H,2-7H2,1H3,(H2,14,19)
INCHIKEY=BVWBDCIYHWDCRQ-UHFFFAOYSA-N
CLASS=Mycosporines
ADDUCT=[M+H]+
INSTRUMENT=Waters Q-ToF Xevo G2-XS
PRECURSOR_MZ=303.1556
COMPOUND_NAME=Mycosporine glutaminol
ION_MODE=positive
FORMULA=C13H22N2O6
71.05043 33562.21875 
98.060913 44667.65625 
99.04538 30809.71875 
116.071144 32508.125 
152.070862 18857.015625 
176.071503 26041.828125 
188.092514 29034.03125 
218.082321 31876.53125 
235.107559 30891.96875 
238.10817 16929.140625 
250.10817 42072.40625 
285.144836 12394.46875 
377.23941 54.0 
409.258057 25.0 
419.985107 28.0 
709.543396 33.0 
END IONS

BEGIN IONS
RTINSECONDS=157.832993
CHARGE=1+
MSLEVEL=2
SMILES=Oc1cc(O)cc2c1c(=O)c1c(o2)cc(c(Cl)c1C)O
INCHI=InChI=1S/C14H9ClO5/c1-5-11-10(4-8(18)13(5)15)20-9-3-6(16)2-7(17)12(9)14(11)19/h2-4,16-18H,1H3
INCHIKEY=GJFIGYXKJHSBBY-UHFFFAOYSA-N
CLASS=Xanthones and bis-Xanthones
ADDUCT=[2M+Na+CH3CN]+
INSTRUMENT=Waters Q-ToF Xevo G2-XS
PRECURSOR_MZ=648.044
COMPOUND_NAME=7-Chloronorlichexanthone
ION_MODE=positive
FORMULA=C14H9ClO5
55.263618 20.0 
56.063793 20.0 
115.462753 49.0 
117.305351 22.0 
155.409485 22.0 
172.053787 30.0 
199.069733 34.0 
215.568283 29.0 
226.016586 57.0 
227.010574 21.0 
263.009552 71.411316 
291.00531 2177.519531 
291.045563 95.0 
340.93222 405.0 
341.937225 310.7146 
342.950073 244.870972 
359.946136 1238.454102 
360.953735 331.806885 
377.957642 390.419678 
395.91571 87.0 
432.049347 73.0 
483.108643 51.0 
567.96521 582.220215 
568.971924 496.386719 
603.940796 10062.4375 
619.936584 7963.179688 
621.956055 1201.324219 
742.328308 20.0 
756.008301 18.0 
END IONS

BEGIN IONS
RTINSECONDS=135.938004
CHARGE=1+
MSLEVEL=2
SMILES=Cc1cc(c(c(c1Cl)O)C=O)O
INCHI=InChI=1S/C8H7ClO3/c1-4-2-6(11)5(3-10)8(12)7(4)9/h2-3,11-12H,1H3
INCHIKEY=IOTAGSGSURFFDS-UHFFFAOYSA-N
CLASS=Cleavage Products of Depsides and Depsidones
ADDUCT=[2M+Na+CH3OH]+
INSTRUMENT=Waters Q-ToF Xevo G2-XS
PRECURSOR_MZ=427.0327
COMPOUND_NAME=Chloratranol
ION_MODE=positive
FORMULA=C8H7ClO3
65.041229 166.0 
66.048561 310.0 
77.040199 209.161499 
94.042076 1147.789062 
121.027847 193.0 
122.037056 7022.34375 
123.043694 190.0 
148.96991 327.0 
175.951355 205.0 
193.967545 390.354004 
204.958191 734.769043 
211.936569 712.307129 
222.970062 614.327637 
240.935684 4481.8125 
258.94635 5027.941406 
275.90451 1508.37207 
293.915283 597.188965 
305.975983 206.0 
361.965027 974.213379 
362.037811 150.0 
397.940704 5571.382812 
482.143463 31.0 
503.425354 38.0 
519.160583 24.0 
535.497009 23.0 
553.410034 22.0 
570.836975 39.0 
574.248962 23.0 
593.320923 31.0 
597.617249 39.0 
598.692017 24.0 
603.795776 22.0 
616.870911 33.0 
676.137695 30.0 
701.174866 21.0 
716.034912 21.0 
729.636169 24.0 
729.847595 32.0 
731.812256 23.0 
733.874939 25.0 
744.73053 20.0 
787.822998 21.0 
END IONS

BEGIN IONS
RTINSECONDS=200.421005
CHARGE=1+
MSLEVEL=2
SMILES=O=C1c2c(C)c(Cl)c(OC)cc2Oc2c(O1)c(c(c(c2C)Cl)OC)Cl
INCHI=InChI=1S/C17H13Cl3O5/c1-6-10-8(5-9(22-3)11(6)18)24-14-7(2)12(19)15(23-4)13(20)16(14)25-17(10)21/h5H,1-4H3
INCHIKEY=HEZSUFJPGFDKIG-UHFFFAOYSA-N
CLASS=Depsidones
ADDUCT=[M+H]+
INSTRUMENT=Waters Q-ToF Xevo G2-XS
PRECURSOR_MZ=402.9907
COMPOUND_NAME=3-Dechloro-4-O-methyldiploicin
ION_MODE=positive
FORMULA=C17H13Cl3O5
77.039841 687.0 
98.99929 421.262939 
113.015724 512.0 
142.018555 2554.265625 
169.005142 11971.335938 
176.988434 6652.871094 
197.062134 2242.654297 
204.9823 3337.988281 
247.052597 5244.382812 
261.030396 9377.859375 
276.055206 7456.671875 
280.992218 6049.867188 
296.000214 8455.039062 
311.024384 25987.140625 
339.018555 23492.625 
360.977386 5545.335938 
367.014954 18228.84375 
473.737427 52.0 
497.883606 68.0 
512.195007 123.0 
519.016541 55.0 
548.860352 64.0 
569.446228 61.0 
571.675049 46.0 
575.034241 63.0 
604.9422 50.0 
629.215576 60.0 
630.577698 65.0 
640.914185 49.0 
675.120789 58.0 
681.911621 47.0 
687.05365 49.0 
698.433838 93.0 
705.658691 106.0 
747.37146 57.0 
770.686584 36.0 
770.91333 43.0 
783.132507 39.0 
787.715393 35.0 
788.273376 52.0 
END IONS

BEGIN IONS
RTINSECONDS=117.014
CHARGE=1+
MSLEVEL=2
SMILES=O=C(O)c1c(CCC)cc(O)cc1O
INCHI=InChI=1S/C10H12O4/c1-2-3-6-4-7(11)5-8(12)9(6)10(13)14/h4-5,11-12H,2-3H2,1H3,(H,13,14)
INCHIKEY=RIVVNGIVVYEIRS-UHFFFAOYSA-N
CLASS=Cleavage Products of Depsides and Depsidones
ADDUCT=[M+H]+
INSTRUMENT=Waters Q-ToF Xevo G2-XS
PRECURSOR_MZ=197.0814
COMPOUND_NAME=Divaric acid
ION_MODE=positive
FORMULA=C10H12O4
68.998329 4547.183594 
77.039963 10438.328125 
115.05484 15861.78125 
123.045517 23811.6875 
133.064987 20524.1875 
151.076248 24536.03125 
161.060074 80080.5625 
179.070557 292386.0 
251.018845 60.0 
256.528717 50.0 
296.049988 50.0 
312.281097 61.0 
315.447815 80.0 
328.685547 62.0 
345.846405 51.0 
347.410858 58.0 
371.537109 93.0 
398.195618 84.0 
406.083527 62.0 
411.209503 153.0 
413.804932 83.0 
435.792603 53.0 
465.934326 54.0 
485.903687 56.0 
504.629791 121.0 
507.483887 60.0 
507.695496 40.0 
532.060425 39.0 
538.193604 52.0 
574.915588 34.0 
601.411621 44.0 
605.654968 37.0 
607.488281 28.0 
609.677917 31.0 
641.755005 36.0 
643.366394 37.0 
659.390259 36.0 
662.224548 40.0 
663.168701 27.0 
700.715698 27.0 
714.267151 28.0 
719.491211 41.0 
724.687927 25.0 
732.275269 26.0 
741.442932 26.0 
755.341736 28.0 
758.675842 38.0 
775.499084 24.0 
781.255249 24.0 
785.652344 41.0 
786.397827 35.0 
END IONS

BEGIN IONS
RTINSECONDS=135.686005
CHARGE=1+
MSLEVEL=2
SMILES=Cc1cc(c(c(c1Cl)O)C=O)O
INCHI=InChI=1S/C8H7ClO3/c1-4-2-6(11)5(3-10)8(12)7(4)9/h2-3,11-12H,1H3
INCHIKEY=IOTAGSGSURFFDS-UHFFFAOYSA-N
CLASS=Cleavage Products of Depsides and Depsidones
ADDUCT=[M+H]+
INSTRUMENT=Waters Q-ToF Xevo G2-XS
PRECURSOR_MZ=187.0162
COMPOUND_NAME=Chloratranol
ION_MODE=positive
FORMULA=C8H7ClO3
65.039787 3559.564453 
77.039833 73088.0625 
78.047325 13350.539062 
113.016045 51044.0 
123.043686 53856.375 
124.052399 100840.0 
141.010941 51212.375 
266.741241 28.0 
268.012238 33.0 
276.293335 28.0 
308.226105 21.0 
311.908234 41.0 
392.620819 30.0 
397.307953 27.0 
398.063751 31.0 
402.329681 29.0 
418.572418 23.0 
437.739258 24.0 
456.617279 31.0 
677.746033 34.0 
END IONS

BEGIN IONS
RTINSECONDS=120.277
CHARGE=1+
MSLEVEL=2
SMILES=Cc1cc(=O)c2c(cc3c(C(=CC(=O)C3=O)OC)c2OC)o1
INCHI=InChI=1S/C16H12O6/c1-7-4-9(17)14-12(22-7)5-8-13(16(14)21-3)11(20-2)6-10(18)15(8)19/h4-6H,1-3H3
INCHIKEY=GESAVORGYOGKOW-UHFFFAOYSA-N
CLASS=Quinones
ADDUCT=[M+H+HCOOH]+
INSTRUMENT=Waters Q-ToF Xevo G2-XS
PRECURSOR_MZ=347.0767
COMPOUND_NAME=Canarione dimethylether
ION_MODE=positive
FORMULA=C16H12O6
88.747719 77.0 
106.004616 101.0 
121.0289 133.47998 
134.001755 332.215332 
174.032181 3909.162109 
201.056946 1763.935547 
202.026672 3066.4375 
229.050476 3214.638672 
258.05368 836.623047 
270.016815 5712.320312 
273.076172 4287.285156 
285.040833 14797.445312 
317.066833 35085.6875 
317.130066 316.264648 
400.51474 33.0 
412.492889 38.0 
424.978943 48.0 
433.692993 68.0 
435.570862 61.0 
439.850403 30.0 
475.63266 22.0 
495.878204 19.0 
498.70105 22.0 
502.05835 18.0 
536.380432 18.0 
556.698853 19.0 
567.254639 24.0 
582.501282 27.0 
623.301636 18.0 
634.98114 26.0 
639.324768 55.0 
654.643188 18.0 
678.578857 34.0 
717.738464 30.0 
719.660095 21.0 
727.502502 29.0 
733.911011 27.0 
754.594604 24.0 
END IONS

BEGIN IONS
RTINSECONDS=138.143005
CHARGE=1+
MSLEVEL=2
SMILES=O=c1c2c(oc3c1c(C)cc(O)c3)cc(O)cc2O
INCHI=InChI=1S/C14H10O5/c1-6-2-7(15)4-10-12(6)14(18)13-9(17)3-8(16)5-11(13)19-10/h2-5,15-17H,1H3
INCHIKEY=AQZHBCDRWFMXIN-UHFFFAOYSA-N
CLASS=Xanthones and bis-Xanthones
ADDUCT=[M+H]+
INSTRUMENT=Waters Q-ToF Xevo G2-XS
PRECURSOR_MZ=259.0606
COMPOUND_NAME=Norlichexanthone
ION_MODE=positive
FORMULA=C14H10O5
68.998924 60424.15625 
77.039665 62183.90625 
127.054703 75643.8125 
128.062607 218795.0 
151.039597 462558.0 
185.060532 227430.0 
191.071289 319981.0 
213.055649 473340.5 
216.042114 274488.25 
217.050735 322842.0 
313.634125 74.0 
319.938721 90.0 
320.58432 75.0 
350.203217 72.0 
385.825684 102.0 
386.793762 102.0 
418.29303 65.0 
421.695831 67.0 
431.511292 63.0 
452.298553 67.03717 
463.463287 60.0 
485.57254 46.0 
494.204926 65.0 
496.098663 52.0 
515.190735 47.0 
546.249878 33.0 
573.453125 44.0 
574.339966 48.0 
586.687561 53.0 
592.423096 71.0 
599.774719 43.0 
617.610779 92.0 
632.516602 34.0 
684.753967 33.0 
704.170349 42.0 
712.726868 41.0 
785.821594 35.0 
791.697693 66.0 
END IONS

BEGIN IONS
RTINSECONDS=170.240005
CHARGE=1+
MSLEVEL=2
SMILES=CC(=O)CCCCCCCCCCCCCC1C(C(=C)C(=O)O1)C(=O)O
INCHI=InChI=1S/C21H34O5/c1-16(22)14-12-10-8-6-4-3-5-7-9-11-13-15-18-19(20(23)24)17(2)21(25)26-18/h18-19H,2-15H2,1H3,(H,23,24)
INCHIKEY=SKQHRBRVCRUFSX-UHFFFAOYSA-N
CLASS=Paraconic acids
ADDUCT=[M+Na+CH3CN]+
INSTRUMENT=Waters Q-ToF Xevo G2-XS
PRECURSOR_MZ=430.2569
COMPOUND_NAME=Pertusaric acid
ION_MODE=positive
FORMULA=C21H34O5
79.05584 168.0 
81.071083 259.0 
95.087105 271.0 
109.098122 157.234619 
119.087082 152.560059 
123.041992 269.400635 
175.039948 88.0 
193.121765 78.0 
215.131332 73.0 
255.232101 391.0 
305.212128 499.317871 
315.194702 234.590942 
321.242493 606.926758 
347.222046 5032.082031 
365.232758 2733.886719 
375.221466 483.0 
383.243958 721.072266 
411.237946 3631.660156 
518.859375 30.0 
539.917358 30.0 
551.097473 25.0 
553.96521 24.0 
572.939636 19.0 
591.141724 25.0 
607.171875 28.0 
621.207397 51.0 
645.166748 19.0 
665.394958 25.0 
785.605591 35.0 
785.906128 27.0 
END IONS

BEGIN IONS
RTINSECONDS=93.022003
CHARGE=1+
MSLEVEL=2
SMILES=Cc1cc(cc(c1C(=O)O)O)O
INCHI=InChI=1S/C8H8O4/c1-4-2-5(9)3-6(10)7(4)8(11)12/h2-3,9-10H,1H3,(H,11,12)
INCHIKEY=AMKYESDOVDKZKV-UHFFFAOYSA-N
CLASS=Cleavage Products of Depsides and Depsidones
ADDUCT=[M+H]+
INSTRUMENT=Waters Q-ToF Xevo G2-XS
PRECURSOR_MZ=169.0501
COMPOUND_NAME=Orsellinic acid
ION_MODE=positive
FORMULA=C8H8O4
67.056007 381.0 
68.937317 57.0 
68.999466 436.937256 
77.038956 211.0 
95.049301 742.107422 
123.042549 450.897949 
151.03923 17666.609375 
151.078766 100.0 
152.041763 111.0 
231.052338 39.0 
231.224304 20.0 
231.639893 27.0 
283.571289 19.0 
304.775909 28.0 
305.094421 26.0 
314.206604 26.0 
349.397614 63.0 
374.503387 20.0 
383.245026 21.0 
392.044067 24.0 
392.909119 24.0 
426.080994 19.0 
446.647308 22.0 
451.824005 18.0 
460.641876 21.0 
508.711121 125.0 
548.525146 21.0 
715.314636 24.0 
END IONS

BEGIN IONS
RTINSECONDS=171.330002
CHARGE=1+
MSLEVEL=2
SMILES=O=C1c2c(C)c(Cl)c(O)c(Cl)c2Oc2c(O1)cc(c(c2C)C(=O)OC)OC
INCHI=InChI=1S/C18H14Cl2O7/c1-6-11-16(13(20)14(21)12(6)19)27-15-7(2)10(17(22)25-4)8(24-3)5-9(15)26-18(11)23/h5,21H,1-4H3
INCHIKEY=RPHAAJGBADUATP-UHFFFAOYSA-N
CLASS=Depsidones
ADDUCT=[M+H]+
INSTRUMENT=Waters Q-ToF Xevo G2-XS
PRECURSOR_MZ=413.0195
COMPOUND_NAME=Gangaleoidin
ION_MODE=positive
FORMULA=C18H14Cl2O7
52.066319 29.0 
81.865761 45.0 
91.057281 50.0 
105.031021 57.0 
138.047531 119.0 
139.056717 138.0 
173.014633 874.886719 
174.018921 135.0 
201.010178 447.309814 
202.018127 1644.321289 
230.012314 570.647949 
236.988434 254.186279 
264.982574 602.24707 
281.984192 1478.641602 
292.978424 2927.828125 
293.984711 2697.025391 
320.972809 3994.597656 
337.973785 1509.665039 
348.966248 14008.867188 
380.993073 33890.75 
470.761322 41.0 
473.703186 39.0 
513.203186 34.0 
526.156555 18.0 
547.075439 24.0 
555.069824 18.0 
568.228088 34.0 
575.657166 21.0 
580.099365 20.0 
602.514648 62.0 
612.279907 45.0 
656.814514 19.0 
671.771301 25.0 
673.451111 18.0 
684.467529 25.0 
685.345093 22.0 
712.978088 28.0 
741.680176 28.0 
768.150818 26.0 
772.966553 22.0 
790.537537 60.0 
791.739624 21.0 
798.424805 27.0 
798.89209 20.0 
END IONS

BEGIN IONS
RTINSECONDS=206.996002
CHARGE=1+
MSLEVEL=2
SMILES=O=C1Oc2c(c(CCCCC)c(C(=O)O)c(O)c2)Oc2c1c(cc(c2)OC)CCCCC
INCHI=InChI=1S/C25H30O7/c1-4-6-8-10-15-12-16(30-3)13-19-21(15)25(29)32-20-14-18(26)22(24(27)28)17(23(20)31-19)11-9-7-5-2/h12-14,26H,4-11H2,1-3H3,(H,27,28)
INCHIKEY=RWVJYKHAFMWADK-UHFFFAOYSA-N
CLASS=Depsidones
ADDUCT=[M+H+CH3CN]+
INSTRUMENT=Waters Q-ToF Xevo G2-XS
PRECURSOR_MZ=484.2335
COMPOUND_NAME=Colensoic acid
ION_MODE=positive
FORMULA=C25H30O7
71.087234 447.190674 
95.08638 826.931152 
99.080879 682.0 
123.045341 686.0 
135.081604 874.876953 
149.052078 955.0 
165.055649 2070.458984 
177.07756 2544.65625 
189.084885 1344.756836 
203.07103 2812.396484 
205.086746 2234.744141 
217.086441 14121.148438 
255.104141 3060.996094 
269.045288 2670.384766 
270.052094 3411.400391 
273.07666 12427.484375 
299.054535 6286.542969 
315.158875 23313.90625 
326.115204 39070.625 
327.122925 29489.5 
371.148682 24287.03125 
371.221161 21578.421875 
397.127441 20754.703125 
399.216064 46415.6875 
423.215057 4918.390625 
425.195312 276394.75 
441.226593 38287.8125 
467.206055 26335.65625 
559.315491 53.0 
561.505554 59.0 
578.70929 92.0 
611.816772 46.0 
615.08429 55.0 
658.272705 52.0 
662.518188 97.0 
666.599426 42.0 
673.726379 53.0 
698.916565 41.0 
737.49408 45.0 
767.251099 67.0 
782.337219 40.0 
792.116516 37.0 
END IONS

BEGIN IONS
RTINSECONDS=228.783005
CHARGE=1+
MSLEVEL=2
SMILES=CCCCCCCCCCCCCC(=O)CC(C(=O)O)C
INCHI=InChI=1S/C18H34O3/c1-3-4-5-6-7-8-9-10-11-12-13-14-17(19)15-16(2)18(20)21/h16H,3-15H2,1-2H3,(H,20,21)
INCHIKEY=FYKXUGIGKHKTDH-UHFFFAOYSA-N
CLASS=Acids
ADDUCT=[2M+H+CH3CN]+
INSTRUMENT=Waters Q-ToF Xevo G2-XS
PRECURSOR_MZ=638.536
COMPOUND_NAME=Lichesterylic acid
ION_MODE=positive
FORMULA=C18H34O3
56.487984 39.0 
67.05928 33.0 
82.374031 33.0 
83.050079 466.0 
90.813866 48.0 
91.052292 36.0 
103.324394 68.0 
141.071381 194.172729 
147.11676 619.0 
159.081467 75.0 
163.017654 232.597168 
175.013504 122.24054 
197.12265 74.0 
227.045685 121.0 
239.04599 719.539551 
257.052124 59.0 
260.988586 61.0 
283.112488 81.0 
295.106781 161.0 
336.886444 79.255554 
336.971588 128.693726 
337.023376 6091.363281 
337.099548 88.667175 
393.044891 112.086792 
393.084564 3077.279297 
393.160828 106.0 
413.057526 370.717529 
449.150635 233.0 
469.085541 287.326172 
469.121124 1247.854492 
525.11676 383.381836 
525.180847 9220.414062 
525.245239 109.0 
525.296997 135.0 
566.20575 361.612549 
581.161072 595.619629 
581.243469 20595.984375 
581.319397 216.656372 
725.754395 42.0 
730.407837 49.0 
736.216064 43.0 
756.507874 69.0 
757.303467 86.0 
771.517883 44.0 
792.46991 113.0 
END IONS

BEGIN IONS
RTINSECONDS=156.184006
CHARGE=1+
MSLEVEL=2
SMILES=Oc1cc(O)cc2c1c(=O)c1c(o2)cc(c(Cl)c1C)O
INCHI=InChI=1S/C14H9ClO5/c1-5-11-10(4-8(18)13(5)15)20-9-3-6(16)2-7(17)12(9)14(11)19/h2-4,16-18H,1H3
INCHIKEY=GJFIGYXKJHSBBY-UHFFFAOYSA-N
CLASS=Xanthones and bis-Xanthones
ADDUCT=[2M+Na+CH3OH]+
INSTRUMENT=Waters Q-ToF Xevo G2-XS
PRECURSOR_MZ=639.0437
COMPOUND_NAME=7-Chloronorlichexanthone
ION_MODE=positive
FORMULA=C14H9ClO5
55.882771 19.0 
109.418213 21.0 
112.003227 21.0 
115.249664 26.0 
132.60379 29.0 
144.051422 31.0 
151.253479 24.0 
189.878662 31.0 
200.04425 90.318115 
201.053711 61.0 
228.04187 445.766602 
229.048401 49.0 
240.414581 113.0 
256.03598 304.0 
289.951691 62.165649 
291.007965 43.0 
317.94281 85.059265 
345.932404 606.859863 
345.960052 151.220825 
346.944336 269.490967 
363.942841 156.13623 
364.958313 192.864868 
367.994263 104.0 
417.907501 52.0 
423.678925 43.0 
435.458221 46.0 
469.238922 50.0 
473.304108 35.0 
511.42746 89.0 
525.255066 60.0 
529.09314 60.0 
545.97998 46.0 
573.981689 173.746582 
574.995911 59.249146 
581.949097 151.551392 
709.604431 18.0 
743.951904 33.0 
END IONS

BEGIN IONS
RTINSECONDS=160.871002
CHARGE=1+
MSLEVEL=2
SMILES=O=c1c2c(oc3c1c(C)cc(O)c3)c(Cl)c(O)c(Cl)c2O
INCHI=InChI=1S/C14H8Cl2O5/c1-4-2-5(17)3-6-7(4)11(18)8-12(19)9(15)13(20)10(16)14(8)21-6/h2-3,17,19-20H,1H3
INCHIKEY=JPFFMNSHZHZAND-UHFFFAOYSA-N
CLASS=Xanthones and bis-Xanthones
ADDUCT=[2M+Na+CH3OH]+
INSTRUMENT=Waters Q-ToF Xevo G2-XS
PRECURSOR_MZ=706.9657
COMPOUND_NAME="2,4-Dichloronorlichexanthone"
ION_MODE=positive
FORMULA=C14H8Cl2O5
59.048149 20.0 
102.853508 21.0 
106.1838 32.0 
114.608215 26.0 
121.498375 26.0 
135.47168 23.0 
171.043396 35.0 
198.018677 18.0 
199.034302 24.0 
234.009109 46.277283 
234.034561 71.0 
236.056763 23.0 
262.00827 73.754456 
263.993958 48.0 
289.9935 404.03418 
292.002136 116.0 
323.957367 267.754883 
325.954376 412.0 
326.039337 84.0 
326.965576 82.087891 
379.896851 50.0 
381.889099 179.0 
382.893188 103.984497 
398.916473 57.0 
400.908875 66.0 
416.853668 94.0 
459.844543 102.0 
483.190704 36.0 
486.405853 49.0 
497.393219 61.0 
497.996155 58.0 
499.820953 38.0 
554.101501 28.0 
556.339661 28.0 
562.515625 39.0 
571.266357 44.0 
577.923096 45.0 
598.972168 33.0 
608.930237 48.0 
620.043762 34.0 
636.886597 44.0 
636.921265 45.0 
652.861633 41.0 
672.896301 67.712708 
764.190674 20.0 
770.580444 19.0 
780.964722 19.0 
END IONS

BEGIN IONS
RTINSECONDS=174.501007
CHARGE=1+
MSLEVEL=2
SMILES=O=c1c2c(oc3c1c(C)cc(O)c3)cc(C)cc2O
INCHI=InChI=1S/C15H12O4/c1-7-3-10(17)14-11(4-7)19-12-6-9(16)5-8(2)13(12)15(14)18/h3-6,16-17H,1-2H3
INCHIKEY=PQFJZPPNZJSEGH-UHFFFAOYSA-N
CLASS=Xanthones and bis-Xanthones
ADDUCT=[M+H]+
INSTRUMENT=Waters Q-ToF Xevo G2-XS
PRECURSOR_MZ=257.0814
COMPOUND_NAME="1,6-Dihydroxy-3,8-dimethylxanthone"
ION_MODE=positive
FORMULA=C15H12O4
77.03997 49865.78125 
115.054886 64436.625 
139.05481 74358.25 
153.070114 117614.5 
168.057236 282495.25 
181.065323 147337.875 
211.076462 460155.0 
213.055313 304160.75 
214.063248 281694.5 
239.071243 271748.25 
325.25647 91.0 
384.122437 63.0 
392.901093 101.0 
406.726105 86.0 
454.258148 67.0 
461.777618 64.0 
467.556396 69.0 
478.988525 63.0 
485.240479 161.0 
507.549103 108.0 
535.710754 73.0 
542.274902 81.0 
586.635315 89.0 
587.966675 116.448303 
593.54187 80.0 
606.010803 110.0 
613.444153 121.0 
615.106384 110.0 
620.548462 79.0 
666.042725 71.0 
676.365906 106.0 
730.840149 60.0 
763.974182 82.0 
785.283508 91.0 
END IONS

BEGIN IONS
RTINSECONDS=185.957993
CHARGE=1+
MSLEVEL=2
SMILES=CC(C)C[C@H](NC(=O)c1ccccc1)C(=O)OC[C@@H](NC(=O)c1ccccc1)Cc1ccccc1
INCHI=InChI=1S/C29H32N2O4/c1-21(2)18-26(31-28(33)24-16-10-5-11-17-24)29(34)35-20-25(19-22-12-6-3-7-13-22)30-27(32)23-14-8-4-9-15-23/h3-17,21,25-26H,18-20H2,1-2H3,(H,30,32)(H,31,33)/t25-,26-/m0/s1
INCHIKEY=JOOSAYNHLJGJCN-UIOOFZCWSA-N
CLASS=N-Containing Compounds
ADDUCT=[M+K]+
INSTRUMENT=Waters Q-ToF Xevo G2-XS
PRECURSOR_MZ=511.1999
COMPOUND_NAME=Hypothallin
ION_MODE=positive
FORMULA=C29H32N2O4
79.054047 27.0 
96.535141 29.0 
98.975334 28.0 
105.03743 41.0 
117.06752 54.0 
122.057266 48.0 
146.253021 30.0 
163.150467 39.0 
176.229156 33.0 
181.002701 25.0 
205.099426 42.0 
238.121704 74.90625 
239.140686 45.0 
274.044312 91.0 
274.085632 682.425781 
276.081909 73.454651 
291.237488 55.0 
315.216583 97.0 
331.863068 46.0 
333.593781 50.0 
342.201202 47.0 
377.782898 65.0 
395.960205 53.0 
400.768646 53.0 
401.512543 57.0 
405.902771 151.0 
410.850891 42.0 
430.000244 83.0 
449.460327 57.0 
614.071228 28.0 
616.528198 84.0 
616.583862 29.0 
616.829102 18.0 
642.813477 32.0 
652.985657 61.0 
668.198303 20.0 
692.593567 36.0 
716.116089 28.0 
731.978088 30.0 
END IONS

BEGIN IONS
RTINSECONDS=202.848007
CHARGE=1+
MSLEVEL=2
SMILES=CCCCCCCCCCCC1[C@H](C(=O)O)C(C)C(=O)O1
INCHI=InChI=1S/C17H30O4/c1-3-4-5-6-7-8-9-10-11-12-14-15(16(18)19)13(2)17(20)21-14/h13-15H,3-12H2,1-2H3,(H,18,19)/t13?,14?,15-/m1/s1
INCHIKEY=PKXAQFKGSXYQJX-YMAMQOFZSA-N
CLASS=Paraconic acids
ADDUCT=[M+H]+
INSTRUMENT=Waters Q-ToF Xevo G2-XS
PRECURSOR_MZ=299.2222
COMPOUND_NAME=Nephrosteranic acid
ION_MODE=positive
FORMULA=C17H30O4
67.055351 707.971191 
79.055351 660.0 
81.071053 1196.237305 
91.054825 775.071777 
95.085304 1461.0 
105.069923 721.0 
133.101746 855.518066 
147.114349 708.92627 
179.142853 832.414062 
189.161682 1021.254883 
217.195023 3219.324219 
235.205124 2835.095703 
245.190216 630.102051 
253.216751 1008.025391 
263.201813 8841.875 
281.211792 19958.40625 
359.250977 37.0 
365.354431 42.0 
376.574646 91.0 
388.948395 40.0 
409.851379 58.0 
449.185211 38.0 
462.79071 61.0 
462.921295 39.0 
469.883423 37.0 
516.171875 27.0 
517.411499 29.0 
543.679382 33.0 
549.083801 36.0 
555.091064 32.0 
570.643005 49.0 
583.959167 43.0 
611.24292 28.0 
614.384277 30.0 
654.048157 26.0 
677.084229 78.0 
679.388916 34.0 
680.243042 24.0 
733.559021 27.0 
733.998718 49.0 
740.080933 28.0 
761.877197 24.0 
765.048767 29.0 
767.538757 31.0 
783.837708 23.0 
797.856628 24.0 
798.062134 23.0 
END IONS

BEGIN IONS
RTINSECONDS=146.783005
CHARGE=1+
MSLEVEL=2
SMILES=CC(=O)CCCCCCCCCCCCC[C@@H]1OC(=O)C(=C)[C@@H]1C(=O)O
INCHI=InChI=1S/C21H34O5/c1-16(22)14-12-10-8-6-4-3-5-7-9-11-13-15-18-19(20(23)24)17(2)21(25)26-18/h18-19H,2-15H2,1H3,(H,23,24)/t18-,19-/m0/s1
INCHIKEY=SKQHRBRVCRUFSX-OALUTQOASA-N
CLASS=Paraconic acids
ADDUCT=[M+H+CH3CN]+
INSTRUMENT=Waters Q-ToF Xevo G2-XS
PRECURSOR_MZ=408.275
COMPOUND_NAME=allo-Pertusaric acid
ION_MODE=positive
FORMULA=C21H34O5
81.070145 61.0 
88.807068 51.0 
91.058678 44.0 
93.075104 40.0 
122.241982 98.0 
136.262268 61.0 
142.079437 38.0 
148.893005 36.0 
151.116791 33.0 
192.913788 36.0 
244.829422 83.0 
261.055084 85.0 
269.286499 71.0 
275.779572 86.0 
279.933136 82.0 
310.897888 93.0 
321.27478 111.0 
349.196594 915.650879 
351.195831 109.889832 
365.264618 1992.302734 
496.576538 31.0 
502.362579 35.0 
524.694946 65.0 
543.014709 26.0 
563.029053 24.0 
563.454651 26.0 
584.172302 28.0 
587.804932 39.0 
629.977661 24.0 
635.690491 33.0 
647.713806 22.0 
658.258911 25.0 
673.201172 30.0 
699.878052 18.0 
726.326111 24.0 
729.430664 24.0 
752.868713 25.0 
758.054932 21.0 
796.467712 21.0 
END IONS

BEGIN IONS
RTINSECONDS=199.873993
CHARGE=1+
MSLEVEL=2
SMILES=O=C1c2c(CCCCC)cc(OC)c(OC)c2Oc2c(O1)cc(c(c2CCCCC)C(=O)O)O
INCHI=InChI=1S/C26H32O8/c1-5-7-9-11-15-13-18(31-3)23(32-4)24-20(15)26(30)33-19-14-17(27)21(25(28)29)16(22(19)34-24)12-10-8-6-2/h13-14,27H,5-12H2,1-4H3,(H,28,29)
INCHIKEY=GHBZVNHEVHMKOB-UHFFFAOYSA-N
CLASS=Depsidones
ADDUCT=[M+H+CH3OH]+
INSTRUMENT=Waters Q-ToF Xevo G2-XS
PRECURSOR_MZ=505.2438
COMPOUND_NAME=3-Methoxycolensoic acid
ION_MODE=positive
FORMULA=C26H32O8
77.038658 92.0 
95.088776 116.0 
151.07486 289.610352 
161.097427 332.580566 
179.069962 455.0 
189.090805 322.0 
193.124023 343.298584 
221.118149 3622.035156 
247.09877 344.04126 
249.111618 1733.185547 
253.143936 3864.119141 
281.140259 4821.570312 
299.058075 208.523804 
303.157196 646.540527 
356.125183 288.337158 
359.151276 407.138184 
359.21756 381.0 
369.168549 902.808594 
385.130219 567.525879 
387.219238 877.416016 
413.196533 17761.59375 
429.223999 1438.526367 
441.187653 542.467285 
455.209137 3168.310547 
473.218811 18232.890625 
487.232422 6572.285156 
532.299561 110.0 
572.161621 24.0 
583.237305 34.0 
593.289856 33.0 
654.040466 42.0 
691.952148 24.0 
774.006226 44.0 
END IONS

BEGIN IONS
RTINSECONDS=218.660004
CHARGE=1+
MSLEVEL=2
SMILES=O=c1c2c(cc(cc2C)OC)oc2c1c(O)c(c(OC)c2Cl)Cl
INCHI=InChI=1S/C16H12Cl2O5/c1-6-4-7(21-2)5-8-9(6)13(19)10-14(20)11(17)16(22-3)12(18)15(10)23-8/h4-5,20H,1-3H3
INCHIKEY=ZPLILIOXZHNNLY-UHFFFAOYSA-N
CLASS=Xanthones and bis-Xanthones
ADDUCT=[M+H]+
INSTRUMENT=Waters Q-ToF Xevo G2-XS
PRECURSOR_MZ=355.014
COMPOUND_NAME="2,4-Dichlorolichexanthone"
ION_MODE=positive
FORMULA=C16H12Cl2O5
91.055214 454.969482 
121.065804 431.0 
149.031555 713.433594 
157.063782 1586.801758 
213.051849 5807.855469 
234.007294 16063.578125 
248.023468 19119.84375 
266.998657 27452.890625 
296.972595 110893.3125 
310.988037 114794.5625 
311.995544 64354.21875 
417.536469 87.0 
417.815552 111.0 
427.412018 102.0 
474.46106 60.0 
501.717102 63.0 
515.161621 38.0 
517.676636 44.0 
524.71637 36.0 
525.397156 44.0 
528.140442 36.0 
532.509583 40.0 
539.217957 40.0 
570.982117 38.0 
573.185364 43.0 
576.341125 36.0 
583.759155 41.0 
634.792786 51.0 
639.967773 113.0 
648.966736 69.0 
649.062805 86.0 
660.362854 54.0 
694.295349 101.0 
704.168884 46.0 
731.203186 62.0 
731.274536 50.0 
744.601685 54.0 
775.220276 56.0 
776.380127 69.0 
785.621521 83.0 
787.60553 48.0 
799.993103 49.0 
END IONS

BEGIN IONS
RTINSECONDS=138.628006
CHARGE=1+
MSLEVEL=2
SMILES=Cc1cc(c2c(c1)C(=O)C13C4C5C(C1C(=O)C1=C(c6c(cc(cc6C(=O)C51C(C4O)C(=O)C3=C2O)C)O)O)O)O
INCHI=InChI=1S/C30H22O10/c1-7-3-9-13(11(31)5-7)21(33)17-25(37)20-23(35)15-16-24(36)19(29(15,17)27(9)39)26(38)18-22(34)14-10(28(40)30(16,18)20)4-8(2)6-12(14)32/h3-6,15-16,19-20,23-24,31-36H,1-2H3
INCHIKEY=QFDPVUTXKUGISP-UHFFFAOYSA-N
CLASS=Quinones
ADDUCT=[M+NH4]+
INSTRUMENT=Waters Q-ToF Xevo G2-XS
PRECURSOR_MZ=560.1557
COMPOUND_NAME=Rugulosin
ION_MODE=positive
FORMULA=C30H22O10
68.997841 100.0 
77.040047 147.0 
91.055557 223.0 
95.012863 250.0 
107.051392 248.0 
135.043732 2818.306641 
173.060333 5196.390625 
201.054214 6120.796875 
215.068817 6831.457031 
217.050217 6192.03125 
229.049683 10355.171875 
255.065323 46023.0 
271.060272 76198.5 
272.06778 16087.617188 
273.076202 55959.8125 
289.070618 67585.25 
397.103516 2340.564453 
409.104553 3259.619141 
425.099426 7860.472656 
449.098175 6239.371094 
453.096069 13526.820312 
455.112885 8271.421875 
477.09787 8936.914062 
505.09137 15654.320312 
517.113403 9109.34375 
523.103149 46027.4375 
644.063232 24.0 
692.037231 18.0 
707.493408 26.0 
END IONS

BEGIN IONS
RTINSECONDS=182.104004
CHARGE=1+
MSLEVEL=2
SMILES=CC(=O)CCCCCCCCCCCCC[C@@H]1C(C(=O)O)C(=C)C(=O)O1
INCHI=InChI=1S/C21H34O5/c1-16(22)14-12-10-8-6-4-3-5-7-9-11-13-15-18-19(20(23)24)17(2)21(25)26-18/h18-19H,2-15H2,1H3,(H,23,24)/t18-,19?/m1/s1
INCHIKEY=SKQHRBRVCRUFSX-MRTLOADZSA-N
CLASS=Paraconic acids
ADDUCT=[M+NH4]+
INSTRUMENT=Waters Q-ToF Xevo G2-XS
PRECURSOR_MZ=384.275
COMPOUND_NAME=Muronic acid
ION_MODE=positive
FORMULA=C21H34O5
81.070747 294.200928 
91.056427 152.0 
93.071281 144.957275 
95.085938 311.0 
109.102386 183.0 
121.101631 166.928223 
145.102264 139.810059 
187.150665 98.0 
219.153 84.0 
237.148392 111.13562 
257.696228 89.0 
275.230896 181.0 
303.234619 647.979492 
331.232788 228.579712 
349.237366 282.299072 
367.196838 266.602295 
367.248291 9813.539062 
446.715302 22.0 
497.4198 24.0 
499.106262 20.0 
505.68512 29.0 
562.401978 21.0 
565.858215 30.0 
746.434692 23.0 
END IONS

BEGIN IONS
RTINSECONDS=173.462006
CHARGE=1+
MSLEVEL=2
SMILES=Oc1c(Cl)c(O)cc2c1c(=O)c1c(o2)cc(cc1C)O
INCHI=InChI=1S/C14H9ClO5/c1-5-2-6(16)3-8-10(5)13(18)11-9(20-8)4-7(17)12(15)14(11)19/h2-4,16-17,19H,1H3
INCHIKEY=VFXXISJCBGVCJF-UHFFFAOYSA-N
CLASS=Xanthones and bis-Xanthones
ADDUCT=[M+2Na-H]+
INSTRUMENT=Waters Q-ToF Xevo G2-XS
PRECURSOR_MZ=336.9856
COMPOUND_NAME=2-Chloronorlichexanthone
ION_MODE=positive
FORMULA=C14H9ClO5
70.72171 21.0 
71.501137 25.0 
71.901306 24.0 
98.963753 31.0 
100.958565 33.0 
121.732124 72.0 
122.04052 34.0 
131.049728 46.0 
158.075134 58.0 
199.033768 80.0 
208.185333 91.0 
249.034042 362.674561 
277.028137 1107.833984 
279.007294 455.679688 
293.021393 1679.545898 
405.616852 20.0 
413.028442 42.0 
416.285034 18.0 
462.683563 21.0 
473.432983 20.0 
540.170105 20.0 
566.163086 21.0 
667.447449 26.0 
699.239258 29.0 
716.452087 18.0 
END IONS

BEGIN IONS
RTINSECONDS=140.822006
CHARGE=1+
MSLEVEL=2
SMILES=O=c1c2c(O)cc(C)c3c2c(C(=C(O)C3=O)OC)co1
INCHI=InChI=1S/C14H10O6/c1-5-3-7(15)10-9-6(4-20-14(10)18)13(19-2)12(17)11(16)8(5)9/h3-4,15,17H,1-2H3
INCHIKEY=GJSCVPZGPZIBMU-UHFFFAOYSA-N
CLASS=Naphthopyranes
ADDUCT=[M+H+CH3OH]+
INSTRUMENT=Waters Q-ToF Xevo G2-XS
PRECURSOR_MZ=307.0818
COMPOUND_NAME=Simonyellin
ION_MODE=positive
FORMULA=C14H10O6
102.0467 841.390137 
103.055168 855.416992 
130.042282 1182.868164 
131.050354 1245.40918 
159.04512 3350.097656 
176.047791 3356.287109 
191.069611 2224.710938 
204.043915 3052.771484 
232.037674 5971.480469 
247.061417 42751.125 
260.033203 7642.070312 
275.056 7479.769531 
279.087585 24432.328125 
339.601807 75.0 
346.205353 50.0 
366.695618 44.0 
393.375366 31.0 
400.353699 33.0 
414.39743 73.0 
418.31955 33.0 
431.601379 52.0 
473.124207 41.0 
476.558838 35.0 
490.788605 48.0 
496.239136 30.0 
499.231293 26.0 
523.701416 41.0 
564.856873 75.0 
570.021362 28.0 
578.800537 20.0 
580.273071 21.0 
582.436829 29.0 
585.448547 19.0 
592.796631 28.0 
607.818726 21.0 
638.566101 21.0 
650.431335 63.0 
661.781433 23.0 
675.864868 25.0 
679.001831 22.0 
693.684998 30.0 
707.142395 30.0 
724.703613 18.0 
785.14856 20.0 
END IONS

BEGIN IONS
RTINSECONDS=198.173996
CHARGE=1+
MSLEVEL=2
SMILES=CCCCCc1c2c(cc(c1C(=O)O)O)oc1c2c(cc(c1)OC)CCC
INCHI=InChI=1S/C22H26O5/c1-4-6-7-9-15-20(22(24)25)16(23)12-18-21(15)19-13(8-5-2)10-14(26-3)11-17(19)27-18/h10-12,23H,4-9H2,1-3H3,(H,24,25)
INCHIKEY=IDZVZCQOFFSQMO-UHFFFAOYSA-N
CLASS=Dibenzofuranes
ADDUCT=[M+H]+
INSTRUMENT=Waters Q-ToF Xevo G2-XS
PRECURSOR_MZ=371.1858
COMPOUND_NAME=Didymic acid
ION_MODE=positive
FORMULA=C22H26O5
50.334641 86.0 
69.072174 112.004211 
71.087341 269.962646 
211.07518 26768.34375 
226.058548 65249.65625 
255.101303 81963.9375 
282.094421 60901.5 
283.098694 251056.25 
301.108337 147717.375 
310.121857 58148.625 
353.175629 637622.5 
453.152985 24.0 
462.737854 28.0 
465.605743 25.0 
509.160309 49.0 
523.513611 25.0 
533.669495 26.0 
536.216431 35.0 
539.047668 92.0 
568.269226 50.0 
597.300171 22.0 
644.556152 38.0 
645.23114 33.0 
672.657532 35.0 
703.329956 51.0 
721.337158 1355.77832 
722.339294 459.0 
723.323853 137.266235 
761.334412 891.860352 
762.33844 497.09082 
765.319885 429.0 
794.273315 85.91156 
794.304382 98.964478 
END IONS

BEGIN IONS
RTINSECONDS=166.014008
CHARGE=1+
MSLEVEL=2
SMILES=O=C1C(=C(O)/C(=C(/c2ccccc2)\C(=O)OC)/O1)c1ccccc1
INCHI=InChI=1S/C19H14O5/c1-23-18(21)15(13-10-6-3-7-11-13)17-16(20)14(19(22)24-17)12-8-4-2-5-9-12/h2-11,20H,1H3/b17-15+
INCHIKEY=OMZRMXULWNMRAE-BMRADRMJSA-N
CLASS=Pulvinic Acid Derivatives
ADDUCT=[M+H]+
INSTRUMENT=Waters Q-ToF Xevo G2-XS
PRECURSOR_MZ=323.0919
COMPOUND_NAME=Vulpinic acid
ION_MODE=positive
FORMULA=C19H14O5
68.999901 52.0 
84.031578 64.0 
89.03978 387.0 
117.034027 131.0 
121.065826 125.0 
145.03035 441.071777 
177.059235 161.348022 
178.07988 1362.441406 
179.086105 487.416748 
205.050018 838.624023 
207.080093 1379.608398 
235.074966 874.350586 
263.070221 1105.993164 
279.1008 229.796143 
291.06546 505.540039 
295.092621 97.0 
348.338593 42.0 
375.837372 20.0 
412.294189 19.0 
415.730286 33.0 
529.958069 27.0 
677.407471 18.0 
END IONS

BEGIN IONS
RTINSECONDS=209.216003
CHARGE=1+
MSLEVEL=2
SMILES=O=C1C(=C(O)/C(=C(/c2ccccc2)\C(=O)N[C@@H](Cc2ccccc2)C(=O)OC)/O1)c1ccccc1
INCHI=InChI=1S/C28H23NO6/c1-34-27(32)21(17-18-11-5-2-6-12-18)29-26(31)23(20-15-9-4-10-16-20)25-24(30)22(28(33)35-25)19-13-7-3-8-14-19/h2-16,21,30H,17H2,1H3,(H,29,31)/b25-23+/t21-/m0/s1
INCHIKEY=DKDGWAKCXBFTMM-KZKMBZSSSA-N
CLASS=Pulvinic Acid Derivatives
ADDUCT=[M+H]+
INSTRUMENT=Waters Q-ToF Xevo G2-XS
PRECURSOR_MZ=470.1604
COMPOUND_NAME=Rhizocarpic acid
ION_MODE=positive
FORMULA=C28H23NO6
103.054932 31343.921875 
120.081436 522155.25 
120.192116 16652.0 
121.064949 23745.296875 
163.075348 34505.0 
178.077515 61935.28125 
179.085938 100601.3125 
180.102234 594615.0 
207.080902 747725.0 
235.07547 367874.5 
263.070709 598036.0 
263.234558 17173.0 
291.064972 151633.375 
351.77713 89.0 
364.129303 154.049194 
392.123169 245.907959 
410.138306 1527.609375 
543.200073 62.0 
574.457153 62.0 
580.668579 53.062469 
595.094299 37.0 
598.519409 110.0 
614.33551 41.0 
647.545288 30.0 
728.502014 115.0 
END IONS

BEGIN IONS
RTINSECONDS=168.029007
CHARGE=1+
MSLEVEL=2
SMILES=O=C(OC)/C(=C\1/OC(=O)C(=C1OC)c1ccccc1)/c1c(OC)cccc1
INCHI=InChI=1S/C21H18O6/c1-24-15-12-8-7-11-14(15)17(20(22)26-3)19-18(25-2)16(21(23)27-19)13-9-5-4-6-10-13/h4-12H,1-3H3/b19-17+
INCHIKEY=WGZKMINRLLRJPF-HTXNQAPBSA-N
CLASS=Pulvinic Acid Derivatives
ADDUCT=[M+Na]+
INSTRUMENT=Waters Q-ToF Xevo G2-XS
PRECURSOR_MZ=389.1001
COMPOUND_NAME=Leprapinic acid methyl ether
ION_MODE=positive
FORMULA=C21H18O6
59.301437 20.0 
91.056686 56.0 
93.876518 102.0 
115.054855 97.0 
118.040512 60.0 
131.047592 69.0 
161.060181 158.0 
189.052078 168.744507 
207.078751 181.977173 
243.75502 127.0 
251.105774 953.744141 
252.110214 155.0 
279.099854 466.997559 
307.09256 294.0 
335.091125 505.0 
336.094543 136.0 
443.107056 364.717529 
470.607574 57.0 
501.42923 20.0 
534.28009 35.0 
578.587646 37.0 
END IONS

BEGIN IONS
RTINSECONDS=143.003998
CHARGE=1+
MSLEVEL=2
SMILES=O=c1c2c(oc3c1c(C)cc(O)c3Cl)cc(O)c(Cl)c2O
INCHI=InChI=1S/C14H8Cl2O5/c1-4-2-5(17)11(16)14-8(4)12(19)9-7(21-14)3-6(18)10(15)13(9)20/h2-3,17-18,20H,1H3
INCHIKEY=GKSZPGKBFDLXNF-UHFFFAOYSA-N
CLASS=Xanthones and bis-Xanthones
ADDUCT=[M+2Na-H]+
INSTRUMENT=Waters Q-ToF Xevo G2-XS
PRECURSOR_MZ=370.9466
COMPOUND_NAME="2,5-Dichloronorlichexanthone"
ION_MODE=positive
FORMULA=C14H8Cl2O5
53.616741 33.0 
61.318913 25.0 
71.083923 20.0 
77.005302 22.0 
84.959831 23.0 
101.06144 25.0 
129.056305 68.0 
147.067108 58.0 
162.995636 115.366272 
205.004257 138.0 
218.984802 634.094238 
225.957291 229.0 
246.978928 338.0 
253.954193 2640.306641 
254.960815 394.0 
281.948181 1341.219727 
296.969452 370.32666 
309.943115 232.869629 
337.939789 1313.859375 
338.947449 2889.410156 
352.962738 14707.445312 
353.035095 218.0 
423.350189 25.0 
440.801819 56.0 
449.447479 29.0 
467.702057 24.0 
486.195984 21.0 
488.056 33.0 
583.338562 18.0 
691.29187 24.0 
701.289917 18.0 
723.169922 28.0 
728.252625 19.0 
744.655518 39.0 
778.660583 18.0 
779.314514 25.0 
END IONS

BEGIN IONS
RTINSECONDS=173.354004
CHARGE=1+
MSLEVEL=2
SMILES=COc1cc2c(c(=O)oc(CCCCC)c2)c(OC)c1
INCHI=InChI=1S/C16H20O4/c1-4-5-6-7-12-8-11-9-13(18-2)10-14(19-3)15(11)16(17)20-12/h8-10H,4-7H2,1-3H3
INCHIKEY=NKYAIPHVDQBFLF-UHFFFAOYSA-N
CLASS=Cleavage Products of Depsides and Depsidones
ADDUCT=[M+H]+
INSTRUMENT=Waters Q-ToF Xevo G2-XS
PRECURSOR_MZ=277.144
COMPOUND_NAME="2,4-Di-O-methylolivetonide"
ION_MODE=positive
FORMULA=C16H20O4
77.039963 33214.625 
91.05545 79321.0625 
115.055176 151595.5 
135.047058 134038.5 
149.060806 178354.25 
164.048203 615544.0 
175.075455 149544.875 
177.059296 231984.125 
189.084229 146147.5 
206.05806 187383.375 
259.133392 152118.625 
350.226562 100.0 
379.728668 70.0 
396.115692 68.122253 
402.155548 64.901489 
423.796509 61.036438 
425.720215 109.0 
430.703461 60.0 
495.040863 71.942993 
499.085358 66.0 
506.278931 46.0 
522.89801 49.0 
575.292908 44.0 
575.380188 51.0 
579.05365 71.0 
582.164612 48.80957 
593.085022 45.0 
618.65564 54.0 
653.354065 51.0 
683.583252 37.0 
693.040222 38.0 
747.34314 42.0 
END IONS

BEGIN IONS
RTINSECONDS=130.244003
CHARGE=1+
MSLEVEL=2
SMILES=O=C1c2c(C)cc(OC)c(C=O)c2Oc2c(O1)c(c(c1c2C(O)OC1=O)O)C
INCHI=InChI=1S/C19H14O9/c1-6-4-9(25-3)8(5-20)15-10(6)17(22)27-14-7(2)13(21)11-12(16(14)26-15)19(24)28-18(11)23/h4-5,19,21,24H,1-3H3
INCHIKEY=SKCUFZLDTAYNBZ-UHFFFAOYSA-N
CLASS=Depsidones
ADDUCT=[M+Na]+
INSTRUMENT=Waters Q-ToF Xevo G2-XS
PRECURSOR_MZ=409.0536
COMPOUND_NAME=Stictic acid
ION_MODE=positive
FORMULA=C19H14O9
67.073357 20.0 
67.813766 20.0 
120.973679 73.0 
129.06662 61.0 
151.006165 43.0 
173.096054 73.0 
187.990356 66.0 
209.053513 64.0 
215.032333 411.0 
238.128708 131.0 
256.391602 79.0 
271.866943 71.0 
286.756744 82.0 
309.042267 101.420044 
321.074402 856.775879 
337.069122 2584.390625 
347.053223 1244.519531 
363.048676 1884.44043 
365.061432 2269.53125 
391.039978 1590.841797 
506.823578 24.0 
508.784821 34.0 
516.891296 37.0 
528.889526 27.0 
532.782104 33.0 
565.213745 19.0 
581.345093 18.0 
597.947449 31.0 
605.190186 33.0 
759.806396 51.0 
763.042358 20.0 
779.7948 47.0 
788.039673 21.0 
795.234436 18.0 
END IONS

BEGIN IONS
RTINSECONDS=221.492004
CHARGE=1+
MSLEVEL=2
SMILES=CCCCCCCCCCCCC[C@@H]1[C@@H](C(=O)O)[C@H](C)C(=O)O1
INCHI=InChI=1S/C19H34O4/c1-3-4-5-6-7-8-9-10-11-12-13-14-16-17(18(20)21)15(2)19(22)23-16/h15-17H,3-14H2,1-2H3,(H,20,21)/t15-,16+,17-/m0/s1
INCHIKEY=WLGALFYTFVOQPY-BBWFWOEESA-N
CLASS=Paraconic acids
ADDUCT=[M+H]+
INSTRUMENT=Waters Q-ToF Xevo G2-XS
PRECURSOR_MZ=327.2535
COMPOUND_NAME=Roccellaric acid
ION_MODE=positive
FORMULA=C19H34O4
81.070717 1999.307617 
95.082726 2452.15625 
105.070198 1313.407227 
119.085678 1283.441406 
133.101822 1971.401367 
147.117325 1563.823242 
161.132584 937.118652 
179.110428 1235.666016 
193.124817 873.51709 
217.195175 1766.21582 
245.227249 5794.957031 
263.236206 7252.769531 
273.222626 1825.100586 
281.247955 2380.621094 
291.233429 22546.140625 
309.243011 55235.375 
378.315338 57.0 
381.322968 48.0 
392.239349 57.0 
403.722443 46.0 
406.131439 46.0 
424.809021 47.0 
427.428314 82.0 
459.733704 36.0 
472.191162 40.0 
499.753784 30.0 
500.925323 31.0 
510.168579 51.0 
518.974792 40.0 
547.526306 37.0 
571.953369 52.0 
580.047424 49.0 
590.024414 67.0 
601.801941 35.0 
669.592896 40.0 
670.774597 39.0 
672.558044 45.0 
677.81781 25.0 
680.073547 35.0 
692.589783 33.0 
736.163452 28.0 
748.268494 55.0 
749.104248 24.0 
752.417419 34.0 
758.044983 30.0 
767.367004 28.0 
784.488464 25.0 
END IONS

BEGIN IONS
RTINSECONDS=138.949005
CHARGE=1+
MSLEVEL=2
SMILES=Cc1cc(=O)c2c(c(c(cc2o1)OC)COC(=O)/C=C(\C)/CC(=O)O)O
INCHI=InChI=1S/C18H18O8/c1-9(4-15(20)21)5-16(22)25-8-11-13(24-3)7-14-17(18(11)23)12(19)6-10(2)26-14/h5-7,23H,4,8H2,1-3H3,(H,20,21)/b9-5+
INCHIKEY=JSLBEJMNMZJONS-WEVVVXLNSA-N
CLASS=Chromanes and Chromones
ADDUCT=[2M+Na]+
INSTRUMENT=Waters Q-ToF Xevo G2-XS
PRECURSOR_MZ=747.1901
COMPOUND_NAME=Lepraric acid
ION_MODE=positive
FORMULA=C18H18O8
58.948574 37.0 
86.551476 52.0 
88.018723 69.0 
127.093132 125.0 
144.701248 97.0 
145.328171 105.0 
157.129303 79.0 
189.055832 304.797119 
219.065796 14336.109375 
240.975662 1906.492188 
241.04805 395919.5 
241.119232 2537.742188 
241.205017 9362.398438 
241.328384 1925.0 
308.849335 123.0 
330.031586 77.0 
339.260803 162.0 
384.988647 404.228027 
385.029694 806.591309 
385.090027 113273.125 
385.135956 196.05835 
385.176422 1047.121094 
443.780518 90.0 
459.103302 1608.258789 
459.198334 180.0 
459.639984 127.0 
464.834167 61.0 
515.932739 77.0 
546.086304 85.0 
547.395752 70.0 
560.8396 113.0 
561.631531 98.0 
603.05249 181.715332 
603.102234 623.961426 
603.148071 17977.1875 
603.232422 272.71167 
614.536072 70.0 
661.397949 49.0 
665.199219 60.0 
688.308411 135.105103 
END IONS

BEGIN IONS
RTINSECONDS=252.115997
CHARGE=1+
MSLEVEL=2
SMILES=CC(C)(C)CCCCCCCCCC1C(C(=O)O)C(C(=O)O1)C
INCHI=InChI=1S/C19H34O4/c1-14-16(17(20)21)15(23-18(14)22)12-10-8-6-5-7-9-11-13-19(2,3)4/h14-16H,5-13H2,1-4H3,(H,20,21)
INCHIKEY=NRFWTRPHJATQOB-UHFFFAOYSA-N
CLASS=Paraconic acids
ADDUCT=[2M+H+CH3OH]+
INSTRUMENT=Waters Q-ToF Xevo G2-XS
PRECURSOR_MZ=685.5255
COMPOUND_NAME=Neodihydroprotolichesterinic acid
ION_MODE=positive
FORMULA=C19H34O4
50.157207 53.0 
73.045998 97.394653 
73.083473 39.0 
80.388702 57.0 
101.243866 27.0 
149.047028 57.0 
161.951263 25.0 
175.043549 53.0 
179.078888 43.0 
207.034088 495.179688 
223.064011 485.227051 
225.040741 123.0 
267.001495 345.900391 
281.049988 701.71875 
285.008942 232.669678 
297.087463 242.929077 
299.06192 297.0 
341.015076 220.0 
355.070709 1793.711914 
355.147064 109.652771 
371.071228 167.021484 
371.101746 2035.607422 
373.086914 128.0 
429.086975 245.094849 
445.110474 48.0 
476.123077 25.0 
481.026489 23.0 
486.403687 40.0 
497.195923 27.0 
499.963959 25.0 
501.847443 24.0 
516.197083 23.0 
550.042847 21.0 
556.150146 37.0 
568.532654 19.0 
575.896667 21.0 
590.265015 25.0 
622.703308 28.0 
624.383484 34.0 
772.114441 40.0 
END IONS

BEGIN IONS
RTINSECONDS=204.854996
CHARGE=1+
MSLEVEL=2
SMILES=O=c1c2c(c(Cl)c(cc2C)OC)oc2c1c(O)c(c(OC)c2)Cl
INCHI=InChI=1S/C16H12Cl2O5/c1-6-4-8(21-2)13(18)16-10(6)14(19)11-7(23-16)5-9(22-3)12(17)15(11)20/h4-5,20H,1-3H3
INCHIKEY=IXVOEBPULFILGH-UHFFFAOYSA-N
CLASS=Xanthones and bis-Xanthones
ADDUCT=[M+H]+
INSTRUMENT=Waters Q-ToF Xevo G2-XS
PRECURSOR_MZ=355.014
COMPOUND_NAME="2,5-Dichlorolichexanthone"
ION_MODE=positive
FORMULA=C16H12Cl2O5
57.457241 49.0 
60.108204 64.0 
69.035034 71.0 
114.047729 91.0 
115.057755 120.0 
139.05632 125.0 
164.87236 250.0 
266.997314 8575.101562 
277.025848 8309.382812 
296.972351 11819.1875 
310.98877 73295.625 
311.994812 75825.9375 
320.043701 8545.296875 
408.037292 47.0 
409.786194 129.0 
419.844391 66.0 
459.419128 83.0 
477.238922 60.0 
481.737762 46.0 
490.719971 41.0 
493.252289 42.0 
530.90387 46.0 
543.509644 28.0 
571.57782 43.0 
571.807007 37.0 
588.592285 30.0 
606.784668 30.0 
611.176086 33.0 
627.435364 36.0 
627.695251 31.0 
653.106384 33.0 
657.47876 47.0 
685.595947 41.0 
688.455811 42.0 
698.489929 59.0 
707.812073 52.0 
720.155029 40.0 
724.038025 43.0 
766.191223 30.0 
771.892212 62.0 
780.355835 25.0 
781.518005 77.0 
785.614197 30.0 
787.460144 27.0 
END IONS

BEGIN IONS
RTINSECONDS=154.916
CHARGE=1+
MSLEVEL=2
SMILES=Oc1cc(C(=O)O)cc2c1C(=O)c1c(cc(cc1O)OC)C2=O
INCHI=InChI=1S/C16H10O7/c1-23-7-4-9-13(11(18)5-7)15(20)12-8(14(9)19)2-6(16(21)22)3-10(12)17/h2-5,17-18H,1H3,(H,21,22)
INCHIKEY=HEULMVKOOVHXME-UHFFFAOYSA-N
CLASS=Quinones
ADDUCT=[M+H]+
INSTRUMENT=Waters Q-ToF Xevo G2-XS
PRECURSOR_MZ=315.0505
COMPOUND_NAME=Parietinic acid
ION_MODE=positive
FORMULA=C16H10O7
77.040001 4449.347656 
115.055473 3987.316406 
142.042572 6330.652344 
155.050201 5682.957031 
170.037399 16456.171875 
185.060257 9971.734375 
198.032745 18075.953125 
213.055725 27605.28125 
241.050751 28407.953125 
269.045471 23369.046875 
271.061737 48131.96875 
272.034241 20751.765625 
297.041138 21986.625 
416.656342 28.0 
431.451324 44.0 
END IONS

BEGIN IONS
RTINSECONDS=154.149994
CHARGE=1+
MSLEVEL=2
SMILES=Cc1c(C(=O)OC)c(OC)cc2c1c1c(cc(c(C(=O)O)c1o2)C)OC
INCHI=InChI=1S/C19H18O7/c1-8-6-10(23-3)16-14-9(2)15(19(22)25-5)11(24-4)7-12(14)26-17(16)13(8)18(20)21/h6-7H,1-5H3,(H,20,21)
INCHIKEY=WBIQYHZEYQDKCL-UHFFFAOYSA-N
CLASS=Dibenzofuranes
ADDUCT=[M+H]+
INSTRUMENT=Waters Q-ToF Xevo G2-XS
PRECURSOR_MZ=359.1131
COMPOUND_NAME=Schizopeltic acid
ION_MODE=positive
FORMULA=C19H18O7
197.062057 63295.40625 
198.069229 37726.09375 
211.076416 46995.4375 
254.061554 111048.3125 
266.059174 134944.5 
283.062744 355964.0 
298.085388 347992.0 
313.107147 181024.375 
327.087891 351817.0 
341.10379 1039599.0 
419.717499 52.0 
446.177826 37.0 
463.09079 34.0 
464.511353 36.0 
476.328918 43.0 
482.967377 30.0 
517.53241 40.0 
531.781494 36.0 
548.731079 33.0 
553.390808 47.0 
596.137146 66.0 
600.131958 35.0 
682.621155 32.0 
700.604065 135.0 
725.539307 105.389282 
734.789917 40.0 
792.985657 41.0 
799.81665 28.0 
END IONS

BEGIN IONS
RTINSECONDS=229.074997
CHARGE=1+
MSLEVEL=2
SMILES=CCCCCCCCCCCCCC1C(C(=C)C(=O)O1)C(=O)O
INCHI=InChI=1S/C19H32O4/c1-3-4-5-6-7-8-9-10-11-12-13-14-16-17(18(20)21)15(2)19(22)23-16/h16-17H,2-14H2,1H3,(H,20,21)
INCHIKEY=WZYZDHVPSZCEEP-UHFFFAOYSA-N
CLASS=Paraconic acids
ADDUCT=[M+H]+
INSTRUMENT=Waters Q-ToF Xevo G2-XS
PRECURSOR_MZ=325.2379
COMPOUND_NAME=Protolichesterinic acid
ION_MODE=positive
FORMULA=C19H32O4
77.039711 3021.802734 
79.055237 2772.773438 
91.055145 4968.449219 
93.070839 4693.375 
107.086128 4629.890625 
121.073235 2934.003906 
141.055878 3389.822266 
163.075653 2341.050781 
167.073608 2528.503906 
177.097626 2100.515625 
185.19046 3131.09375 
233.225006 2701.753906 
243.21051 1939.283203 
261.222473 4177.136719 
279.232178 4746.277344 
289.216278 18634.734375 
307.226776 41340.71875 
390.925323 36.0 
419.139954 31.0 
419.729126 28.0 
441.171265 32.0 
454.957855 29.0 
491.281647 59.0 
519.338867 43.0 
520.247864 25.0 
524.231812 47.0 
551.716492 43.0 
558.582642 30.0 
603.208496 28.0 
607.264526 42.0 
611.713989 34.0 
615.282959 29.0 
640.174622 33.0 
659.282776 55.0 
665.268616 27.0 
674.902344 29.0 
680.483337 51.0 
686.265869 33.0 
688.202515 54.0 
733.759155 21.0 
738.098877 60.0 
740.368286 21.0 
751.495361 20.0 
753.6203 26.0 
772.142517 22.0 
791.399841 18.0 
797.636841 27.0 
END IONS

BEGIN IONS
RTINSECONDS=196.039993
CHARGE=1+
MSLEVEL=2
SMILES=CC(C[C@H](NC(=O)/C(=C\1/C(=C(c2ccccc2)C(=O)O1)O)/c1ccccc1)C(=O)O)C
INCHI=InChI=1S/C24H23NO6/c1-14(2)13-17(23(28)29)25-22(27)19(16-11-7-4-8-12-16)21-20(26)18(24(30)31-21)15-9-5-3-6-10-15/h3-12,14,17,26H,13H2,1-2H3,(H,25,27)(H,28,29)/b21-19-/t17-/m0/s1
INCHIKEY=ZQLBONJLBKDOLE-UFVMTTLYSA-N
CLASS=Pulvinic Acid Derivatives
ADDUCT=[M+Na]+
INSTRUMENT=Waters Q-ToF Xevo G2-XS
PRECURSOR_MZ=444.1423
COMPOUND_NAME=Norepanorin
ION_MODE=positive
FORMULA=C24H23NO6
77.959755 23.0 
82.190826 21.0 
82.947914 32.0 
86.098854 32.0 
86.704399 22.0 
139.009293 49.0 
154.083649 4201.847656 
155.083176 72.0 
167.120865 57.0 
192.094681 65.0 
234.009689 94.0 
252.021591 100.0 
286.065521 118.0 
287.069244 8301.070312 
313.042358 306.467529 
331.057587 3517.380859 
331.147766 171.0 
343.332001 167.0 
372.154327 167.65625 
462.15451 610.794434 
495.264679 145.0 
527.387878 51.0 
551.264343 20.0 
561.51001 34.0 
574.318848 23.0 
583.26532 22.0 
587.635742 19.0 
589.303955 19.0 
602.140808 25.0 
641.328125 28.0 
663.713257 22.0 
681.864136 21.0 
706.294495 19.0 
710.815308 20.0 
712.281433 24.0 
733.226807 28.0 
760.499573 21.0 
END IONS

BEGIN IONS
RTINSECONDS=98.262001
CHARGE=1+
MSLEVEL=2
SMILES=CC(=O)c1c(O)cc(O)cc1O
INCHI=InChI=1S/C8H8O4/c1-4(9)8-6(11)2-5(10)3-7(8)12/h2-3,10-12H,1H3
INCHIKEY=XLEYFDVVXLMULC-UHFFFAOYSA-N
CLASS=Cleavage Products of Depsides and Depsidones
ADDUCT=[M+H]+
INSTRUMENT=Waters Q-ToF Xevo G2-XS
PRECURSOR_MZ=169.0501
COMPOUND_NAME="2,4,6-Trihydroxyacetophenone"
ION_MODE=positive
FORMULA=C8H8O4
65.039612 4480.347656 
67.03009 12782.34375 
68.99839 34264.65625 
77.039848 10794.460938 
95.050087 41064.71875 
123.044746 248884.5 
127.039024 30973.296875 
151.039337 171271.0 
238.942764 152.0 
272.361511 44.0 
294.461517 47.0 
313.209961 51.0 
328.565735 63.0 
339.285217 71.0 
339.71579 51.0 
346.519165 54.0 
353.404266 57.0 
376.607086 83.0 
406.396057 93.0 
416.640137 54.0 
421.047058 29.0 
431.170868 39.0 
444.208099 38.0 
533.496765 26.0 
567.571411 38.0 
652.381409 64.0 
680.659973 42.0 
705.399841 27.0 
END IONS

BEGIN IONS
RTINSECONDS=167.067993
CHARGE=1+
MSLEVEL=2
SMILES=O=C1C(=C(O)/C(=C(/c2ccccc2)\C(=O)OC)/O1)c1ccccc1
INCHI=InChI=1S/C19H14O5/c1-23-18(21)15(13-10-6-3-7-11-13)17-16(20)14(19(22)24-17)12-8-4-2-5-9-12/h2-11,20H,1H3/b17-15+
INCHIKEY=OMZRMXULWNMRAE-BMRADRMJSA-N
CLASS=Pulvinic Acid Derivatives
ADDUCT=[M+H+CH3OH]+
INSTRUMENT=Waters Q-ToF Xevo G2-XS
PRECURSOR_MZ=355.1182
COMPOUND_NAME=Vulpinic acid
ION_MODE=positive
FORMULA=C19H14O5
65.039665 37.0 
74.177368 43.0 
89.039146 130.0 
117.034088 128.0 
121.068329 170.453613 
145.027664 792.976562 
177.054581 243.0 
191.088074 144.0 
205.048737 814.486328 
207.08165 2344.402344 
208.08287 142.0 
235.075012 549.927246 
263.044312 49.544739 
263.07132 1710.382812 
279.106323 145.171143 
291.065094 264.0 
313.902679 59.0 
323.087799 1738.295898 
323.118103 154.089722 
375.90213 30.0 
432.774139 19.0 
580.100708 23.0 
585.599304 33.0 
588.941101 24.0 
686.337708 24.0 
END IONS

BEGIN IONS
RTINSECONDS=174.487
CHARGE=1+
MSLEVEL=2
SMILES=O=c1oc(CCCCC)cc2c1c(cc(c2)O)O
INCHI=InChI=1S/C14H16O4/c1-2-3-4-5-11-7-9-6-10(15)8-12(16)13(9)14(17)18-11/h6-8,15-16H,2-5H2,1H3
INCHIKEY=FIMFRMRZGBUYMV-UHFFFAOYSA-N
CLASS=Cleavage Products of Depsides and Depsidones
ADDUCT=[M+H]+
INSTRUMENT=Waters Q-ToF Xevo G2-XS
PRECURSOR_MZ=249.1127
COMPOUND_NAME=Olivetonide
ION_MODE=positive
FORMULA=C14H16O4
68.998177 1410.302734 
77.039757 1594.079102 
79.054703 880.927246 
91.054886 3344.761719 
115.054138 2015.966797 
119.048943 2302.707031 
147.043884 4746.710938 
161.060379 2282.996094 
175.040207 5811.804688 
176.045944 2026.0 
189.055664 1752.0 
231.103683 3795.246094 
323.787598 34.0 
325.823212 55.0 
355.373962 35.0 
373.766785 24.0 
379.281586 20.0 
379.385223 20.0 
391.118652 23.0 
392.094727 24.0 
415.154175 24.0 
437.690948 28.0 
441.083252 69.0 
450.791077 30.0 
452.643341 27.0 
457.904694 30.0 
495.847168 34.0 
506.245819 32.0 
521.461609 32.0 
528.984436 35.0 
559.217285 29.0 
562.904114 40.0 
563.96167 67.0 
574.916443 27.0 
617.948792 20.0 
642.939514 31.0 
653.532043 35.0 
654.321838 35.0 
657.10083 28.0 
658.552429 29.0 
687.482605 23.0 
703.41095 26.0 
712.780945 26.0 
716.624207 18.0 
722.397644 22.0 
734.844788 29.0 
744.522827 29.0 
759.825928 30.0 
769.001221 22.0 
787.891235 19.0 
END IONS

BEGIN IONS
RTINSECONDS=177.447998
CHARGE=1+
MSLEVEL=2
SMILES=Cc1cc(OC)cc2c1c(=O)c1c(cc(O)c(Cl)c1O)o2
INCHI=InChI=1S/C15H11ClO5/c1-6-3-7(20-2)4-9-11(6)14(18)12-10(21-9)5-8(17)13(16)15(12)19/h3-5,17,19H,1-2H3
INCHIKEY=VZYXHXRKFKLWJI-UHFFFAOYSA-N
CLASS=Xanthones and bis-Xanthones
ADDUCT=[M+H]+
INSTRUMENT=Waters Q-ToF Xevo G2-XS
PRECURSOR_MZ=307.0373
COMPOUND_NAME=2-Chloro-6-O-methylnorlichexanthone
ION_MODE=positive
FORMULA=C15H11ClO5
77.039841 1266.09082 
91.054321 1568.838867 
115.052361 3251.167969 
155.04982 15714.15625 
189.011322 46155.59375 
218.013611 109941.3125 
233.037735 199373.0 
263.011871 809998.0 
264.020111 445350.75 
366.244568 43.0 
368.739441 87.0 
370.848267 42.172119 
400.85202 59.0 
418.825897 38.0 
440.669922 29.0 
470.288879 26.0 
523.740967 30.0 
538.716553 20.0 
554.049744 26.0 
594.199036 20.0 
627.860596 30.0 
658.303833 21.0 
659.241882 25.0 
692.784119 23.0 
727.115234 21.0 
END IONS

BEGIN IONS
RTINSECONDS=201.149002
CHARGE=1+
MSLEVEL=2
SMILES=CC12C(=O)C(=C(C=C1Oc1c2c(O)c(C)c(O)c1C(=O)C)O)C(=O)C
INCHI=InChI=1S/C18H16O7/c1-6-14(22)12(8(3)20)16-13(15(6)23)18(4)10(25-16)5-9(21)11(7(2)19)17(18)24/h5,21-23H,1-4H3
INCHIKEY=WEYVVCKOOFYHRW-UHFFFAOYSA-N
CLASS=Dibenzofuranes
ADDUCT=[M+H]+
INSTRUMENT=Waters Q-ToF Xevo G2-XS
PRECURSOR_MZ=345.0974
COMPOUND_NAME=Usnic acid
ION_MODE=positive
FORMULA=C18H16O7
91.054672 2845.744141 
115.054344 2583.185547 
131.075592 2983.330078 
145.064133 4383.109375 
159.071869 5199.496094 
187.071442 11231.554688 
191.069061 9022.304688 
215.070297 59023.375 
219.065079 20775.078125 
233.080887 96062.3125 
243.065384 21384.328125 
261.076263 65658.9375 
303.086456 89717.3125 
315.049744 36011.8125 
327.087219 238330.25 
401.431824 21.0 
405.171448 31.0 
414.848785 30.0 
483.639801 21.0 
506.762726 41.0 
595.2724 24.0 
710.604248 23.0 
713.164246 22.0 
END IONS

BEGIN IONS
RTINSECONDS=166.031998
CHARGE=1+
MSLEVEL=2
SMILES=O=C1OC2=C(c3ccccc3)C(=O)OC2=C1c1ccccc1
INCHI=InChI=1S/C18H10O4/c19-17-13(11-7-3-1-4-8-11)15-16(22-17)14(18(20)21-15)12-9-5-2-6-10-12/h1-10H
INCHIKEY=KQTXUHHOWJUFOZ-UHFFFAOYSA-N
CLASS=Pulvinic Acid Derivatives
ADDUCT=[M+H+CH3OH]+
INSTRUMENT=Waters Q-ToF Xevo G2-XS
PRECURSOR_MZ=323.0919
COMPOUND_NAME=Pulvinic acid dilactone
ION_MODE=positive
FORMULA=C18H10O4
89.039566 1441.084961 
117.033264 350.0 
118.041954 165.0 
121.065407 228.505981 
145.028732 1054.239258 
178.078766 3168.939453 
179.085464 836.996094 
205.049515 5958.398438 
207.081573 4871.554688 
235.074768 1199.513672 
263.071411 3861.236328 
279.103699 883.494141 
291.066711 2376.380859 
380.148254 21.0 
384.896423 33.0 
429.246613 24.0 
431.823883 21.0 
438.771484 22.0 
462.368469 21.0 
466.392761 30.0 
476.802063 31.0 
481.729187 24.0 
486.666809 25.0 
525.0177 28.0 
536.714722 20.0 
702.873718 71.0 
END IONS

BEGIN IONS
RTINSECONDS=196.884003
CHARGE=1+
MSLEVEL=2
SMILES=Cc1cc(c(c(c1OC(=O)c1c(c(c(cc1C)OC)C(=O)O)O)O)C=O)O
INCHI=InChI=1S/C18H16O9/c1-7-5-11(26-3)13(17(23)24)15(22)12(7)18(25)27-16-8(2)4-10(20)9(6-19)14(16)21/h4-6,20-22H,1-3H3,(H,23,24)
INCHIKEY=JQHGZAGUFPJYDL-UHFFFAOYSA-N
CLASS=Depsides (Didepsides)
ADDUCT=[M+Na]+
INSTRUMENT=Waters Q-ToF Xevo G2-XS
PRECURSOR_MZ=399.0692
COMPOUND_NAME=Decarboxythamnolic acid
ION_MODE=positive
FORMULA=C18H16O9
55.055576 21.0 
83.085007 51.0 
98.985184 92.0 
101.098434 211.0 
143.013855 131.0 
145.123474 42.0 
152.643921 32.0 
191.029755 33.0 
199.07402 418.0 
199.095581 45.0 
209.838959 29.0 
228.803818 47.0 
243.102005 77.0 
259.874268 40.0 
272.891266 48.0 
299.165375 878.486816 
299.198425 33.0 
330.942841 32.0 
341.175934 37.0 
344.867462 35.0 
552.666321 30.0 
575.013733 56.0 
END IONS

BEGIN IONS
RTINSECONDS=136.095993
CHARGE=1+
MSLEVEL=2
SMILES=O=C1c2c(C)cc(O)c(C)c2Oc2c(O1)cc(c(c2C)C(=O)O)O
INCHI=InChI=1S/C17H14O7/c1-6-4-9(18)7(2)15-12(6)17(22)23-11-5-10(19)13(16(20)21)8(3)14(11)24-15/h4-5,18-19H,1-3H3,(H,20,21)
INCHIKEY=HETZRHDDRHBPKX-UHFFFAOYSA-N
CLASS=Depsidones
ADDUCT=[M+H]+
INSTRUMENT=Waters Q-ToF Xevo G2-XS
PRECURSOR_MZ=331.0818
COMPOUND_NAME=Nornotatic acid
ION_MODE=positive
FORMULA=C17H14O7
106.093361 132.0 
115.054924 95.0 
128.061508 109.920105 
131.087448 122.0 
144.056808 220.053223 
159.083023 245.0 
187.075455 282.36377 
215.070251 246.0 
217.085876 751.172852 
243.065613 266.402588 
245.081696 351.857666 
271.032135 140.67334 
271.060425 4422.429688 
287.091461 202.836304 
313.070374 725.212402 
389.313293 36.0 
412.706665 24.0 
414.770416 35.0 
424.945557 27.0 
448.557526 25.0 
456.602905 24.0 
482.717957 29.0 
497.98172 20.0 
529.639099 24.0 
538.657898 28.0 
545.278381 31.0 
545.360779 20.0 
612.994812 18.0 
644.040039 33.0 
710.502197 20.0 
761.771667 22.0 
END IONS

BEGIN IONS
RTINSECONDS=117.713997
CHARGE=1+
MSLEVEL=2
SMILES=CC(=O)c1c(c2c(o1)cc1c(c2O)C(=O)C(=O)C(=C1O)OC)O
INCHI=InChI=1S/C15H10O8/c1-4(16)14-12(20)8-6(23-14)3-5-7(10(8)18)11(19)13(21)15(22-2)9(5)17/h3,17-18,20H,1-2H3
INCHIKEY=XKWWCTISHMFHJB-UHFFFAOYSA-N
CLASS=Quinones
ADDUCT=[M+H]+
INSTRUMENT=Waters Q-ToF Xevo G2-XS
PRECURSOR_MZ=319.0454
COMPOUND_NAME=Rhodocladonic acid
ION_MODE=positive
FORMULA=C15H10O8
65.039948 268.0 
89.040131 612.0 
93.034897 461.949219 
121.028709 1176.193359 
149.023834 1624.455078 
174.031372 7667.605469 
177.018997 21011.625 
192.042206 15314.867188 
235.059814 11217.296875 
248.033325 12756.765625 
261.004303 12699.46875 
276.028137 58564.4375 
291.051117 19528.59375 
301.036926 14663.023438 
397.889709 21.0 
415.572723 39.0 
END IONS

BEGIN IONS
RTINSECONDS=125.821999
CHARGE=1+
MSLEVEL=2
SMILES=O=C1c2c(C)cc(OC)c(C=O)c2Oc2c(O1)c(c(c1c2C(O)OC1=O)O)C
INCHI=InChI=1S/C19H14O9/c1-6-4-9(25-3)8(5-20)15-10(6)17(22)27-14-7(2)13(21)11-12(16(14)26-15)19(24)28-18(11)23/h4-5,19,21,24H,1-3H3
INCHIKEY=SKCUFZLDTAYNBZ-UHFFFAOYSA-N
CLASS=Depsidones
ADDUCT=[M+NH4]+
INSTRUMENT=Waters Q-ToF Xevo G2-XS
PRECURSOR_MZ=404.0982
COMPOUND_NAME=Stictic acid
ION_MODE=positive
FORMULA=C19H14O9
51.156784 20.0 
55.849758 24.0 
77.038414 29.0 
96.429375 59.0 
115.054375 107.0 
145.065903 111.0 
163.039642 122.0 
173.059082 215.0 
191.042053 276.482178 
193.050018 440.0 
201.056259 437.0 
229.051636 1461.321289 
257.044769 6141.476562 
269.045532 757.322754 
273.040558 3122.705078 
275.053436 1605.422852 
311.057251 799.162598 
329.029419 12623.195312 
341.065643 8188.132812 
357.060608 2002.180664 
367.042358 1053.311523 
385.054565 27018.828125 
453.332428 43.0 
465.489319 21.0 
484.929474 51.0 
509.884705 20.0 
553.672363 19.0 
593.479187 26.0 
596.559387 21.0 
599.543701 35.0 
633.446533 28.0 
639.2453 25.0 
657.838806 24.0 
675.524414 56.0 
677.233643 24.0 
687.613892 23.0 
696.89447 26.0 
723.054016 26.0 
742.096741 25.0 
758.12854 20.0 
766.201599 54.0 
END IONS

BEGIN IONS
RTINSECONDS=122.458
CHARGE=1+
MSLEVEL=2
SMILES=[C@@H]1(CC(=O)N2[C@H](C(=O)N[C@H](CC(=O)N3[C@@H](C(=O)N1)CCC3)c1ccccc1)CCC2)c1ccccc1
INCHI=InChI=1S/C28H32N4O4/c33-25-17-21(19-9-3-1-4-10-19)29-27(35)23-13-7-16-32(23)26(34)18-22(20-11-5-2-6-12-20)30-28(36)24-14-8-15-31(24)25/h1-6,9-12,21-24H,7-8,13-18H2,(H,29,35)(H,30,36)/t21-,22-,23-,24+/m1/s1
INCHIKEY=PDLPVRYEPINIBU-YCAMKHIRSA-N
CLASS=N-Containing Compounds
ADDUCT=[M+H]+
INSTRUMENT=Waters Q-ToF Xevo G2-XS
PRECURSOR_MZ=489.2502
COMPOUND_NAME=Roccanin
ION_MODE=positive
FORMULA=C28H32N4O4
70.066399 96390.5625 
103.054718 81994.9375 
106.065788 107919.9375 
112.07634 60092.5625 
131.05043 777015.0 
140.071609 92603.9375 
185.107727 92697.25 
200.107712 579791.0 
203.117859 148543.625 
228.103607 659471.5 
244.14447 68428.625 
245.129517 352290.75 
287.141113 9590.484375 
332.17572 4349.355469 
333.160065 30889.28125 
341.197418 181828.5 
350.186432 36521.375 
375.170837 174808.0 
384.191315 9858.335938 
392.19693 14012.320312 
429.228943 9426.359375 
471.239563 100337.6875 
550.451294 108.0 
565.745544 85.0 
580.539124 79.0 
600.142578 127.0 
628.477966 86.0 
641.756409 109.0 
656.077148 77.0 
664.142395 83.0 
671.183899 83.0 
672.896179 74.0 
688.168396 94.0 
739.190369 72.0 
750.837524 88.0 
754.804443 109.0 
768.205261 90.0 
769.467041 71.0 
END IONS

BEGIN IONS
RTINSECONDS=199.570007
CHARGE=1+
MSLEVEL=2
SMILES=Oc1c(C(=O)Oc2c(OC)cc(c(C(=O)O)c2O)CCC)c(CCC)cc(OC)c1
INCHI=InChI=1S/C22H26O8/c1-5-7-12-9-14(28-3)11-15(23)17(12)22(27)30-20-16(29-4)10-13(8-6-2)18(19(20)24)21(25)26/h9-11,23-24H,5-8H2,1-4H3,(H,25,26)
INCHIKEY=CPHXGYQLOSNELY-UHFFFAOYSA-N
CLASS=Depsides (Didepsides)
ADDUCT=[M+K]+
INSTRUMENT=Waters Q-ToF Xevo G2-XS
PRECURSOR_MZ=457.1265
COMPOUND_NAME=Sekikaic acid
ION_MODE=positive
FORMULA=C22H26O8
102.971481 20.0 
135.984116 71.527466 
170.994797 49.0 
193.987259 55.0 
194.99649 68.44635 
221.981964 90.0 
223.025116 81.0 
231.041306 4641.214844 
247.035568 99.0 
265.046722 1698.515625 
269.031006 95.562744 
288.112396 147.0 
302.042236 83.0 
315.070068 55.0 
330.076111 63.0 
371.139954 97.0 
398.050262 67.0 
401.051147 166.860229 
414.05191 89.0 
429.081818 103.870056 
565.480591 72.0 
571.111389 35.0 
709.327759 19.0 
END IONS

BEGIN IONS
RTINSECONDS=152.414001
CHARGE=1+
MSLEVEL=2
SMILES=O=C1c2c(C)cc(OC)c(C)c2Oc2c(O1)cc(c(c2C)C(=O)O)O
INCHI=InChI=1S/C18H16O7/c1-7-5-11(23-4)8(2)16-13(7)18(22)24-12-6-10(19)14(17(20)21)9(3)15(12)25-16/h5-6,19H,1-4H3,(H,20,21)
INCHIKEY=IXEVSIMCIWOSQO-UHFFFAOYSA-N
CLASS=Depsidones
ADDUCT=[M+H+HCOOH]+
INSTRUMENT=Waters Q-ToF Xevo G2-XS
PRECURSOR_MZ=391.1029
COMPOUND_NAME=Notatic acid
ION_MODE=positive
FORMULA=C18H16O7
128.061752 229.0 
129.069839 169.947388 
143.085526 180.245361 
158.070648 458.13916 
173.096436 701.608398 
178.06424 216.041992 
201.090256 1270.566406 
229.085815 1747.820312 
231.103058 2330.492188 
257.082245 659.495605 
259.095428 1725.831055 
285.075928 18886.96875 
301.105865 1289.472656 
327.086823 2889.941406 
345.038574 332.615967 
345.096039 14387.3125 
373.128387 5795.152344 
373.197113 150.0 
447.477448 23.0 
513.7005 86.0 
556.656067 26.0 
570.149048 21.0 
575.070801 25.0 
643.151794 38.0 
671.082703 37.0 
709.07666 25.0 
761.44812 20.0 
768.633911 20.0 
END IONS

BEGIN IONS
RTINSECONDS=113.052002
CHARGE=1+
MSLEVEL=2
SMILES=O[C@H]1[C@H](O)[C@@H](O)[C@H](Oc2c(C)c3oc(C)cc(=O)c3c(O)c2C)O[C@@H]1COC(=O)C
INCHI=InChI=1S/C20H24O10/c1-7-5-11(22)13-14(23)8(2)18(9(3)19(13)28-7)30-20-17(26)16(25)15(24)12(29-20)6-27-10(4)21/h5,12,15-17,20,23-26H,6H2,1-4H3/t12-,15-,16+,17-,20+/m1/s1
INCHIKEY=NJRLDXGREKHXGV-IVABAYMNSA-N
CLASS=Chromanes and Chromones
ADDUCT=[M+Na]+
INSTRUMENT=Waters Q-ToF Xevo G2-XS
PRECURSOR_MZ=447.1267
COMPOUND_NAME=Galapagin
ION_MODE=positive
FORMULA=C20H24O10
53.006794 68.0 
62.457458 45.0 
97.001816 71.0 
97.5495 76.0 
123.449837 65.0 
124.284164 60.0 
158.985321 97.0 
168.171173 79.0 
227.052338 4896.128906 
242.053772 409.304932 
243.022308 921.348633 
243.061935 33887.8125 
243.122467 190.0 
280.471649 189.0 
297.41449 99.0 
304.852234 78.0 
343.021088 183.0 
346.875214 87.0 
357.490173 95.0 
512.594238 92.0 
516.722229 55.0 
548.244202 49.0 
549.370605 73.0 
568.751953 98.0 
582.540161 37.0 
588.18927 49.0 
596.34082 48.0 
604.378418 46.0 
651.925598 41.0 
659.003357 49.0 
666.292175 44.0 
669.881958 45.0 
675.339111 43.0 
688.542175 43.0 
710.301453 58.0 
736.669617 34.0 
750.228333 38.0 
757.692688 34.0 
762.2724 33.0 
778.21228 55.0 
794.291443 33.0 
799.272827 23.0 
END IONS

BEGIN IONS
RTINSECONDS=110.464996
CHARGE=1+
MSLEVEL=2
SMILES=[C@@H]1(CC(=O)N2[C@H](C(=O)N[C@H](CC(=O)N3[C@@H](C(=O)N1)CCC3)c1ccccc1)CCC2)c1ccccc1
INCHI=InChI=1S/C28H32N4O4/c33-25-17-21(19-9-3-1-4-10-19)29-27(35)23-13-7-16-32(23)26(34)18-22(20-11-5-2-6-12-20)30-28(36)24-14-8-15-31(24)25/h1-6,9-12,21-24H,7-8,13-18H2,(H,29,35)(H,30,36)/t21-,22-,23-,24+/m1/s1
INCHIKEY=PDLPVRYEPINIBU-YCAMKHIRSA-N
CLASS=N-Containing Compounds
ADDUCT=[M+NH4]+
INSTRUMENT=Waters Q-ToF Xevo G2-XS
PRECURSOR_MZ=506.2767
COMPOUND_NAME=Roccanin
ION_MODE=positive
FORMULA=C28H32N4O4
51.02684 49.0 
70.065804 577.796875 
103.054131 488.0 
106.065712 384.416504 
115.087006 353.353516 
131.05072 2291.166016 
147.04393 2973.5625 
200.10788 1055.397461 
201.103683 633.00293 
216.103073 1548.635742 
228.103043 1837.777344 
244.097794 10914.265625 
245.128403 1661.0 
261.12323 953.483398 
339.183563 337.620117 
341.196869 714.509766 
357.193054 608.957031 
359.207031 1548.5625 
375.16568 376.405518 
391.165588 1851.382812 
408.188629 332.499268 
411.202698 98.0 
421.696564 89.0 
487.233826 1062.249023 
488.211884 233.485718 
541.233032 85.0 
595.753418 20.0 
611.091248 18.0 
617.210205 21.0 
619.214661 35.0 
624.661072 18.0 
642.488342 22.0 
665.025818 24.0 
682.422363 21.0 
690.61908 25.0 
706.198669 18.0 
754.380188 24.0 
776.580322 22.0 
784.404907 20.0 
798.060181 25.0 
END IONS

BEGIN IONS
RTINSECONDS=129.065002
CHARGE=1+
MSLEVEL=2
SMILES=O=C(C)O[C@@H]1[C@@H](O)[C@H](O)[C@@H](COC(=O)C)O[C@H]1Oc1cc2oc(C)cc(=O)c2c(O)c1C
INCHI=InChI=1S/C21H24O11/c1-8-5-12(24)16-14(29-8)6-13(9(2)17(16)25)31-21-20(30-11(4)23)19(27)18(26)15(32-21)7-28-10(3)22/h5-6,15,18-21,25-27H,7H2,1-4H3/t15-,18-,19+,20-,21-/m1/s1
INCHIKEY=AFCAWRFTSGVRQA-CMWLGVBASA-N
CLASS=Chromanes and Chromones
ADDUCT=[M+Na]+
INSTRUMENT=Waters Q-ToF Xevo G2-XS
PRECURSOR_MZ=475.1216
COMPOUND_NAME=Roccellin
ION_MODE=positive
FORMULA=C21H24O11
66.920509 155.0 
81.030434 59.0 
94.08548 64.0 
96.542648 62.0 
109.031487 99.0 
127.040695 224.119141 
135.424362 90.0 
209.050034 281.0 
228.039688 184.0 
229.048218 14187.257812 
269.006287 424.258789 
269.064056 29303.765625 
269.110107 183.064453 
295.763763 72.0 
297.918365 72.0 
301.067841 70.0 
330.3013 84.0 
348.635376 72.0 
351.780609 85.0 
362.335144 93.0 
393.117096 106.0 
415.098877 277.0 
548.790222 46.0 
549.313782 72.0 
562.156921 50.0 
576.206299 35.0 
601.973694 41.0 
610.816162 30.0 
629.282898 35.0 
642.320801 30.0 
672.188965 43.0 
687.089844 44.0 
696.950562 56.0 
708.756165 46.0 
719.465271 33.0 
752.585144 36.0 
760.854614 27.0 
774.883728 41.0 
778.435486 39.0 
799.53949 28.0 
END IONS

BEGIN IONS
RTINSECONDS=141.369995
CHARGE=1+
MSLEVEL=2
SMILES=Oc1c(C)c(O)cc(C)c1C(=O)OC
INCHI=InChI=1S/C10H12O4/c1-5-4-7(11)6(2)9(12)8(5)10(13)14-3/h4,11-12H,1-3H3
INCHIKEY=UUQHKWMIDYRWHH-UHFFFAOYSA-N
CLASS=Cleavage Products of Depsides and Depsidones
ADDUCT=[M+H]+
INSTRUMENT=Waters Q-ToF Xevo G2-XS
PRECURSOR_MZ=197.0814
COMPOUND_NAME=Methyl beta-orcinolcarboxylate
ION_MODE=positive
FORMULA=C10H12O4
77.039795 10461.828125 
79.055328 26059.28125 
81.070198 14288.296875 
83.014008 25927.484375 
91.05497 15541.9375 
109.065697 37115.03125 
137.06015 17388.125 
165.055847 668563.5 
165.185486 21985.96875 
165.280167 14020.960938 
249.102295 120.0 
254.799988 114.0 
281.411743 76.0 
283.300293 73.0 
314.832916 57.0 
319.899139 57.0 
322.927795 55.0 
342.820099 54.0 
352.50592 68.0 
373.004761 161.0 
394.366364 94.0 
406.674927 83.0 
428.850861 88.0 
448.069031 73.0 
458.762848 71.0 
462.089722 86.0 
481.215179 93.0 
519.910217 74.0 
530.503845 62.0 
555.786255 51.0 
572.753174 135.0 
592.33667 60.0 
605.56543 97.0 
638.384644 63.0 
651.072083 57.0 
651.460693 44.0 
653.493713 44.0 
654.054321 48.0 
658.283081 39.0 
712.508423 76.0 
716.630981 106.0 
717.352173 57.0 
719.28833 118.0 
766.757996 66.0 
777.817688 63.0 
794.852478 35.0 
796.098083 70.0 
797.174622 55.0 
END IONS

BEGIN IONS
RTINSECONDS=191.649002
CHARGE=1+
MSLEVEL=2
SMILES=CC(=O)CCCCCCCCCCCCC[C@@H]1C(C(=O)O)C(=C)C(=O)O1
INCHI=InChI=1S/C21H34O5/c1-16(22)14-12-10-8-6-4-3-5-7-9-11-13-15-18-19(20(23)24)17(2)21(25)26-18/h18-19H,2-15H2,1H3,(H,23,24)/t18-,19?/m1/s1
INCHIKEY=SKQHRBRVCRUFSX-MRTLOADZSA-N
CLASS=Paraconic acids
ADDUCT=[M+H]+
INSTRUMENT=Waters Q-ToF Xevo G2-XS
PRECURSOR_MZ=367.2484
COMPOUND_NAME=Muronic acid
ION_MODE=positive
FORMULA=C21H34O5
79.055252 43056.59375 
81.070656 51007.4375 
91.055023 54877.0625 
93.070412 48484.34375 
95.084946 73527.75 
121.07338 86829.125 
145.098373 19664.953125 
231.143036 9575.929688 
235.189911 15473.820312 
253.212418 111659.375 
255.233078 25057.46875 
271.222931 56998.59375 
275.237762 52680.625 
303.232605 270764.0 
321.243134 79651.3125 
331.226044 134496.5 
349.237946 354008.0 
428.31076 75.0 
431.121552 113.0 
456.594299 132.0 
480.733978 55.0 
487.691925 72.0 
499.52356 55.0 
501.132385 70.90979 
543.479126 49.0 
561.865234 41.0 
607.195007 38.0 
676.031311 74.0 
694.954407 37.0 
703.836365 106.0 
735.518738 43.0 
741.467651 37.0 
756.757385 43.0 
771.413513 37.0 
779.196289 61.0 
788.31311 42.0 
END IONS

BEGIN IONS
RTINSECONDS=183.828995
CHARGE=1+
MSLEVEL=2
SMILES=CC(C)C[C@H](NC(=O)c1ccccc1)C(=O)OC[C@@H](NC(=O)c1ccccc1)Cc1ccccc1
INCHI=InChI=1S/C29H32N2O4/c1-21(2)18-26(31-28(33)24-16-10-5-11-17-24)29(34)35-20-25(19-22-12-6-3-7-13-22)30-27(32)23-14-8-4-9-15-23/h3-17,21,25-26H,18-20H2,1-2H3,(H,30,32)(H,31,33)/t25-,26-/m0/s1
INCHIKEY=JOOSAYNHLJGJCN-UIOOFZCWSA-N
CLASS=N-Containing Compounds
ADDUCT=[M+H]+
INSTRUMENT=Waters Q-ToF Xevo G2-XS
PRECURSOR_MZ=473.244
COMPOUND_NAME=Hypothallin
ION_MODE=positive
FORMULA=C29H32N2O4
77.039871 5640.851562 
91.055328 4085.089844 
105.034538 79715.9375 
115.055313 3710.595703 
117.070816 36691.6875 
122.060913 7005.371094 
134.094543 2658.472656 
190.123245 17056.203125 
218.118134 17737.953125 
238.123672 128458.0 
239.11496 1496.473633 
256.061646 936.544922 
256.134705 244392.0 
256.295929 1699.0 
336.326324 55.0 
348.893158 117.0 
399.770172 93.0 
401.206024 73.0 
421.428192 62.0 
549.074097 55.0 
555.803467 145.0 
564.870728 53.0 
570.751343 67.0 
572.574097 57.0 
607.825439 49.0 
653.168823 43.0 
654.616211 67.0 
662.226135 89.0 
676.800842 125.0 
681.683655 44.0 
725.609863 87.0 
728.779968 45.0 
750.615967 36.0 
777.727356 48.0 
778.49292 37.0 
789.241211 45.0 
END IONS

BEGIN IONS
RTINSECONDS=244.024994
CHARGE=1+
MSLEVEL=2
SMILES=O=c1c2c(cc(cc2C)OC)oc2c1c(O)c(c(OC)c2Cl)Cl
INCHI=InChI=1S/C16H12Cl2O5/c1-6-4-7(21-2)5-8-9(6)13(19)10-14(20)11(17)16(22-3)12(18)15(10)23-8/h4-5,20H,1-3H3
INCHIKEY=ZPLILIOXZHNNLY-UHFFFAOYSA-N
CLASS=Xanthones and bis-Xanthones
ADDUCT=[M+H+CH3CN]+
INSTRUMENT=Waters Q-ToF Xevo G2-XS
PRECURSOR_MZ=396.0406
COMPOUND_NAME="2,4-Dichlorolichexanthone"
ION_MODE=positive
FORMULA=C16H12Cl2O5
72.083702 21.0 
98.969902 123.0 
128.986588 67.0 
156.9823 290.796143 
170.995712 262.0 
173.012573 240.230835 
185.011108 109.0 
187.031189 102.0 
243.083954 36.076782 
257.103149 47.601288 
262.518585 39.0 
269.102661 63.975555 
313.123016 67.248718 
313.168549 1204.982422 
313.196259 88.735168 
331.180511 420.0 
354.196533 2330.083984 
354.226685 135.21936 
372.205994 721.481445 
510.795074 24.0 
524.967224 18.0 
797.206238 20.0 
END IONS

BEGIN IONS
RTINSECONDS=148.279007
CHARGE=1+
MSLEVEL=2
SMILES=Cc1cc(=O)c2c(o1)c(c(cc2O)O[C@H]1[C@@H]([C@H]([C@@H]([C@H](O1)COC(=O)C)O)OC(=O)C)OC(=O)C)C
INCHI=InChI=1S/C23H26O12/c1-9-6-14(27)18-15(28)7-16(10(2)20(18)31-9)34-23-22(33-13(5)26)21(32-12(4)25)19(29)17(35-23)8-30-11(3)24/h6-7,17,19,21-23,28-29H,8H2,1-5H3/t17-,19-,21+,22-,23-/m1/s1
INCHIKEY=HXFPGPYWXWMQDG-FVEADEHFSA-N
CLASS=Chromanes and Chromones
ADDUCT=[M+H]+
INSTRUMENT=Waters Q-ToF Xevo G2-XS
PRECURSOR_MZ=495.1503
COMPOUND_NAME=Lobodirin
ION_MODE=positive
FORMULA=C23H26O12
81.03418 1488.0 
99.044243 2597.583984 
103.039154 760.289062 
109.029343 5931.34375 
127.039642 22972.578125 
145.049759 2446.115234 
169.050018 3170.894531 
187.060104 15332.664062 
206.992569 1174.151367 
207.065933 280718.0 
207.211548 4196.0 
229.071365 20956.046875 
275.16333 138.0 
288.629639 147.0 
289.093109 9972.359375 
289.159485 173.0 
293.633881 118.0 
305.853394 106.0 
339.333221 93.0 
353.88736 104.0 
366.769531 99.0 
412.774506 116.0 
424.771454 96.0 
426.900024 119.0 
427.522003 151.0 
572.141846 53.0 
573.973083 98.0 
596.045166 58.0 
597.390747 64.0 
642.386658 52.0 
647.467896 48.0 
661.737976 85.0 
701.23822 35.0 
702.310791 40.0 
711.671448 54.0 
712.401001 36.0 
749.92926 41.0 
755.243408 43.0 
790.248657 85.0 
792.093628 37.0 
798.933533 33.0 
END IONS

BEGIN IONS
RTINSECONDS=111.887001
CHARGE=1+
MSLEVEL=2
SMILES=CCCc1cc(cc(c1)O)O
INCHI=InChI=1S/C9H12O2/c1-2-3-7-4-8(10)6-9(11)5-7/h4-6,10-11H,2-3H2,1H3
INCHIKEY=FRNQLQRBNSSJBK-UHFFFAOYSA-N
CLASS=Cleavage Products of Depsides and Depsidones
ADDUCT=[2M+H+CH3CN]+
INSTRUMENT=Waters Q-ToF Xevo G2-XS
PRECURSOR_MZ=346.2018
COMPOUND_NAME=Divarinol
ION_MODE=positive
FORMULA=C9H12O2
79.055161 146.369385 
83.013184 186.446289 
109.071274 385.0 
123.043434 1145.180664 
124.05175 531.750977 
136.051239 549.409668 
137.060593 3033.935547 
165.09108 24830.9375 
182.118256 4118.234375 
215.433182 50.0 
220.875381 46.0 
227.047226 101.0 
240.621399 55.0 
265.020264 56.0 
271.045502 50.0 
289.856812 79.0 
329.175079 166.138916 
406.799072 24.0 
409.30423 20.0 
450.322662 28.0 
464.079834 21.0 
466.059753 33.0 
469.587189 27.0 
483.460876 24.0 
486.666809 24.0 
488.896942 26.0 
511.196167 27.0 
512.08606 26.0 
516.893433 20.0 
540.400208 18.0 
546.194336 25.0 
550.890015 18.0 
554.165771 25.0 
578.285217 18.0 
583.231384 25.0 
649.279419 22.0 
655.991943 44.0 
656.827087 30.0 
660.934509 26.0 
666.467773 19.0 
676.939331 19.0 
678.346375 19.0 
709.495361 20.0 
724.061646 18.0 
735.620483 19.0 
749.979309 23.0 
779.667603 32.0 
782.789124 21.0 
END IONS

BEGIN IONS
RTINSECONDS=185.455994
CHARGE=1+
MSLEVEL=2
SMILES=Cc1cc(c(c(c1C(=O)O)O)C)OC(=O)c1c(c(c(cc1C)OC)C)OC
INCHI=InChI=1S/C20H22O7/c1-9-8-14(11(3)17(21)15(9)19(22)23)27-20(24)16-10(2)7-13(25-5)12(4)18(16)26-6/h7-8,21H,1-6H3,(H,22,23)
INCHIKEY=MIJKZXWOOXIEEU-UHFFFAOYSA-N
CLASS=Depsides (Didepsides)
ADDUCT=[M+H]+
INSTRUMENT=Waters Q-ToF Xevo G2-XS
PRECURSOR_MZ=375.1444
COMPOUND_NAME=Diffractaic acid
ION_MODE=positive
FORMULA=C20H22O7
79.05529 2825.183594 
91.055443 2800.0 
105.069954 6758.300781 
107.050743 7532.207031 
122.072899 3968.951172 
149.060013 8735.75 
150.068329 45178.65625 
163.071732 4423.460938 
178.062592 10028.46875 
193.086838 203073.625 
248.566315 69.0 
251.775101 88.0 
259.962891 72.0 
266.224792 192.0 
268.993866 97.0 
276.235352 72.0 
301.164368 91.0 
318.722382 70.0 
327.180939 80.0 
428.047394 162.0 
429.58194 66.0 
431.973053 87.0 
447.318573 111.0 
466.378845 67.0 
485.944244 54.0 
488.537689 60.0 
497.14798 95.0 
505.159698 69.0 
553.138306 46.0 
574.804199 128.0 
579.52533 44.0 
607.821899 52.0 
612.050842 42.0 
620.624146 47.0 
644.497314 44.0 
646.835815 44.0 
688.112122 68.0 
689.639038 48.0 
709.720642 50.0 
710.973511 82.0 
736.624451 45.0 
746.32373 41.0 
750.293274 37.0 
760.296814 34.0 
763.585938 32.0 
797.565063 167.0 
END IONS

BEGIN IONS
RTINSECONDS=162.617996
CHARGE=1+
MSLEVEL=2
SMILES=c1ccc(cc1)C1=C(C(=C2c3ccccc3OC2=O)OC1=O)O
INCHI=InChI=1S/C18H10O5/c19-15-13(10-6-2-1-3-7-10)17(20)23-16(15)14-11-8-4-5-9-12(11)22-18(14)21/h1-9,19H
INCHIKEY=CGRCGRBHNKRILW-UHFFFAOYSA-N
CLASS=Pulvinic Acid Derivatives
ADDUCT=[M+H+CH3OH]+
INSTRUMENT=Waters Q-ToF Xevo G2-XS
PRECURSOR_MZ=339.0869
COMPOUND_NAME=Calycin
ION_MODE=positive
FORMULA=C18H10O5
77.039917 860.083984 
89.039986 3498.814453 
91.053864 791.612793 
105.034103 2790.53125 
133.028702 3434.96875 
161.023758 13858.296875 
167.085434 3708.728516 
178.078659 8043.992188 
189.021759 3450.886719 
223.075958 12346.664062 
251.071976 6816.292969 
261.053619 1173.347656 
279.066254 14731.5 
307.061066 47152.375 
397.539948 87.0 
405.760132 57.0 
415.555939 59.0 
456.816528 70.0 
477.535767 39.0 
477.872742 59.0 
483.098969 42.0 
504.858459 30.0 
507.328491 46.0 
540.37085 28.0 
557.506653 40.0 
570.090698 34.0 
583.402527 36.0 
611.259216 29.0 
622.287842 30.0 
626.443359 29.0 
632.932312 34.0 
644.206543 41.0 
652.673767 39.0 
679.39624 64.0 
683.790833 36.0 
695.482971 53.0 
730.126221 65.0 
737.829834 29.0 
754.811279 28.0 
763.865173 37.0 
785.809204 26.0 
END IONS

BEGIN IONS
RTINSECONDS=187.238998
CHARGE=1+
MSLEVEL=2
SMILES=O=C1c2c(C(=O)CCCC)cc(OC)cc2Oc2c(O1)cc(c(c2CCCCC)C(=O)O)O
INCHI=InChI=1S/C25H28O8/c1-4-6-8-9-15-21(24(28)29)18(27)13-20-23(15)32-19-12-14(31-3)11-16(17(26)10-7-5-2)22(19)25(30)33-20/h11-13,27H,4-10H2,1-3H3,(H,28,29)
INCHIKEY=JHEWMLHQNRHTQX-UHFFFAOYSA-N
CLASS=Depsidones
ADDUCT=[M+H+HCOOH]+
INSTRUMENT=Waters Q-ToF Xevo G2-XS
PRECURSOR_MZ=503.1917
COMPOUND_NAME=Lobaric acid
ION_MODE=positive
FORMULA=C25H28O8
53.45155 48.0 
54.518345 38.0 
76.500114 26.0 
83.050079 29.0 
85.065826 67.0 
124.049431 30.0 
127.044266 34.0 
136.055374 22.0 
137.022278 162.0 
177.093613 35.0 
203.069489 39.0 
205.089706 43.0 
227.110046 36.0 
231.135284 45.0 
287.134033 210.18103 
294.122498 89.654236 
343.120941 183.0 
343.187286 186.721558 
356.126678 423.592285 
357.135132 376.024414 
371.183777 2034.761719 
395.187012 574.899414 
397.164551 3301.097656 
413.194946 6151.375 
439.174774 1363.987305 
457.148956 590.549316 
457.186035 15284.976562 
551.321594 23.0 
595.5625 28.0 
605.568298 18.0 
635.908081 39.0 
778.790466 22.0 
END IONS

BEGIN IONS
RTINSECONDS=199.565994
CHARGE=1+
MSLEVEL=2
SMILES=O=C1c2c(C)c(Cl)c(OC)cc2Oc2c(O1)c(c(c(c2C)Cl)OC)Cl
INCHI=InChI=1S/C17H13Cl3O5/c1-6-10-8(5-9(22-3)11(6)18)24-14-7(2)12(19)15(23-4)13(20)16(14)25-17(10)21/h5H,1-4H3
INCHIKEY=HEZSUFJPGFDKIG-UHFFFAOYSA-N
CLASS=Depsidones
ADDUCT=[M+H+CH3OH]+
INSTRUMENT=Waters Q-ToF Xevo G2-XS
PRECURSOR_MZ=435.0169
COMPOUND_NAME=3-Dechloro-4-O-methyldiploicin
ION_MODE=positive
FORMULA=C17H13Cl3O5
77.039726 3965.753906 
99.000587 2442.025391 
142.018463 14451.59375 
169.005707 52172.71875 
170.013382 32642.15625 
176.987213 53353.65625 
198.008545 104604.0625 
230.034622 44841.96875 
247.05278 33999.375 
261.032135 28349.4375 
276.054779 42163.3125 
296.001068 33558.71875 
311.024353 88304.8125 
324.031921 30134.546875 
339.018524 83932.4375 
351.990204 23586.140625 
367.013916 78331.75 
402.990509 687876.0 
403.193237 18956.0 
517.063538 63.0 
522.154663 63.0 
527.771301 111.0 
542.131165 62.0 
543.913757 59.0 
555.112671 62.0 
583.57074 73.0 
602.160645 57.0 
616.728333 64.0 
621.665588 82.0 
640.38385 66.0 
659.904175 71.0 
665.695068 89.0 
713.224792 208.0 
718.134155 97.0 
721.845886 118.0 
728.020691 95.0 
735.416748 121.0 
775.719849 82.0 
796.831482 54.0 
798.038208 52.0 
END IONS

BEGIN IONS
RTINSECONDS=168.582001
CHARGE=1+
MSLEVEL=2
SMILES=C[C@@H]1CC(=O)C2=C(c3c(ccc(c3O)c3c(c4c(cc3)O[C@@]3([C@H]([C@@H](CC(=O)C3=C4O)C)O)C(=O)OC)O)O[C@@]2([C@H]1O)C(=O)OC)O
INCHI=InChI=1S/C32H30O14/c1-11-9-15(33)21-25(37)19-17(45-31(21,27(11)39)29(41)43-3)7-5-13(23(19)35)14-6-8-18-20(24(14)36)26(38)22-16(34)10-12(2)28(40)32(22,46-18)30(42)44-4/h5-8,11-12,27-28,35-40H,9-10H2,1-4H3/t11-,12-,27+,28+,31+,32+/m1/s1
INCHIKEY=NFZJAYYORNVZNI-ZKHWAINJSA-N
CLASS=Xanthones and bis-Xanthones
ADDUCT=[M+H]+
INSTRUMENT=Waters Q-ToF Xevo G2-XS
PRECURSOR_MZ=639.1714
COMPOUND_NAME=Secalonic acid A
ION_MODE=positive
FORMULA=C32H30O14
54.047215 34.0 
65.04142 59.0 
79.053474 40.0 
81.000336 96.0 
95.051125 79.0 
123.043968 426.517578 
151.039169 877.05957 
161.024323 119.0 
169.050797 143.03064 
183.066193 711.817383 
193.048676 810.0 
211.061447 87.0 
241.044617 62.0 
243.066589 40.0 
271.021484 114.369934 
288.573181 42.0 
335.053528 55.0 
337.064636 62.0 
349.07254 192.421509 
351.08374 192.555664 
369.099609 109.0 
377.066284 1099.868164 
405.058624 167.0 
437.092407 152.0 
455.101868 586.815918 
469.092163 352.0 
483.107849 875.0 
501.120178 1375.09668 
502.125702 470.400391 
511.098816 364.545898 
543.128662 1266.853516 
561.138977 6038.277344 
571.128601 908.670898 
579.147827 2525.089844 
589.132446 2353.921875 
621.161255 1971.457031 
694.241455 20.0 
705.641846 21.0 
712.180481 21.0 
712.371582 33.0 
721.002258 22.0 
722.803101 26.0 
740.261353 27.0 
772.421997 39.0 
784.319153 18.0 
END IONS

BEGIN IONS
RTINSECONDS=139.434998
CHARGE=1+
MSLEVEL=2
SMILES=Cc1cc(c(c2c1c(=O)c1c(o2)c(c(c(c1O)Cl)O)Cl)Cl)O
INCHI=InChI=1S/C14H7Cl3O5/c1-3-2-4(18)7(15)13-5(3)10(19)6-11(20)8(16)12(21)9(17)14(6)22-13/h2,18,20-21H,1H3
INCHIKEY=NTAXLEHKEDVPRK-UHFFFAOYSA-N
CLASS=Xanthones and bis-Xanthones
ADDUCT=[M+NH4]+
INSTRUMENT=Waters Q-ToF Xevo G2-XS
PRECURSOR_MZ=377.9703
COMPOUND_NAME=Arthothelin
ION_MODE=positive
FORMULA=C14H7Cl3O5
54.452568 23.0 
111.963455 20.0 
138.350433 22.0 
148.007217 24.0 
172.972198 51.0 
178.003708 32.0 
182.972748 57.0 
210.979858 41.0 
236.996765 47.0 
238.971481 48.0 
256.966248 60.0 
266.961761 104.419373 
267.964447 130.606323 
285.961426 96.128418 
302.937408 132.171631 
313.955292 474.0 
330.926147 147.627197 
348.925842 559.97998 
358.893677 126.164368 
358.927887 2841.701172 
431.077423 26.0 
667.478027 23.0 
780.755005 21.0 
END IONS

BEGIN IONS
RTINSECONDS=175.639008
CHARGE=1+
MSLEVEL=2
SMILES=CCCCCC(=O)Cc1cc(cc(c1C(=O)Oc1cc(c(c(c1)CC(=O)CCCCC)C(=O)O)OC)O)O
INCHI=InChI=1S/C29H36O9/c1-4-6-8-10-20(30)12-18-14-22(32)16-24(33)26(18)29(36)38-23-15-19(13-21(31)11-9-7-5-2)27(28(34)35)25(17-23)37-3/h14-17,32-33H,4-13H2,1-3H3,(H,34,35)
INCHIKEY=DGXLEDCXMIJNPJ-UHFFFAOYSA-N
CLASS=Depsides (Didepsides)
ADDUCT=[M+K]+
INSTRUMENT=Waters Q-ToF Xevo G2-XS
PRECURSOR_MZ=567.1996
COMPOUND_NAME=Arthoniaic acid
ION_MODE=positive
FORMULA=C29H36O9
110.375839 18.0 
114.427841 18.0 
120.236526 27.0 
149.057404 25.0 
169.05571 35.0 
181.584641 36.0 
193.019348 49.0 
198.556564 29.0 
206.683777 51.0 
208.141495 49.0 
239.10379 51.0 
287.069763 1411.379883 
301.083038 1028.0 
319.022491 469.824219 
319.050507 560.634277 
319.095551 59369.40625 
319.1633 370.864502 
363.410339 103.0 
415.920349 28.0 
423.159698 37.0 
425.652527 50.0 
426.078186 36.0 
430.061584 30.0 
452.634247 31.0 
496.823883 55.0 
636.388489 25.0 
684.735657 24.0 
684.787598 25.0 
696.470886 21.0 
727.043274 23.0 
756.400757 18.0 
765.399353 20.0 
END IONS

BEGIN IONS
RTINSECONDS=123.046997
CHARGE=1+
MSLEVEL=2
SMILES=[C@@H]1(CC(=O)N2[C@H](C(=O)N[C@H](CC(=O)N3[C@@H](C(=O)N1)CCC3)c1ccccc1)CCC2)c1ccccc1
INCHI=InChI=1S/C28H32N4O4/c33-25-17-21(19-9-3-1-4-10-19)29-27(35)23-13-7-16-32(23)26(34)18-22(20-11-5-2-6-12-20)30-28(36)24-14-8-15-31(24)25/h1-6,9-12,21-24H,7-8,13-18H2,(H,29,35)(H,30,36)/t21-,22-,23-,24+/m1/s1
INCHIKEY=PDLPVRYEPINIBU-YCAMKHIRSA-N
CLASS=N-Containing Compounds
ADDUCT=[M+Na]+
INSTRUMENT=Waters Q-ToF Xevo G2-XS
PRECURSOR_MZ=511.2321
COMPOUND_NAME=Roccanin
ION_MODE=positive
FORMULA=C28H32N4O4
70.066734 319.0 
91.054451 485.0 
106.066017 485.064941 
113.07206 372.612549 
131.049683 5349.082031 
135.057602 600.107422 
161.068497 2581.910156 
200.108185 1587.831055 
222.089874 1693.43457 
228.102158 3588.148438 
249.100357 7961.410156 
250.083817 3888.207031 
267.110565 69018.5 
284.137695 8692.507812 
294.121094 1329.864258 
310.115814 1182.494141 
336.167755 5268.480469 
355.141327 27274.15625 
363.17865 5163.261719 
379.170959 2825.009766 
399.162842 700.930664 
415.160919 1211.455078 
428.153351 675.877441 
442.174133 886.429688 
594.612244 46.0 
675.275879 42.0 
777.026917 21.0 
END IONS

